p cnf 60 95
-1 13 0
-2 14 0
-13 14 0
-2 -13 0
-3 15 0
-14 15 0
-3 -14 0
-4 -15 0
1 2 3 4 0
-5 17 0
-6 18 0
-17 18 0
-6 -17 0
-7 19 0
-18 19 0
-7 -18 0
-8 -19 0
5 6 7 8 0
-9 21 0
-10 22 0
-21 22 0
-10 -21 0
-11 23 0
-22 23 0
-11 -22 0
-12 -23 0
9 10 11 12 0
-6 0
-8 0
-2 0
-3 0
-11 0
-12 0
-25 29 0
-26 30 0
-29 30 0
-26 -29 0
-27 31 0
-30 31 0
-27 -30 0
-28 -31 0
25 33 0
-34 0
-35 0
26 36 0
-33 36 0
26 -33 37 0
-34 37 0
26 -34 38 0
-35 38 0
26 -35 0
27 39 0
-36 39 0
27 -36 40 0
-37 40 0
27 -37 41 0
-38 41 0
27 -38 0
28 -41 0
-1 45 0
-5 46 0
-45 46 0
-5 -45 0
-9 47 0
-46 47 0
-9 -46 0
-25 -47 0
1 5 9 25 0
-2 49 0
-6 50 0
-49 50 0
-6 -49 0
-10 51 0
-50 51 0
-10 -50 0
-26 -51 0
2 6 10 26 0
-3 53 0
-7 54 0
-53 54 0
-7 -53 0
-11 55 0
-54 55 0
-11 -54 0
-27 -55 0
3 7 11 27 0
-4 57 0
-8 58 0
-57 58 0
-8 -57 0
-12 59 0
-58 59 0
-12 -58 0
-28 -59 0
4 8 12 28 0
