p cnf 4838 10408
-1 126 0
-2 127 0
-126 127 0
-2 -126 0
-3 128 0
-127 128 0
-3 -127 0
-4 129 0
-128 129 0
-4 -128 0
-5 -129 0
1 2 3 4 5 0
-6 131 0
-7 132 0
-131 132 0
-7 -131 0
-8 133 0
-132 133 0
-8 -132 0
-9 134 0
-133 134 0
-9 -133 0
-10 -134 0
6 7 8 9 10 0
-11 136 0
-12 137 0
-136 137 0
-12 -136 0
-13 138 0
-137 138 0
-13 -137 0
-14 139 0
-138 139 0
-14 -138 0
-15 -139 0
11 12 13 14 15 0
-16 141 0
-17 142 0
-141 142 0
-17 -141 0
-18 143 0
-142 143 0
-18 -142 0
-19 144 0
-143 144 0
-19 -143 0
-20 -144 0
16 17 18 19 20 0
-21 146 0
-22 147 0
-146 147 0
-22 -146 0
-23 148 0
-147 148 0
-23 -147 0
-24 149 0
-148 149 0
-24 -148 0
-25 -149 0
21 22 23 24 25 0
-26 151 0
-27 152 0
-151 152 0
-27 -151 0
-28 153 0
-152 153 0
-28 -152 0
-29 154 0
-153 154 0
-29 -153 0
-30 -154 0
26 27 28 29 30 0
-31 156 0
-32 157 0
-156 157 0
-32 -156 0
-33 158 0
-157 158 0
-33 -157 0
-34 159 0
-158 159 0
-34 -158 0
-35 -159 0
31 32 33 34 35 0
-36 161 0
-37 162 0
-161 162 0
-37 -161 0
-38 163 0
-162 163 0
-38 -162 0
-39 164 0
-163 164 0
-39 -163 0
-40 -164 0
36 37 38 39 40 0
-41 166 0
-42 167 0
-166 167 0
-42 -166 0
-43 168 0
-167 168 0
-43 -167 0
-44 169 0
-168 169 0
-44 -168 0
-45 -169 0
41 42 43 44 45 0
-46 171 0
-47 172 0
-171 172 0
-47 -171 0
-48 173 0
-172 173 0
-48 -172 0
-49 174 0
-173 174 0
-49 -173 0
-50 -174 0
46 47 48 49 50 0
-51 176 0
-52 177 0
-176 177 0
-52 -176 0
-53 178 0
-177 178 0
-53 -177 0
-54 179 0
-178 179 0
-54 -178 0
-55 -179 0
51 52 53 54 55 0
-56 181 0
-57 182 0
-181 182 0
-57 -181 0
-58 183 0
-182 183 0
-58 -182 0
-59 184 0
-183 184 0
-59 -183 0
-60 -184 0
56 57 58 59 60 0
-61 186 0
-62 187 0
-186 187 0
-62 -186 0
-63 188 0
-187 188 0
-63 -187 0
-64 189 0
-188 189 0
-64 -188 0
-65 -189 0
61 62 63 64 65 0
-66 191 0
-67 192 0
-191 192 0
-67 -191 0
-68 193 0
-192 193 0
-68 -192 0
-69 194 0
-193 194 0
-69 -193 0
-70 -194 0
66 67 68 69 70 0
-71 196 0
-72 197 0
-196 197 0
-72 -196 0
-73 198 0
-197 198 0
-73 -197 0
-74 199 0
-198 199 0
-74 -198 0
-75 -199 0
71 72 73 74 75 0
-76 201 0
-77 202 0
-201 202 0
-77 -201 0
-78 203 0
-202 203 0
-78 -202 0
-79 204 0
-203 204 0
-79 -203 0
-80 -204 0
76 77 78 79 80 0
-81 206 0
-82 207 0
-206 207 0
-82 -206 0
-83 208 0
-207 208 0
-83 -207 0
-84 209 0
-208 209 0
-84 -208 0
-85 -209 0
81 82 83 84 85 0
-86 211 0
-87 212 0
-211 212 0
-87 -211 0
-88 213 0
-212 213 0
-88 -212 0
-89 214 0
-213 214 0
-89 -213 0
-90 -214 0
86 87 88 89 90 0
-91 216 0
-92 217 0
-216 217 0
-92 -216 0
-93 218 0
-217 218 0
-93 -217 0
-94 219 0
-218 219 0
-94 -218 0
-95 -219 0
91 92 93 94 95 0
-96 221 0
-97 222 0
-221 222 0
-97 -221 0
-98 223 0
-222 223 0
-98 -222 0
-99 224 0
-223 224 0
-99 -223 0
-100 -224 0
96 97 98 99 100 0
-101 226 0
-102 227 0
-226 227 0
-102 -226 0
-103 228 0
-227 228 0
-103 -227 0
-104 229 0
-228 229 0
-104 -228 0
-105 -229 0
101 102 103 104 105 0
-106 231 0
-107 232 0
-231 232 0
-107 -231 0
-108 233 0
-232 233 0
-108 -232 0
-109 234 0
-233 234 0
-109 -233 0
-110 -234 0
106 107 108 109 110 0
-111 236 0
-112 237 0
-236 237 0
-112 -236 0
-113 238 0
-237 238 0
-113 -237 0
-114 239 0
-238 239 0
-114 -238 0
-115 -239 0
111 112 113 114 115 0
-116 241 0
-117 242 0
-241 242 0
-117 -241 0
-118 243 0
-242 243 0
-118 -242 0
-119 244 0
-243 244 0
-119 -243 0
-120 -244 0
116 117 118 119 120 0
-121 246 0
-122 247 0
-246 247 0
-122 -246 0
-123 248 0
-247 248 0
-123 -247 0
-124 249 0
-248 249 0
-124 -248 0
-125 -249 0
121 122 123 124 125 0
-251 1 0
-1 251 0
-252 6 0
-6 252 0
-253 11 0
-11 253 0
-254 16 0
-16 254 0
-255 21 0
-21 255 0
-251 256 0
-252 257 0
-256 257 0
-252 -256 0
-253 258 0
-257 258 0
-253 -257 0
-254 259 0
-258 259 0
-254 -258 0
-255 -259 0
-261 1 2 0
-1 261 0
-2 261 0
-262 6 7 0
-6 262 0
-7 262 0
-263 11 12 0
-11 263 0
-12 263 0
-264 16 17 0
-16 264 0
-17 264 0
-265 21 22 0
-21 265 0
-22 265 0
-261 266 0
-267 0
-262 268 0
-266 268 0
-262 -266 269 0
-267 269 0
-262 -267 0
-263 270 0
-268 270 0
-263 -268 271 0
-269 271 0
-263 -269 0
-264 272 0
-270 272 0
-264 -270 273 0
-271 273 0
-264 -271 0
-265 -273 0
-276 1 2 3 0
-1 276 0
-2 276 0
-3 276 0
-277 6 7 8 0
-6 277 0
-7 277 0
-8 277 0
-278 11 12 13 0
-11 278 0
-12 278 0
-13 278 0
-279 16 17 18 0
-16 279 0
-17 279 0
-18 279 0
-280 21 22 23 0
-21 280 0
-22 280 0
-23 280 0
-276 281 0
-282 0
-283 0
-277 284 0
-281 284 0
-277 -281 285 0
-282 285 0
-277 -282 286 0
-283 286 0
-277 -283 0
-278 287 0
-284 287 0
-278 -284 288 0
-285 288 0
-278 -285 289 0
-286 289 0
-278 -286 0
-279 290 0
-287 290 0
-279 -287 291 0
-288 291 0
-279 -288 292 0
-289 292 0
-279 -289 0
-280 -292 0
-296 1 2 3 4 0
-1 296 0
-2 296 0
-3 296 0
-4 296 0
-297 6 7 8 9 0
-6 297 0
-7 297 0
-8 297 0
-9 297 0
-298 11 12 13 14 0
-11 298 0
-12 298 0
-13 298 0
-14 298 0
-299 16 17 18 19 0
-16 299 0
-17 299 0
-18 299 0
-19 299 0
-300 21 22 23 24 0
-21 300 0
-22 300 0
-23 300 0
-24 300 0
-296 301 0
-302 0
-303 0
-304 0
-297 305 0
-301 305 0
-297 -301 306 0
-302 306 0
-297 -302 307 0
-303 307 0
-297 -303 308 0
-304 308 0
-297 -304 0
-298 309 0
-305 309 0
-298 -305 310 0
-306 310 0
-298 -306 311 0
-307 311 0
-298 -307 312 0
-308 312 0
-298 -308 0
-299 313 0
-309 313 0
-299 -309 314 0
-310 314 0
-299 -310 315 0
-311 315 0
-299 -311 316 0
-312 316 0
-299 -312 0
-300 -316 0
-321 1 2 3 4 5 0
-1 321 0
-2 321 0
-3 321 0
-4 321 0
-5 321 0
-322 6 7 8 9 10 0
-6 322 0
-7 322 0
-8 322 0
-9 322 0
-10 322 0
-323 11 12 13 14 15 0
-11 323 0
-12 323 0
-13 323 0
-14 323 0
-15 323 0
-324 16 17 18 19 20 0
-16 324 0
-17 324 0
-18 324 0
-19 324 0
-20 324 0
-325 21 22 23 24 25 0
-21 325 0
-22 325 0
-23 325 0
-24 325 0
-25 325 0
-326 2 0
-2 326 0
-327 7 0
-7 327 0
-328 12 0
-12 328 0
-329 17 0
-17 329 0
-330 22 0
-22 330 0
-326 331 0
-327 332 0
-331 332 0
-327 -331 0
-328 333 0
-332 333 0
-328 -332 0
-329 334 0
-333 334 0
-329 -333 0
-330 -334 0
-336 2 3 0
-2 336 0
-3 336 0
-337 7 8 0
-7 337 0
-8 337 0
-338 12 13 0
-12 338 0
-13 338 0
-339 17 18 0
-17 339 0
-18 339 0
-340 22 23 0
-22 340 0
-23 340 0
-336 341 0
-342 0
-337 343 0
-341 343 0
-337 -341 344 0
-342 344 0
-337 -342 0
-338 345 0
-343 345 0
-338 -343 346 0
-344 346 0
-338 -344 0
-339 347 0
-345 347 0
-339 -345 348 0
-346 348 0
-339 -346 0
-340 -348 0
-351 2 3 4 0
-2 351 0
-3 351 0
-4 351 0
-352 7 8 9 0
-7 352 0
-8 352 0
-9 352 0
-353 12 13 14 0
-12 353 0
-13 353 0
-14 353 0
-354 17 18 19 0
-17 354 0
-18 354 0
-19 354 0
-355 22 23 24 0
-22 355 0
-23 355 0
-24 355 0
-351 356 0
-357 0
-358 0
-352 359 0
-356 359 0
-352 -356 360 0
-357 360 0
-352 -357 361 0
-358 361 0
-352 -358 0
-353 362 0
-359 362 0
-353 -359 363 0
-360 363 0
-353 -360 364 0
-361 364 0
-353 -361 0
-354 365 0
-362 365 0
-354 -362 366 0
-363 366 0
-354 -363 367 0
-364 367 0
-354 -364 0
-355 -367 0
-371 2 3 4 5 0
-2 371 0
-3 371 0
-4 371 0
-5 371 0
-372 7 8 9 10 0
-7 372 0
-8 372 0
-9 372 0
-10 372 0
-373 12 13 14 15 0
-12 373 0
-13 373 0
-14 373 0
-15 373 0
-374 17 18 19 20 0
-17 374 0
-18 374 0
-19 374 0
-20 374 0
-375 22 23 24 25 0
-22 375 0
-23 375 0
-24 375 0
-25 375 0
-371 376 0
-377 0
-378 0
-379 0
-372 380 0
-376 380 0
-372 -376 381 0
-377 381 0
-372 -377 382 0
-378 382 0
-372 -378 383 0
-379 383 0
-372 -379 0
-373 384 0
-380 384 0
-373 -380 385 0
-381 385 0
-373 -381 386 0
-382 386 0
-373 -382 387 0
-383 387 0
-373 -383 0
-374 388 0
-384 388 0
-374 -384 389 0
-385 389 0
-374 -385 390 0
-386 390 0
-374 -386 391 0
-387 391 0
-374 -387 0
-375 -391 0
-396 3 0
-3 396 0
-397 8 0
-8 397 0
-398 13 0
-13 398 0
-399 18 0
-18 399 0
-400 23 0
-23 400 0
-396 401 0
-397 402 0
-401 402 0
-397 -401 0
-398 403 0
-402 403 0
-398 -402 0
-399 404 0
-403 404 0
-399 -403 0
-400 -404 0
-406 3 4 0
-3 406 0
-4 406 0
-407 8 9 0
-8 407 0
-9 407 0
-408 13 14 0
-13 408 0
-14 408 0
-409 18 19 0
-18 409 0
-19 409 0
-410 23 24 0
-23 410 0
-24 410 0
-406 411 0
-412 0
-407 413 0
-411 413 0
-407 -411 414 0
-412 414 0
-407 -412 0
-408 415 0
-413 415 0
-408 -413 416 0
-414 416 0
-408 -414 0
-409 417 0
-415 417 0
-409 -415 418 0
-416 418 0
-409 -416 0
-410 -418 0
-421 3 4 5 0
-3 421 0
-4 421 0
-5 421 0
-422 8 9 10 0
-8 422 0
-9 422 0
-10 422 0
-423 13 14 15 0
-13 423 0
-14 423 0
-15 423 0
-424 18 19 20 0
-18 424 0
-19 424 0
-20 424 0
-425 23 24 25 0
-23 425 0
-24 425 0
-25 425 0
-421 426 0
-427 0
-428 0
-422 429 0
-426 429 0
-422 -426 430 0
-427 430 0
-422 -427 431 0
-428 431 0
-422 -428 0
-423 432 0
-429 432 0
-423 -429 433 0
-430 433 0
-423 -430 434 0
-431 434 0
-423 -431 0
-424 435 0
-432 435 0
-424 -432 436 0
-433 436 0
-424 -433 437 0
-434 437 0
-424 -434 0
-425 -437 0
-441 4 0
-4 441 0
-442 9 0
-9 442 0
-443 14 0
-14 443 0
-444 19 0
-19 444 0
-445 24 0
-24 445 0
-441 446 0
-442 447 0
-446 447 0
-442 -446 0
-443 448 0
-447 448 0
-443 -447 0
-444 449 0
-448 449 0
-444 -448 0
-445 -449 0
-451 4 5 0
-4 451 0
-5 451 0
-452 9 10 0
-9 452 0
-10 452 0
-453 14 15 0
-14 453 0
-15 453 0
-454 19 20 0
-19 454 0
-20 454 0
-455 24 25 0
-24 455 0
-25 455 0
-451 456 0
-457 0
-452 458 0
-456 458 0
-452 -456 459 0
-457 459 0
-452 -457 0
-453 460 0
-458 460 0
-453 -458 461 0
-459 461 0
-453 -459 0
-454 462 0
-460 462 0
-454 -460 463 0
-461 463 0
-454 -461 0
-455 -463 0
-466 5 0
-5 466 0
-467 10 0
-10 467 0
-468 15 0
-15 468 0
-469 20 0
-20 469 0
-470 25 0
-25 470 0
-466 471 0
-467 472 0
-471 472 0
-467 -471 0
-468 473 0
-472 473 0
-468 -472 0
-469 474 0
-473 474 0
-469 -473 0
-470 -474 0
-1 476 0
-6 477 0
-476 477 0
-6 -476 0
-11 478 0
-477 478 0
-11 -477 0
-16 479 0
-478 479 0
-16 -478 0
-21 -479 0
1 6 11 16 21 0
-2 481 0
-7 482 0
-481 482 0
-7 -481 0
-12 483 0
-482 483 0
-12 -482 0
-17 484 0
-483 484 0
-17 -483 0
-22 -484 0
2 7 12 17 22 0
-3 486 0
-8 487 0
-486 487 0
-8 -486 0
-13 488 0
-487 488 0
-13 -487 0
-18 489 0
-488 489 0
-18 -488 0
-23 -489 0
3 8 13 18 23 0
-4 491 0
-9 492 0
-491 492 0
-9 -491 0
-14 493 0
-492 493 0
-14 -492 0
-19 494 0
-493 494 0
-19 -493 0
-24 -494 0
4 9 14 19 24 0
-5 496 0
-10 497 0
-496 497 0
-10 -496 0
-15 498 0
-497 498 0
-15 -497 0
-20 499 0
-498 499 0
-20 -498 0
-25 -499 0
5 10 15 20 25 0
-501 26 0
-26 501 0
-502 31 0
-31 502 0
-503 36 0
-36 503 0
-504 41 0
-41 504 0
-505 46 0
-46 505 0
-501 506 0
-502 507 0
-506 507 0
-502 -506 0
-503 508 0
-507 508 0
-503 -507 0
-504 509 0
-508 509 0
-504 -508 0
-505 -509 0
-511 26 27 0
-26 511 0
-27 511 0
-512 31 32 0
-31 512 0
-32 512 0
-513 36 37 0
-36 513 0
-37 513 0
-514 41 42 0
-41 514 0
-42 514 0
-515 46 47 0
-46 515 0
-47 515 0
-511 516 0
-517 0
-512 518 0
-516 518 0
-512 -516 519 0
-517 519 0
-512 -517 0
-513 520 0
-518 520 0
-513 -518 521 0
-519 521 0
-513 -519 0
-514 522 0
-520 522 0
-514 -520 523 0
-521 523 0
-514 -521 0
-515 -523 0
-526 26 27 28 0
-26 526 0
-27 526 0
-28 526 0
-527 31 32 33 0
-31 527 0
-32 527 0
-33 527 0
-528 36 37 38 0
-36 528 0
-37 528 0
-38 528 0
-529 41 42 43 0
-41 529 0
-42 529 0
-43 529 0
-530 46 47 48 0
-46 530 0
-47 530 0
-48 530 0
-526 531 0
-532 0
-533 0
-527 534 0
-531 534 0
-527 -531 535 0
-532 535 0
-527 -532 536 0
-533 536 0
-527 -533 0
-528 537 0
-534 537 0
-528 -534 538 0
-535 538 0
-528 -535 539 0
-536 539 0
-528 -536 0
-529 540 0
-537 540 0
-529 -537 541 0
-538 541 0
-529 -538 542 0
-539 542 0
-529 -539 0
-530 -542 0
-546 26 27 28 29 0
-26 546 0
-27 546 0
-28 546 0
-29 546 0
-547 31 32 33 34 0
-31 547 0
-32 547 0
-33 547 0
-34 547 0
-548 36 37 38 39 0
-36 548 0
-37 548 0
-38 548 0
-39 548 0
-549 41 42 43 44 0
-41 549 0
-42 549 0
-43 549 0
-44 549 0
-550 46 47 48 49 0
-46 550 0
-47 550 0
-48 550 0
-49 550 0
-546 551 0
-552 0
-553 0
-554 0
-547 555 0
-551 555 0
-547 -551 556 0
-552 556 0
-547 -552 557 0
-553 557 0
-547 -553 558 0
-554 558 0
-547 -554 0
-548 559 0
-555 559 0
-548 -555 560 0
-556 560 0
-548 -556 561 0
-557 561 0
-548 -557 562 0
-558 562 0
-548 -558 0
-549 563 0
-559 563 0
-549 -559 564 0
-560 564 0
-549 -560 565 0
-561 565 0
-549 -561 566 0
-562 566 0
-549 -562 0
-550 -566 0
-571 26 27 28 29 30 0
-26 571 0
-27 571 0
-28 571 0
-29 571 0
-30 571 0
-572 31 32 33 34 35 0
-31 572 0
-32 572 0
-33 572 0
-34 572 0
-35 572 0
-573 36 37 38 39 40 0
-36 573 0
-37 573 0
-38 573 0
-39 573 0
-40 573 0
-574 41 42 43 44 45 0
-41 574 0
-42 574 0
-43 574 0
-44 574 0
-45 574 0
-575 46 47 48 49 50 0
-46 575 0
-47 575 0
-48 575 0
-49 575 0
-50 575 0
-576 27 0
-27 576 0
-577 32 0
-32 577 0
-578 37 0
-37 578 0
-579 42 0
-42 579 0
-580 47 0
-47 580 0
-576 581 0
-577 582 0
-581 582 0
-577 -581 0
-578 583 0
-582 583 0
-578 -582 0
-579 584 0
-583 584 0
-579 -583 0
-580 -584 0
-586 27 28 0
-27 586 0
-28 586 0
-587 32 33 0
-32 587 0
-33 587 0
-588 37 38 0
-37 588 0
-38 588 0
-589 42 43 0
-42 589 0
-43 589 0
-590 47 48 0
-47 590 0
-48 590 0
-586 591 0
-592 0
-587 593 0
-591 593 0
-587 -591 594 0
-592 594 0
-587 -592 0
-588 595 0
-593 595 0
-588 -593 596 0
-594 596 0
-588 -594 0
-589 597 0
-595 597 0
-589 -595 598 0
-596 598 0
-589 -596 0
-590 -598 0
-601 27 28 29 0
-27 601 0
-28 601 0
-29 601 0
-602 32 33 34 0
-32 602 0
-33 602 0
-34 602 0
-603 37 38 39 0
-37 603 0
-38 603 0
-39 603 0
-604 42 43 44 0
-42 604 0
-43 604 0
-44 604 0
-605 47 48 49 0
-47 605 0
-48 605 0
-49 605 0
-601 606 0
-607 0
-608 0
-602 609 0
-606 609 0
-602 -606 610 0
-607 610 0
-602 -607 611 0
-608 611 0
-602 -608 0
-603 612 0
-609 612 0
-603 -609 613 0
-610 613 0
-603 -610 614 0
-611 614 0
-603 -611 0
-604 615 0
-612 615 0
-604 -612 616 0
-613 616 0
-604 -613 617 0
-614 617 0
-604 -614 0
-605 -617 0
-621 27 28 29 30 0
-27 621 0
-28 621 0
-29 621 0
-30 621 0
-622 32 33 34 35 0
-32 622 0
-33 622 0
-34 622 0
-35 622 0
-623 37 38 39 40 0
-37 623 0
-38 623 0
-39 623 0
-40 623 0
-624 42 43 44 45 0
-42 624 0
-43 624 0
-44 624 0
-45 624 0
-625 47 48 49 50 0
-47 625 0
-48 625 0
-49 625 0
-50 625 0
-621 626 0
-627 0
-628 0
-629 0
-622 630 0
-626 630 0
-622 -626 631 0
-627 631 0
-622 -627 632 0
-628 632 0
-622 -628 633 0
-629 633 0
-622 -629 0
-623 634 0
-630 634 0
-623 -630 635 0
-631 635 0
-623 -631 636 0
-632 636 0
-623 -632 637 0
-633 637 0
-623 -633 0
-624 638 0
-634 638 0
-624 -634 639 0
-635 639 0
-624 -635 640 0
-636 640 0
-624 -636 641 0
-637 641 0
-624 -637 0
-625 -641 0
-646 28 0
-28 646 0
-647 33 0
-33 647 0
-648 38 0
-38 648 0
-649 43 0
-43 649 0
-650 48 0
-48 650 0
-646 651 0
-647 652 0
-651 652 0
-647 -651 0
-648 653 0
-652 653 0
-648 -652 0
-649 654 0
-653 654 0
-649 -653 0
-650 -654 0
-656 28 29 0
-28 656 0
-29 656 0
-657 33 34 0
-33 657 0
-34 657 0
-658 38 39 0
-38 658 0
-39 658 0
-659 43 44 0
-43 659 0
-44 659 0
-660 48 49 0
-48 660 0
-49 660 0
-656 661 0
-662 0
-657 663 0
-661 663 0
-657 -661 664 0
-662 664 0
-657 -662 0
-658 665 0
-663 665 0
-658 -663 666 0
-664 666 0
-658 -664 0
-659 667 0
-665 667 0
-659 -665 668 0
-666 668 0
-659 -666 0
-660 -668 0
-671 28 29 30 0
-28 671 0
-29 671 0
-30 671 0
-672 33 34 35 0
-33 672 0
-34 672 0
-35 672 0
-673 38 39 40 0
-38 673 0
-39 673 0
-40 673 0
-674 43 44 45 0
-43 674 0
-44 674 0
-45 674 0
-675 48 49 50 0
-48 675 0
-49 675 0
-50 675 0
-671 676 0
-677 0
-678 0
-672 679 0
-676 679 0
-672 -676 680 0
-677 680 0
-672 -677 681 0
-678 681 0
-672 -678 0
-673 682 0
-679 682 0
-673 -679 683 0
-680 683 0
-673 -680 684 0
-681 684 0
-673 -681 0
-674 685 0
-682 685 0
-674 -682 686 0
-683 686 0
-674 -683 687 0
-684 687 0
-674 -684 0
-675 -687 0
-691 29 0
-29 691 0
-692 34 0
-34 692 0
-693 39 0
-39 693 0
-694 44 0
-44 694 0
-695 49 0
-49 695 0
-691 696 0
-692 697 0
-696 697 0
-692 -696 0
-693 698 0
-697 698 0
-693 -697 0
-694 699 0
-698 699 0
-694 -698 0
-695 -699 0
-701 29 30 0
-29 701 0
-30 701 0
-702 34 35 0
-34 702 0
-35 702 0
-703 39 40 0
-39 703 0
-40 703 0
-704 44 45 0
-44 704 0
-45 704 0
-705 49 50 0
-49 705 0
-50 705 0
-701 706 0
-707 0
-702 708 0
-706 708 0
-702 -706 709 0
-707 709 0
-702 -707 0
-703 710 0
-708 710 0
-703 -708 711 0
-709 711 0
-703 -709 0
-704 712 0
-710 712 0
-704 -710 713 0
-711 713 0
-704 -711 0
-705 -713 0
-716 30 0
-30 716 0
-717 35 0
-35 717 0
-718 40 0
-40 718 0
-719 45 0
-45 719 0
-720 50 0
-50 720 0
-716 721 0
-717 722 0
-721 722 0
-717 -721 0
-718 723 0
-722 723 0
-718 -722 0
-719 724 0
-723 724 0
-719 -723 0
-720 -724 0
-26 726 0
-31 727 0
-726 727 0
-31 -726 0
-36 728 0
-727 728 0
-36 -727 0
-41 729 0
-728 729 0
-41 -728 0
-46 -729 0
26 31 36 41 46 0
-27 731 0
-32 732 0
-731 732 0
-32 -731 0
-37 733 0
-732 733 0
-37 -732 0
-42 734 0
-733 734 0
-42 -733 0
-47 -734 0
27 32 37 42 47 0
-28 736 0
-33 737 0
-736 737 0
-33 -736 0
-38 738 0
-737 738 0
-38 -737 0
-43 739 0
-738 739 0
-43 -738 0
-48 -739 0
28 33 38 43 48 0
-29 741 0
-34 742 0
-741 742 0
-34 -741 0
-39 743 0
-742 743 0
-39 -742 0
-44 744 0
-743 744 0
-44 -743 0
-49 -744 0
29 34 39 44 49 0
-30 746 0
-35 747 0
-746 747 0
-35 -746 0
-40 748 0
-747 748 0
-40 -747 0
-45 749 0
-748 749 0
-45 -748 0
-50 -749 0
30 35 40 45 50 0
-751 51 0
-51 751 0
-752 56 0
-56 752 0
-753 61 0
-61 753 0
-754 66 0
-66 754 0
-755 71 0
-71 755 0
-751 756 0
-752 757 0
-756 757 0
-752 -756 0
-753 758 0
-757 758 0
-753 -757 0
-754 759 0
-758 759 0
-754 -758 0
-755 -759 0
-761 51 52 0
-51 761 0
-52 761 0
-762 56 57 0
-56 762 0
-57 762 0
-763 61 62 0
-61 763 0
-62 763 0
-764 66 67 0
-66 764 0
-67 764 0
-765 71 72 0
-71 765 0
-72 765 0
-761 766 0
-767 0
-762 768 0
-766 768 0
-762 -766 769 0
-767 769 0
-762 -767 0
-763 770 0
-768 770 0
-763 -768 771 0
-769 771 0
-763 -769 0
-764 772 0
-770 772 0
-764 -770 773 0
-771 773 0
-764 -771 0
-765 -773 0
-776 51 52 53 0
-51 776 0
-52 776 0
-53 776 0
-777 56 57 58 0
-56 777 0
-57 777 0
-58 777 0
-778 61 62 63 0
-61 778 0
-62 778 0
-63 778 0
-779 66 67 68 0
-66 779 0
-67 779 0
-68 779 0
-780 71 72 73 0
-71 780 0
-72 780 0
-73 780 0
-776 781 0
-782 0
-783 0
-777 784 0
-781 784 0
-777 -781 785 0
-782 785 0
-777 -782 786 0
-783 786 0
-777 -783 0
-778 787 0
-784 787 0
-778 -784 788 0
-785 788 0
-778 -785 789 0
-786 789 0
-778 -786 0
-779 790 0
-787 790 0
-779 -787 791 0
-788 791 0
-779 -788 792 0
-789 792 0
-779 -789 0
-780 -792 0
-796 51 52 53 54 0
-51 796 0
-52 796 0
-53 796 0
-54 796 0
-797 56 57 58 59 0
-56 797 0
-57 797 0
-58 797 0
-59 797 0
-798 61 62 63 64 0
-61 798 0
-62 798 0
-63 798 0
-64 798 0
-799 66 67 68 69 0
-66 799 0
-67 799 0
-68 799 0
-69 799 0
-800 71 72 73 74 0
-71 800 0
-72 800 0
-73 800 0
-74 800 0
-796 801 0
-802 0
-803 0
-804 0
-797 805 0
-801 805 0
-797 -801 806 0
-802 806 0
-797 -802 807 0
-803 807 0
-797 -803 808 0
-804 808 0
-797 -804 0
-798 809 0
-805 809 0
-798 -805 810 0
-806 810 0
-798 -806 811 0
-807 811 0
-798 -807 812 0
-808 812 0
-798 -808 0
-799 813 0
-809 813 0
-799 -809 814 0
-810 814 0
-799 -810 815 0
-811 815 0
-799 -811 816 0
-812 816 0
-799 -812 0
-800 -816 0
-821 51 52 53 54 55 0
-51 821 0
-52 821 0
-53 821 0
-54 821 0
-55 821 0
-822 56 57 58 59 60 0
-56 822 0
-57 822 0
-58 822 0
-59 822 0
-60 822 0
-823 61 62 63 64 65 0
-61 823 0
-62 823 0
-63 823 0
-64 823 0
-65 823 0
-824 66 67 68 69 70 0
-66 824 0
-67 824 0
-68 824 0
-69 824 0
-70 824 0
-825 71 72 73 74 75 0
-71 825 0
-72 825 0
-73 825 0
-74 825 0
-75 825 0
-826 52 0
-52 826 0
-827 57 0
-57 827 0
-828 62 0
-62 828 0
-829 67 0
-67 829 0
-830 72 0
-72 830 0
-826 831 0
-827 832 0
-831 832 0
-827 -831 0
-828 833 0
-832 833 0
-828 -832 0
-829 834 0
-833 834 0
-829 -833 0
-830 -834 0
-836 52 53 0
-52 836 0
-53 836 0
-837 57 58 0
-57 837 0
-58 837 0
-838 62 63 0
-62 838 0
-63 838 0
-839 67 68 0
-67 839 0
-68 839 0
-840 72 73 0
-72 840 0
-73 840 0
-836 841 0
-842 0
-837 843 0
-841 843 0
-837 -841 844 0
-842 844 0
-837 -842 0
-838 845 0
-843 845 0
-838 -843 846 0
-844 846 0
-838 -844 0
-839 847 0
-845 847 0
-839 -845 848 0
-846 848 0
-839 -846 0
-840 -848 0
-851 52 53 54 0
-52 851 0
-53 851 0
-54 851 0
-852 57 58 59 0
-57 852 0
-58 852 0
-59 852 0
-853 62 63 64 0
-62 853 0
-63 853 0
-64 853 0
-854 67 68 69 0
-67 854 0
-68 854 0
-69 854 0
-855 72 73 74 0
-72 855 0
-73 855 0
-74 855 0
-851 856 0
-857 0
-858 0
-852 859 0
-856 859 0
-852 -856 860 0
-857 860 0
-852 -857 861 0
-858 861 0
-852 -858 0
-853 862 0
-859 862 0
-853 -859 863 0
-860 863 0
-853 -860 864 0
-861 864 0
-853 -861 0
-854 865 0
-862 865 0
-854 -862 866 0
-863 866 0
-854 -863 867 0
-864 867 0
-854 -864 0
-855 -867 0
-871 52 53 54 55 0
-52 871 0
-53 871 0
-54 871 0
-55 871 0
-872 57 58 59 60 0
-57 872 0
-58 872 0
-59 872 0
-60 872 0
-873 62 63 64 65 0
-62 873 0
-63 873 0
-64 873 0
-65 873 0
-874 67 68 69 70 0
-67 874 0
-68 874 0
-69 874 0
-70 874 0
-875 72 73 74 75 0
-72 875 0
-73 875 0
-74 875 0
-75 875 0
-871 876 0
-877 0
-878 0
-879 0
-872 880 0
-876 880 0
-872 -876 881 0
-877 881 0
-872 -877 882 0
-878 882 0
-872 -878 883 0
-879 883 0
-872 -879 0
-873 884 0
-880 884 0
-873 -880 885 0
-881 885 0
-873 -881 886 0
-882 886 0
-873 -882 887 0
-883 887 0
-873 -883 0
-874 888 0
-884 888 0
-874 -884 889 0
-885 889 0
-874 -885 890 0
-886 890 0
-874 -886 891 0
-887 891 0
-874 -887 0
-875 -891 0
-896 53 0
-53 896 0
-897 58 0
-58 897 0
-898 63 0
-63 898 0
-899 68 0
-68 899 0
-900 73 0
-73 900 0
-896 901 0
-897 902 0
-901 902 0
-897 -901 0
-898 903 0
-902 903 0
-898 -902 0
-899 904 0
-903 904 0
-899 -903 0
-900 -904 0
-906 53 54 0
-53 906 0
-54 906 0
-907 58 59 0
-58 907 0
-59 907 0
-908 63 64 0
-63 908 0
-64 908 0
-909 68 69 0
-68 909 0
-69 909 0
-910 73 74 0
-73 910 0
-74 910 0
-906 911 0
-912 0
-907 913 0
-911 913 0
-907 -911 914 0
-912 914 0
-907 -912 0
-908 915 0
-913 915 0
-908 -913 916 0
-914 916 0
-908 -914 0
-909 917 0
-915 917 0
-909 -915 918 0
-916 918 0
-909 -916 0
-910 -918 0
-921 53 54 55 0
-53 921 0
-54 921 0
-55 921 0
-922 58 59 60 0
-58 922 0
-59 922 0
-60 922 0
-923 63 64 65 0
-63 923 0
-64 923 0
-65 923 0
-924 68 69 70 0
-68 924 0
-69 924 0
-70 924 0
-925 73 74 75 0
-73 925 0
-74 925 0
-75 925 0
-921 926 0
-927 0
-928 0
-922 929 0
-926 929 0
-922 -926 930 0
-927 930 0
-922 -927 931 0
-928 931 0
-922 -928 0
-923 932 0
-929 932 0
-923 -929 933 0
-930 933 0
-923 -930 934 0
-931 934 0
-923 -931 0
-924 935 0
-932 935 0
-924 -932 936 0
-933 936 0
-924 -933 937 0
-934 937 0
-924 -934 0
-925 -937 0
-941 54 0
-54 941 0
-942 59 0
-59 942 0
-943 64 0
-64 943 0
-944 69 0
-69 944 0
-945 74 0
-74 945 0
-941 946 0
-942 947 0
-946 947 0
-942 -946 0
-943 948 0
-947 948 0
-943 -947 0
-944 949 0
-948 949 0
-944 -948 0
-945 -949 0
-951 54 55 0
-54 951 0
-55 951 0
-952 59 60 0
-59 952 0
-60 952 0
-953 64 65 0
-64 953 0
-65 953 0
-954 69 70 0
-69 954 0
-70 954 0
-955 74 75 0
-74 955 0
-75 955 0
-951 956 0
-957 0
-952 958 0
-956 958 0
-952 -956 959 0
-957 959 0
-952 -957 0
-953 960 0
-958 960 0
-953 -958 961 0
-959 961 0
-953 -959 0
-954 962 0
-960 962 0
-954 -960 963 0
-961 963 0
-954 -961 0
-955 -963 0
-966 55 0
-55 966 0
-967 60 0
-60 967 0
-968 65 0
-65 968 0
-969 70 0
-70 969 0
-970 75 0
-75 970 0
-966 971 0
-967 972 0
-971 972 0
-967 -971 0
-968 973 0
-972 973 0
-968 -972 0
-969 974 0
-973 974 0
-969 -973 0
-970 -974 0
-51 976 0
-56 977 0
-976 977 0
-56 -976 0
-61 978 0
-977 978 0
-61 -977 0
-66 979 0
-978 979 0
-66 -978 0
-71 -979 0
51 56 61 66 71 0
-52 981 0
-57 982 0
-981 982 0
-57 -981 0
-62 983 0
-982 983 0
-62 -982 0
-67 984 0
-983 984 0
-67 -983 0
-72 -984 0
52 57 62 67 72 0
-53 986 0
-58 987 0
-986 987 0
-58 -986 0
-63 988 0
-987 988 0
-63 -987 0
-68 989 0
-988 989 0
-68 -988 0
-73 -989 0
53 58 63 68 73 0
-54 991 0
-59 992 0
-991 992 0
-59 -991 0
-64 993 0
-992 993 0
-64 -992 0
-69 994 0
-993 994 0
-69 -993 0
-74 -994 0
54 59 64 69 74 0
-55 996 0
-60 997 0
-996 997 0
-60 -996 0
-65 998 0
-997 998 0
-65 -997 0
-70 999 0
-998 999 0
-70 -998 0
-75 -999 0
55 60 65 70 75 0
-1001 76 0
-76 1001 0
-1002 81 0
-81 1002 0
-1003 86 0
-86 1003 0
-1004 91 0
-91 1004 0
-1005 96 0
-96 1005 0
-1001 1006 0
-1002 1007 0
-1006 1007 0
-1002 -1006 0
-1003 1008 0
-1007 1008 0
-1003 -1007 0
-1004 1009 0
-1008 1009 0
-1004 -1008 0
-1005 -1009 0
-1011 76 77 0
-76 1011 0
-77 1011 0
-1012 81 82 0
-81 1012 0
-82 1012 0
-1013 86 87 0
-86 1013 0
-87 1013 0
-1014 91 92 0
-91 1014 0
-92 1014 0
-1015 96 97 0
-96 1015 0
-97 1015 0
-1011 1016 0
-1017 0
-1012 1018 0
-1016 1018 0
-1012 -1016 1019 0
-1017 1019 0
-1012 -1017 0
-1013 1020 0
-1018 1020 0
-1013 -1018 1021 0
-1019 1021 0
-1013 -1019 0
-1014 1022 0
-1020 1022 0
-1014 -1020 1023 0
-1021 1023 0
-1014 -1021 0
-1015 -1023 0
-1026 76 77 78 0
-76 1026 0
-77 1026 0
-78 1026 0
-1027 81 82 83 0
-81 1027 0
-82 1027 0
-83 1027 0
-1028 86 87 88 0
-86 1028 0
-87 1028 0
-88 1028 0
-1029 91 92 93 0
-91 1029 0
-92 1029 0
-93 1029 0
-1030 96 97 98 0
-96 1030 0
-97 1030 0
-98 1030 0
-1026 1031 0
-1032 0
-1033 0
-1027 1034 0
-1031 1034 0
-1027 -1031 1035 0
-1032 1035 0
-1027 -1032 1036 0
-1033 1036 0
-1027 -1033 0
-1028 1037 0
-1034 1037 0
-1028 -1034 1038 0
-1035 1038 0
-1028 -1035 1039 0
-1036 1039 0
-1028 -1036 0
-1029 1040 0
-1037 1040 0
-1029 -1037 1041 0
-1038 1041 0
-1029 -1038 1042 0
-1039 1042 0
-1029 -1039 0
-1030 -1042 0
-1046 76 77 78 79 0
-76 1046 0
-77 1046 0
-78 1046 0
-79 1046 0
-1047 81 82 83 84 0
-81 1047 0
-82 1047 0
-83 1047 0
-84 1047 0
-1048 86 87 88 89 0
-86 1048 0
-87 1048 0
-88 1048 0
-89 1048 0
-1049 91 92 93 94 0
-91 1049 0
-92 1049 0
-93 1049 0
-94 1049 0
-1050 96 97 98 99 0
-96 1050 0
-97 1050 0
-98 1050 0
-99 1050 0
-1046 1051 0
-1052 0
-1053 0
-1054 0
-1047 1055 0
-1051 1055 0
-1047 -1051 1056 0
-1052 1056 0
-1047 -1052 1057 0
-1053 1057 0
-1047 -1053 1058 0
-1054 1058 0
-1047 -1054 0
-1048 1059 0
-1055 1059 0
-1048 -1055 1060 0
-1056 1060 0
-1048 -1056 1061 0
-1057 1061 0
-1048 -1057 1062 0
-1058 1062 0
-1048 -1058 0
-1049 1063 0
-1059 1063 0
-1049 -1059 1064 0
-1060 1064 0
-1049 -1060 1065 0
-1061 1065 0
-1049 -1061 1066 0
-1062 1066 0
-1049 -1062 0
-1050 -1066 0
-1071 76 77 78 79 80 0
-76 1071 0
-77 1071 0
-78 1071 0
-79 1071 0
-80 1071 0
-1072 81 82 83 84 85 0
-81 1072 0
-82 1072 0
-83 1072 0
-84 1072 0
-85 1072 0
-1073 86 87 88 89 90 0
-86 1073 0
-87 1073 0
-88 1073 0
-89 1073 0
-90 1073 0
-1074 91 92 93 94 95 0
-91 1074 0
-92 1074 0
-93 1074 0
-94 1074 0
-95 1074 0
-1075 96 97 98 99 100 0
-96 1075 0
-97 1075 0
-98 1075 0
-99 1075 0
-100 1075 0
-1076 77 0
-77 1076 0
-1077 82 0
-82 1077 0
-1078 87 0
-87 1078 0
-1079 92 0
-92 1079 0
-1080 97 0
-97 1080 0
-1076 1081 0
-1077 1082 0
-1081 1082 0
-1077 -1081 0
-1078 1083 0
-1082 1083 0
-1078 -1082 0
-1079 1084 0
-1083 1084 0
-1079 -1083 0
-1080 -1084 0
-1086 77 78 0
-77 1086 0
-78 1086 0
-1087 82 83 0
-82 1087 0
-83 1087 0
-1088 87 88 0
-87 1088 0
-88 1088 0
-1089 92 93 0
-92 1089 0
-93 1089 0
-1090 97 98 0
-97 1090 0
-98 1090 0
-1086 1091 0
-1092 0
-1087 1093 0
-1091 1093 0
-1087 -1091 1094 0
-1092 1094 0
-1087 -1092 0
-1088 1095 0
-1093 1095 0
-1088 -1093 1096 0
-1094 1096 0
-1088 -1094 0
-1089 1097 0
-1095 1097 0
-1089 -1095 1098 0
-1096 1098 0
-1089 -1096 0
-1090 -1098 0
-1101 77 78 79 0
-77 1101 0
-78 1101 0
-79 1101 0
-1102 82 83 84 0
-82 1102 0
-83 1102 0
-84 1102 0
-1103 87 88 89 0
-87 1103 0
-88 1103 0
-89 1103 0
-1104 92 93 94 0
-92 1104 0
-93 1104 0
-94 1104 0
-1105 97 98 99 0
-97 1105 0
-98 1105 0
-99 1105 0
-1101 1106 0
-1107 0
-1108 0
-1102 1109 0
-1106 1109 0
-1102 -1106 1110 0
-1107 1110 0
-1102 -1107 1111 0
-1108 1111 0
-1102 -1108 0
-1103 1112 0
-1109 1112 0
-1103 -1109 1113 0
-1110 1113 0
-1103 -1110 1114 0
-1111 1114 0
-1103 -1111 0
-1104 1115 0
-1112 1115 0
-1104 -1112 1116 0
-1113 1116 0
-1104 -1113 1117 0
-1114 1117 0
-1104 -1114 0
-1105 -1117 0
-1121 77 78 79 80 0
-77 1121 0
-78 1121 0
-79 1121 0
-80 1121 0
-1122 82 83 84 85 0
-82 1122 0
-83 1122 0
-84 1122 0
-85 1122 0
-1123 87 88 89 90 0
-87 1123 0
-88 1123 0
-89 1123 0
-90 1123 0
-1124 92 93 94 95 0
-92 1124 0
-93 1124 0
-94 1124 0
-95 1124 0
-1125 97 98 99 100 0
-97 1125 0
-98 1125 0
-99 1125 0
-100 1125 0
-1121 1126 0
-1127 0
-1128 0
-1129 0
-1122 1130 0
-1126 1130 0
-1122 -1126 1131 0
-1127 1131 0
-1122 -1127 1132 0
-1128 1132 0
-1122 -1128 1133 0
-1129 1133 0
-1122 -1129 0
-1123 1134 0
-1130 1134 0
-1123 -1130 1135 0
-1131 1135 0
-1123 -1131 1136 0
-1132 1136 0
-1123 -1132 1137 0
-1133 1137 0
-1123 -1133 0
-1124 1138 0
-1134 1138 0
-1124 -1134 1139 0
-1135 1139 0
-1124 -1135 1140 0
-1136 1140 0
-1124 -1136 1141 0
-1137 1141 0
-1124 -1137 0
-1125 -1141 0
-1146 78 0
-78 1146 0
-1147 83 0
-83 1147 0
-1148 88 0
-88 1148 0
-1149 93 0
-93 1149 0
-1150 98 0
-98 1150 0
-1146 1151 0
-1147 1152 0
-1151 1152 0
-1147 -1151 0
-1148 1153 0
-1152 1153 0
-1148 -1152 0
-1149 1154 0
-1153 1154 0
-1149 -1153 0
-1150 -1154 0
-1156 78 79 0
-78 1156 0
-79 1156 0
-1157 83 84 0
-83 1157 0
-84 1157 0
-1158 88 89 0
-88 1158 0
-89 1158 0
-1159 93 94 0
-93 1159 0
-94 1159 0
-1160 98 99 0
-98 1160 0
-99 1160 0
-1156 1161 0
-1162 0
-1157 1163 0
-1161 1163 0
-1157 -1161 1164 0
-1162 1164 0
-1157 -1162 0
-1158 1165 0
-1163 1165 0
-1158 -1163 1166 0
-1164 1166 0
-1158 -1164 0
-1159 1167 0
-1165 1167 0
-1159 -1165 1168 0
-1166 1168 0
-1159 -1166 0
-1160 -1168 0
-1171 78 79 80 0
-78 1171 0
-79 1171 0
-80 1171 0
-1172 83 84 85 0
-83 1172 0
-84 1172 0
-85 1172 0
-1173 88 89 90 0
-88 1173 0
-89 1173 0
-90 1173 0
-1174 93 94 95 0
-93 1174 0
-94 1174 0
-95 1174 0
-1175 98 99 100 0
-98 1175 0
-99 1175 0
-100 1175 0
-1171 1176 0
-1177 0
-1178 0
-1172 1179 0
-1176 1179 0
-1172 -1176 1180 0
-1177 1180 0
-1172 -1177 1181 0
-1178 1181 0
-1172 -1178 0
-1173 1182 0
-1179 1182 0
-1173 -1179 1183 0
-1180 1183 0
-1173 -1180 1184 0
-1181 1184 0
-1173 -1181 0
-1174 1185 0
-1182 1185 0
-1174 -1182 1186 0
-1183 1186 0
-1174 -1183 1187 0
-1184 1187 0
-1174 -1184 0
-1175 -1187 0
-1191 79 0
-79 1191 0
-1192 84 0
-84 1192 0
-1193 89 0
-89 1193 0
-1194 94 0
-94 1194 0
-1195 99 0
-99 1195 0
-1191 1196 0
-1192 1197 0
-1196 1197 0
-1192 -1196 0
-1193 1198 0
-1197 1198 0
-1193 -1197 0
-1194 1199 0
-1198 1199 0
-1194 -1198 0
-1195 -1199 0
-1201 79 80 0
-79 1201 0
-80 1201 0
-1202 84 85 0
-84 1202 0
-85 1202 0
-1203 89 90 0
-89 1203 0
-90 1203 0
-1204 94 95 0
-94 1204 0
-95 1204 0
-1205 99 100 0
-99 1205 0
-100 1205 0
-1201 1206 0
-1207 0
-1202 1208 0
-1206 1208 0
-1202 -1206 1209 0
-1207 1209 0
-1202 -1207 0
-1203 1210 0
-1208 1210 0
-1203 -1208 1211 0
-1209 1211 0
-1203 -1209 0
-1204 1212 0
-1210 1212 0
-1204 -1210 1213 0
-1211 1213 0
-1204 -1211 0
-1205 -1213 0
-1216 80 0
-80 1216 0
-1217 85 0
-85 1217 0
-1218 90 0
-90 1218 0
-1219 95 0
-95 1219 0
-1220 100 0
-100 1220 0
-1216 1221 0
-1217 1222 0
-1221 1222 0
-1217 -1221 0
-1218 1223 0
-1222 1223 0
-1218 -1222 0
-1219 1224 0
-1223 1224 0
-1219 -1223 0
-1220 -1224 0
-76 1226 0
-81 1227 0
-1226 1227 0
-81 -1226 0
-86 1228 0
-1227 1228 0
-86 -1227 0
-91 1229 0
-1228 1229 0
-91 -1228 0
-96 -1229 0
76 81 86 91 96 0
-77 1231 0
-82 1232 0
-1231 1232 0
-82 -1231 0
-87 1233 0
-1232 1233 0
-87 -1232 0
-92 1234 0
-1233 1234 0
-92 -1233 0
-97 -1234 0
77 82 87 92 97 0
-78 1236 0
-83 1237 0
-1236 1237 0
-83 -1236 0
-88 1238 0
-1237 1238 0
-88 -1237 0
-93 1239 0
-1238 1239 0
-93 -1238 0
-98 -1239 0
78 83 88 93 98 0
-79 1241 0
-84 1242 0
-1241 1242 0
-84 -1241 0
-89 1243 0
-1242 1243 0
-89 -1242 0
-94 1244 0
-1243 1244 0
-94 -1243 0
-99 -1244 0
79 84 89 94 99 0
-80 1246 0
-85 1247 0
-1246 1247 0
-85 -1246 0
-90 1248 0
-1247 1248 0
-90 -1247 0
-95 1249 0
-1248 1249 0
-95 -1248 0
-100 -1249 0
80 85 90 95 100 0
-1251 101 0
-101 1251 0
-1252 106 0
-106 1252 0
-1253 111 0
-111 1253 0
-1254 116 0
-116 1254 0
-1255 121 0
-121 1255 0
-1251 1256 0
-1252 1257 0
-1256 1257 0
-1252 -1256 0
-1253 1258 0
-1257 1258 0
-1253 -1257 0
-1254 1259 0
-1258 1259 0
-1254 -1258 0
-1255 -1259 0
-1261 101 102 0
-101 1261 0
-102 1261 0
-1262 106 107 0
-106 1262 0
-107 1262 0
-1263 111 112 0
-111 1263 0
-112 1263 0
-1264 116 117 0
-116 1264 0
-117 1264 0
-1265 121 122 0
-121 1265 0
-122 1265 0
-1261 1266 0
-1267 0
-1262 1268 0
-1266 1268 0
-1262 -1266 1269 0
-1267 1269 0
-1262 -1267 0
-1263 1270 0
-1268 1270 0
-1263 -1268 1271 0
-1269 1271 0
-1263 -1269 0
-1264 1272 0
-1270 1272 0
-1264 -1270 1273 0
-1271 1273 0
-1264 -1271 0
-1265 -1273 0
-1276 101 102 103 0
-101 1276 0
-102 1276 0
-103 1276 0
-1277 106 107 108 0
-106 1277 0
-107 1277 0
-108 1277 0
-1278 111 112 113 0
-111 1278 0
-112 1278 0
-113 1278 0
-1279 116 117 118 0
-116 1279 0
-117 1279 0
-118 1279 0
-1280 121 122 123 0
-121 1280 0
-122 1280 0
-123 1280 0
-1276 1281 0
-1282 0
-1283 0
-1277 1284 0
-1281 1284 0
-1277 -1281 1285 0
-1282 1285 0
-1277 -1282 1286 0
-1283 1286 0
-1277 -1283 0
-1278 1287 0
-1284 1287 0
-1278 -1284 1288 0
-1285 1288 0
-1278 -1285 1289 0
-1286 1289 0
-1278 -1286 0
-1279 1290 0
-1287 1290 0
-1279 -1287 1291 0
-1288 1291 0
-1279 -1288 1292 0
-1289 1292 0
-1279 -1289 0
-1280 -1292 0
-1296 101 102 103 104 0
-101 1296 0
-102 1296 0
-103 1296 0
-104 1296 0
-1297 106 107 108 109 0
-106 1297 0
-107 1297 0
-108 1297 0
-109 1297 0
-1298 111 112 113 114 0
-111 1298 0
-112 1298 0
-113 1298 0
-114 1298 0
-1299 116 117 118 119 0
-116 1299 0
-117 1299 0
-118 1299 0
-119 1299 0
-1300 121 122 123 124 0
-121 1300 0
-122 1300 0
-123 1300 0
-124 1300 0
-1296 1301 0
-1302 0
-1303 0
-1304 0
-1297 1305 0
-1301 1305 0
-1297 -1301 1306 0
-1302 1306 0
-1297 -1302 1307 0
-1303 1307 0
-1297 -1303 1308 0
-1304 1308 0
-1297 -1304 0
-1298 1309 0
-1305 1309 0
-1298 -1305 1310 0
-1306 1310 0
-1298 -1306 1311 0
-1307 1311 0
-1298 -1307 1312 0
-1308 1312 0
-1298 -1308 0
-1299 1313 0
-1309 1313 0
-1299 -1309 1314 0
-1310 1314 0
-1299 -1310 1315 0
-1311 1315 0
-1299 -1311 1316 0
-1312 1316 0
-1299 -1312 0
-1300 -1316 0
-1321 101 102 103 104 105 0
-101 1321 0
-102 1321 0
-103 1321 0
-104 1321 0
-105 1321 0
-1322 106 107 108 109 110 0
-106 1322 0
-107 1322 0
-108 1322 0
-109 1322 0
-110 1322 0
-1323 111 112 113 114 115 0
-111 1323 0
-112 1323 0
-113 1323 0
-114 1323 0
-115 1323 0
-1324 116 117 118 119 120 0
-116 1324 0
-117 1324 0
-118 1324 0
-119 1324 0
-120 1324 0
-1325 121 122 123 124 125 0
-121 1325 0
-122 1325 0
-123 1325 0
-124 1325 0
-125 1325 0
-1326 102 0
-102 1326 0
-1327 107 0
-107 1327 0
-1328 112 0
-112 1328 0
-1329 117 0
-117 1329 0
-1330 122 0
-122 1330 0
-1326 1331 0
-1327 1332 0
-1331 1332 0
-1327 -1331 0
-1328 1333 0
-1332 1333 0
-1328 -1332 0
-1329 1334 0
-1333 1334 0
-1329 -1333 0
-1330 -1334 0
-1336 102 103 0
-102 1336 0
-103 1336 0
-1337 107 108 0
-107 1337 0
-108 1337 0
-1338 112 113 0
-112 1338 0
-113 1338 0
-1339 117 118 0
-117 1339 0
-118 1339 0
-1340 122 123 0
-122 1340 0
-123 1340 0
-1336 1341 0
-1342 0
-1337 1343 0
-1341 1343 0
-1337 -1341 1344 0
-1342 1344 0
-1337 -1342 0
-1338 1345 0
-1343 1345 0
-1338 -1343 1346 0
-1344 1346 0
-1338 -1344 0
-1339 1347 0
-1345 1347 0
-1339 -1345 1348 0
-1346 1348 0
-1339 -1346 0
-1340 -1348 0
-1351 102 103 104 0
-102 1351 0
-103 1351 0
-104 1351 0
-1352 107 108 109 0
-107 1352 0
-108 1352 0
-109 1352 0
-1353 112 113 114 0
-112 1353 0
-113 1353 0
-114 1353 0
-1354 117 118 119 0
-117 1354 0
-118 1354 0
-119 1354 0
-1355 122 123 124 0
-122 1355 0
-123 1355 0
-124 1355 0
-1351 1356 0
-1357 0
-1358 0
-1352 1359 0
-1356 1359 0
-1352 -1356 1360 0
-1357 1360 0
-1352 -1357 1361 0
-1358 1361 0
-1352 -1358 0
-1353 1362 0
-1359 1362 0
-1353 -1359 1363 0
-1360 1363 0
-1353 -1360 1364 0
-1361 1364 0
-1353 -1361 0
-1354 1365 0
-1362 1365 0
-1354 -1362 1366 0
-1363 1366 0
-1354 -1363 1367 0
-1364 1367 0
-1354 -1364 0
-1355 -1367 0
-1371 102 103 104 105 0
-102 1371 0
-103 1371 0
-104 1371 0
-105 1371 0
-1372 107 108 109 110 0
-107 1372 0
-108 1372 0
-109 1372 0
-110 1372 0
-1373 112 113 114 115 0
-112 1373 0
-113 1373 0
-114 1373 0
-115 1373 0
-1374 117 118 119 120 0
-117 1374 0
-118 1374 0
-119 1374 0
-120 1374 0
-1375 122 123 124 125 0
-122 1375 0
-123 1375 0
-124 1375 0
-125 1375 0
-1371 1376 0
-1377 0
-1378 0
-1379 0
-1372 1380 0
-1376 1380 0
-1372 -1376 1381 0
-1377 1381 0
-1372 -1377 1382 0
-1378 1382 0
-1372 -1378 1383 0
-1379 1383 0
-1372 -1379 0
-1373 1384 0
-1380 1384 0
-1373 -1380 1385 0
-1381 1385 0
-1373 -1381 1386 0
-1382 1386 0
-1373 -1382 1387 0
-1383 1387 0
-1373 -1383 0
-1374 1388 0
-1384 1388 0
-1374 -1384 1389 0
-1385 1389 0
-1374 -1385 1390 0
-1386 1390 0
-1374 -1386 1391 0
-1387 1391 0
-1374 -1387 0
-1375 -1391 0
-1396 103 0
-103 1396 0
-1397 108 0
-108 1397 0
-1398 113 0
-113 1398 0
-1399 118 0
-118 1399 0
-1400 123 0
-123 1400 0
-1396 1401 0
-1397 1402 0
-1401 1402 0
-1397 -1401 0
-1398 1403 0
-1402 1403 0
-1398 -1402 0
-1399 1404 0
-1403 1404 0
-1399 -1403 0
-1400 -1404 0
-1406 103 104 0
-103 1406 0
-104 1406 0
-1407 108 109 0
-108 1407 0
-109 1407 0
-1408 113 114 0
-113 1408 0
-114 1408 0
-1409 118 119 0
-118 1409 0
-119 1409 0
-1410 123 124 0
-123 1410 0
-124 1410 0
-1406 1411 0
-1412 0
-1407 1413 0
-1411 1413 0
-1407 -1411 1414 0
-1412 1414 0
-1407 -1412 0
-1408 1415 0
-1413 1415 0
-1408 -1413 1416 0
-1414 1416 0
-1408 -1414 0
-1409 1417 0
-1415 1417 0
-1409 -1415 1418 0
-1416 1418 0
-1409 -1416 0
-1410 -1418 0
-1421 103 104 105 0
-103 1421 0
-104 1421 0
-105 1421 0
-1422 108 109 110 0
-108 1422 0
-109 1422 0
-110 1422 0
-1423 113 114 115 0
-113 1423 0
-114 1423 0
-115 1423 0
-1424 118 119 120 0
-118 1424 0
-119 1424 0
-120 1424 0
-1425 123 124 125 0
-123 1425 0
-124 1425 0
-125 1425 0
-1421 1426 0
-1427 0
-1428 0
-1422 1429 0
-1426 1429 0
-1422 -1426 1430 0
-1427 1430 0
-1422 -1427 1431 0
-1428 1431 0
-1422 -1428 0
-1423 1432 0
-1429 1432 0
-1423 -1429 1433 0
-1430 1433 0
-1423 -1430 1434 0
-1431 1434 0
-1423 -1431 0
-1424 1435 0
-1432 1435 0
-1424 -1432 1436 0
-1433 1436 0
-1424 -1433 1437 0
-1434 1437 0
-1424 -1434 0
-1425 -1437 0
-1441 104 0
-104 1441 0
-1442 109 0
-109 1442 0
-1443 114 0
-114 1443 0
-1444 119 0
-119 1444 0
-1445 124 0
-124 1445 0
-1441 1446 0
-1442 1447 0
-1446 1447 0
-1442 -1446 0
-1443 1448 0
-1447 1448 0
-1443 -1447 0
-1444 1449 0
-1448 1449 0
-1444 -1448 0
-1445 -1449 0
-1451 104 105 0
-104 1451 0
-105 1451 0
-1452 109 110 0
-109 1452 0
-110 1452 0
-1453 114 115 0
-114 1453 0
-115 1453 0
-1454 119 120 0
-119 1454 0
-120 1454 0
-1455 124 125 0
-124 1455 0
-125 1455 0
-1451 1456 0
-1457 0
-1452 1458 0
-1456 1458 0
-1452 -1456 1459 0
-1457 1459 0
-1452 -1457 0
-1453 1460 0
-1458 1460 0
-1453 -1458 1461 0
-1459 1461 0
-1453 -1459 0
-1454 1462 0
-1460 1462 0
-1454 -1460 1463 0
-1461 1463 0
-1454 -1461 0
-1455 -1463 0
-1466 105 0
-105 1466 0
-1467 110 0
-110 1467 0
-1468 115 0
-115 1468 0
-1469 120 0
-120 1469 0
-1470 125 0
-125 1470 0
-1466 1471 0
-1467 1472 0
-1471 1472 0
-1467 -1471 0
-1468 1473 0
-1472 1473 0
-1468 -1472 0
-1469 1474 0
-1473 1474 0
-1469 -1473 0
-1470 -1474 0
-101 1476 0
-106 1477 0
-1476 1477 0
-106 -1476 0
-111 1478 0
-1477 1478 0
-111 -1477 0
-116 1479 0
-1478 1479 0
-116 -1478 0
-121 -1479 0
101 106 111 116 121 0
-102 1481 0
-107 1482 0
-1481 1482 0
-107 -1481 0
-112 1483 0
-1482 1483 0
-112 -1482 0
-117 1484 0
-1483 1484 0
-117 -1483 0
-122 -1484 0
102 107 112 117 122 0
-103 1486 0
-108 1487 0
-1486 1487 0
-108 -1486 0
-113 1488 0
-1487 1488 0
-113 -1487 0
-118 1489 0
-1488 1489 0
-118 -1488 0
-123 -1489 0
103 108 113 118 123 0
-104 1491 0
-109 1492 0
-1491 1492 0
-109 -1491 0
-114 1493 0
-1492 1493 0
-114 -1492 0
-119 1494 0
-1493 1494 0
-119 -1493 0
-124 -1494 0
104 109 114 119 124 0
-105 1496 0
-110 1497 0
-1496 1497 0
-110 -1496 0
-115 1498 0
-1497 1498 0
-115 -1497 0
-120 1499 0
-1498 1499 0
-120 -1498 0
-125 -1499 0
105 110 115 120 125 0
-1501 1 0
-1 1501 0
-1502 26 0
-26 1502 0
-1503 51 0
-51 1503 0
-1504 76 0
-76 1504 0
-1505 101 0
-101 1505 0
-1501 1506 0
-1502 1507 0
-1506 1507 0
-1502 -1506 0
-1503 1508 0
-1507 1508 0
-1503 -1507 0
-1504 1509 0
-1508 1509 0
-1504 -1508 0
-1505 -1509 0
-1511 1 2 0
-1 1511 0
-2 1511 0
-1512 26 27 0
-26 1512 0
-27 1512 0
-1513 51 52 0
-51 1513 0
-52 1513 0
-1514 76 77 0
-76 1514 0
-77 1514 0
-1515 101 102 0
-101 1515 0
-102 1515 0
-1511 1516 0
-1517 0
-1512 1518 0
-1516 1518 0
-1512 -1516 1519 0
-1517 1519 0
-1512 -1517 0
-1513 1520 0
-1518 1520 0
-1513 -1518 1521 0
-1519 1521 0
-1513 -1519 0
-1514 1522 0
-1520 1522 0
-1514 -1520 1523 0
-1521 1523 0
-1514 -1521 0
-1515 -1523 0
-1526 1 2 3 0
-1 1526 0
-2 1526 0
-3 1526 0
-1527 26 27 28 0
-26 1527 0
-27 1527 0
-28 1527 0
-1528 51 52 53 0
-51 1528 0
-52 1528 0
-53 1528 0
-1529 76 77 78 0
-76 1529 0
-77 1529 0
-78 1529 0
-1530 101 102 103 0
-101 1530 0
-102 1530 0
-103 1530 0
-1526 1531 0
-1532 0
-1533 0
-1527 1534 0
-1531 1534 0
-1527 -1531 1535 0
-1532 1535 0
-1527 -1532 1536 0
-1533 1536 0
-1527 -1533 0
-1528 1537 0
-1534 1537 0
-1528 -1534 1538 0
-1535 1538 0
-1528 -1535 1539 0
-1536 1539 0
-1528 -1536 0
-1529 1540 0
-1537 1540 0
-1529 -1537 1541 0
-1538 1541 0
-1529 -1538 1542 0
-1539 1542 0
-1529 -1539 0
-1530 -1542 0
-1546 1 2 3 4 0
-1 1546 0
-2 1546 0
-3 1546 0
-4 1546 0
-1547 26 27 28 29 0
-26 1547 0
-27 1547 0
-28 1547 0
-29 1547 0
-1548 51 52 53 54 0
-51 1548 0
-52 1548 0
-53 1548 0
-54 1548 0
-1549 76 77 78 79 0
-76 1549 0
-77 1549 0
-78 1549 0
-79 1549 0
-1550 101 102 103 104 0
-101 1550 0
-102 1550 0
-103 1550 0
-104 1550 0
-1546 1551 0
-1552 0
-1553 0
-1554 0
-1547 1555 0
-1551 1555 0
-1547 -1551 1556 0
-1552 1556 0
-1547 -1552 1557 0
-1553 1557 0
-1547 -1553 1558 0
-1554 1558 0
-1547 -1554 0
-1548 1559 0
-1555 1559 0
-1548 -1555 1560 0
-1556 1560 0
-1548 -1556 1561 0
-1557 1561 0
-1548 -1557 1562 0
-1558 1562 0
-1548 -1558 0
-1549 1563 0
-1559 1563 0
-1549 -1559 1564 0
-1560 1564 0
-1549 -1560 1565 0
-1561 1565 0
-1549 -1561 1566 0
-1562 1566 0
-1549 -1562 0
-1550 -1566 0
-1571 1 2 3 4 5 0
-1 1571 0
-2 1571 0
-3 1571 0
-4 1571 0
-5 1571 0
-1572 26 27 28 29 30 0
-26 1572 0
-27 1572 0
-28 1572 0
-29 1572 0
-30 1572 0
-1573 51 52 53 54 55 0
-51 1573 0
-52 1573 0
-53 1573 0
-54 1573 0
-55 1573 0
-1574 76 77 78 79 80 0
-76 1574 0
-77 1574 0
-78 1574 0
-79 1574 0
-80 1574 0
-1575 101 102 103 104 105 0
-101 1575 0
-102 1575 0
-103 1575 0
-104 1575 0
-105 1575 0
-1576 2 0
-2 1576 0
-1577 27 0
-27 1577 0
-1578 52 0
-52 1578 0
-1579 77 0
-77 1579 0
-1580 102 0
-102 1580 0
-1576 1581 0
-1577 1582 0
-1581 1582 0
-1577 -1581 0
-1578 1583 0
-1582 1583 0
-1578 -1582 0
-1579 1584 0
-1583 1584 0
-1579 -1583 0
-1580 -1584 0
-1586 2 3 0
-2 1586 0
-3 1586 0
-1587 27 28 0
-27 1587 0
-28 1587 0
-1588 52 53 0
-52 1588 0
-53 1588 0
-1589 77 78 0
-77 1589 0
-78 1589 0
-1590 102 103 0
-102 1590 0
-103 1590 0
-1586 1591 0
-1592 0
-1587 1593 0
-1591 1593 0
-1587 -1591 1594 0
-1592 1594 0
-1587 -1592 0
-1588 1595 0
-1593 1595 0
-1588 -1593 1596 0
-1594 1596 0
-1588 -1594 0
-1589 1597 0
-1595 1597 0
-1589 -1595 1598 0
-1596 1598 0
-1589 -1596 0
-1590 -1598 0
-1601 2 3 4 0
-2 1601 0
-3 1601 0
-4 1601 0
-1602 27 28 29 0
-27 1602 0
-28 1602 0
-29 1602 0
-1603 52 53 54 0
-52 1603 0
-53 1603 0
-54 1603 0
-1604 77 78 79 0
-77 1604 0
-78 1604 0
-79 1604 0
-1605 102 103 104 0
-102 1605 0
-103 1605 0
-104 1605 0
-1601 1606 0
-1607 0
-1608 0
-1602 1609 0
-1606 1609 0
-1602 -1606 1610 0
-1607 1610 0
-1602 -1607 1611 0
-1608 1611 0
-1602 -1608 0
-1603 1612 0
-1609 1612 0
-1603 -1609 1613 0
-1610 1613 0
-1603 -1610 1614 0
-1611 1614 0
-1603 -1611 0
-1604 1615 0
-1612 1615 0
-1604 -1612 1616 0
-1613 1616 0
-1604 -1613 1617 0
-1614 1617 0
-1604 -1614 0
-1605 -1617 0
-1621 2 3 4 5 0
-2 1621 0
-3 1621 0
-4 1621 0
-5 1621 0
-1622 27 28 29 30 0
-27 1622 0
-28 1622 0
-29 1622 0
-30 1622 0
-1623 52 53 54 55 0
-52 1623 0
-53 1623 0
-54 1623 0
-55 1623 0
-1624 77 78 79 80 0
-77 1624 0
-78 1624 0
-79 1624 0
-80 1624 0
-1625 102 103 104 105 0
-102 1625 0
-103 1625 0
-104 1625 0
-105 1625 0
-1621 1626 0
-1627 0
-1628 0
-1629 0
-1622 1630 0
-1626 1630 0
-1622 -1626 1631 0
-1627 1631 0
-1622 -1627 1632 0
-1628 1632 0
-1622 -1628 1633 0
-1629 1633 0
-1622 -1629 0
-1623 1634 0
-1630 1634 0
-1623 -1630 1635 0
-1631 1635 0
-1623 -1631 1636 0
-1632 1636 0
-1623 -1632 1637 0
-1633 1637 0
-1623 -1633 0
-1624 1638 0
-1634 1638 0
-1624 -1634 1639 0
-1635 1639 0
-1624 -1635 1640 0
-1636 1640 0
-1624 -1636 1641 0
-1637 1641 0
-1624 -1637 0
-1625 -1641 0
-1646 3 0
-3 1646 0
-1647 28 0
-28 1647 0
-1648 53 0
-53 1648 0
-1649 78 0
-78 1649 0
-1650 103 0
-103 1650 0
-1646 1651 0
-1647 1652 0
-1651 1652 0
-1647 -1651 0
-1648 1653 0
-1652 1653 0
-1648 -1652 0
-1649 1654 0
-1653 1654 0
-1649 -1653 0
-1650 -1654 0
-1656 3 4 0
-3 1656 0
-4 1656 0
-1657 28 29 0
-28 1657 0
-29 1657 0
-1658 53 54 0
-53 1658 0
-54 1658 0
-1659 78 79 0
-78 1659 0
-79 1659 0
-1660 103 104 0
-103 1660 0
-104 1660 0
-1656 1661 0
-1662 0
-1657 1663 0
-1661 1663 0
-1657 -1661 1664 0
-1662 1664 0
-1657 -1662 0
-1658 1665 0
-1663 1665 0
-1658 -1663 1666 0
-1664 1666 0
-1658 -1664 0
-1659 1667 0
-1665 1667 0
-1659 -1665 1668 0
-1666 1668 0
-1659 -1666 0
-1660 -1668 0
-1671 3 4 5 0
-3 1671 0
-4 1671 0
-5 1671 0
-1672 28 29 30 0
-28 1672 0
-29 1672 0
-30 1672 0
-1673 53 54 55 0
-53 1673 0
-54 1673 0
-55 1673 0
-1674 78 79 80 0
-78 1674 0
-79 1674 0
-80 1674 0
-1675 103 104 105 0
-103 1675 0
-104 1675 0
-105 1675 0
-1671 1676 0
-1677 0
-1678 0
-1672 1679 0
-1676 1679 0
-1672 -1676 1680 0
-1677 1680 0
-1672 -1677 1681 0
-1678 1681 0
-1672 -1678 0
-1673 1682 0
-1679 1682 0
-1673 -1679 1683 0
-1680 1683 0
-1673 -1680 1684 0
-1681 1684 0
-1673 -1681 0
-1674 1685 0
-1682 1685 0
-1674 -1682 1686 0
-1683 1686 0
-1674 -1683 1687 0
-1684 1687 0
-1674 -1684 0
-1675 -1687 0
-1691 4 0
-4 1691 0
-1692 29 0
-29 1692 0
-1693 54 0
-54 1693 0
-1694 79 0
-79 1694 0
-1695 104 0
-104 1695 0
-1691 1696 0
-1692 1697 0
-1696 1697 0
-1692 -1696 0
-1693 1698 0
-1697 1698 0
-1693 -1697 0
-1694 1699 0
-1698 1699 0
-1694 -1698 0
-1695 -1699 0
-1701 4 5 0
-4 1701 0
-5 1701 0
-1702 29 30 0
-29 1702 0
-30 1702 0
-1703 54 55 0
-54 1703 0
-55 1703 0
-1704 79 80 0
-79 1704 0
-80 1704 0
-1705 104 105 0
-104 1705 0
-105 1705 0
-1701 1706 0
-1707 0
-1702 1708 0
-1706 1708 0
-1702 -1706 1709 0
-1707 1709 0
-1702 -1707 0
-1703 1710 0
-1708 1710 0
-1703 -1708 1711 0
-1709 1711 0
-1703 -1709 0
-1704 1712 0
-1710 1712 0
-1704 -1710 1713 0
-1711 1713 0
-1704 -1711 0
-1705 -1713 0
-1716 5 0
-5 1716 0
-1717 30 0
-30 1717 0
-1718 55 0
-55 1718 0
-1719 80 0
-80 1719 0
-1720 105 0
-105 1720 0
-1716 1721 0
-1717 1722 0
-1721 1722 0
-1717 -1721 0
-1718 1723 0
-1722 1723 0
-1718 -1722 0
-1719 1724 0
-1723 1724 0
-1719 -1723 0
-1720 -1724 0
-1 1726 0
-26 1727 0
-1726 1727 0
-26 -1726 0
-51 1728 0
-1727 1728 0
-51 -1727 0
-76 1729 0
-1728 1729 0
-76 -1728 0
-101 -1729 0
1 26 51 76 101 0
-2 1731 0
-27 1732 0
-1731 1732 0
-27 -1731 0
-52 1733 0
-1732 1733 0
-52 -1732 0
-77 1734 0
-1733 1734 0
-77 -1733 0
-102 -1734 0
2 27 52 77 102 0
-3 1736 0
-28 1737 0
-1736 1737 0
-28 -1736 0
-53 1738 0
-1737 1738 0
-53 -1737 0
-78 1739 0
-1738 1739 0
-78 -1738 0
-103 -1739 0
3 28 53 78 103 0
-4 1741 0
-29 1742 0
-1741 1742 0
-29 -1741 0
-54 1743 0
-1742 1743 0
-54 -1742 0
-79 1744 0
-1743 1744 0
-79 -1743 0
-104 -1744 0
4 29 54 79 104 0
-5 1746 0
-30 1747 0
-1746 1747 0
-30 -1746 0
-55 1748 0
-1747 1748 0
-55 -1747 0
-80 1749 0
-1748 1749 0
-80 -1748 0
-105 -1749 0
5 30 55 80 105 0
-1751 6 0
-6 1751 0
-1752 31 0
-31 1752 0
-1753 56 0
-56 1753 0
-1754 81 0
-81 1754 0
-1755 106 0
-106 1755 0
-1751 1756 0
-1752 1757 0
-1756 1757 0
-1752 -1756 0
-1753 1758 0
-1757 1758 0
-1753 -1757 0
-1754 1759 0
-1758 1759 0
-1754 -1758 0
-1755 -1759 0
-1761 6 7 0
-6 1761 0
-7 1761 0
-1762 31 32 0
-31 1762 0
-32 1762 0
-1763 56 57 0
-56 1763 0
-57 1763 0
-1764 81 82 0
-81 1764 0
-82 1764 0
-1765 106 107 0
-106 1765 0
-107 1765 0
-1761 1766 0
-1767 0
-1762 1768 0
-1766 1768 0
-1762 -1766 1769 0
-1767 1769 0
-1762 -1767 0
-1763 1770 0
-1768 1770 0
-1763 -1768 1771 0
-1769 1771 0
-1763 -1769 0
-1764 1772 0
-1770 1772 0
-1764 -1770 1773 0
-1771 1773 0
-1764 -1771 0
-1765 -1773 0
-1776 6 7 8 0
-6 1776 0
-7 1776 0
-8 1776 0
-1777 31 32 33 0
-31 1777 0
-32 1777 0
-33 1777 0
-1778 56 57 58 0
-56 1778 0
-57 1778 0
-58 1778 0
-1779 81 82 83 0
-81 1779 0
-82 1779 0
-83 1779 0
-1780 106 107 108 0
-106 1780 0
-107 1780 0
-108 1780 0
-1776 1781 0
-1782 0
-1783 0
-1777 1784 0
-1781 1784 0
-1777 -1781 1785 0
-1782 1785 0
-1777 -1782 1786 0
-1783 1786 0
-1777 -1783 0
-1778 1787 0
-1784 1787 0
-1778 -1784 1788 0
-1785 1788 0
-1778 -1785 1789 0
-1786 1789 0
-1778 -1786 0
-1779 1790 0
-1787 1790 0
-1779 -1787 1791 0
-1788 1791 0
-1779 -1788 1792 0
-1789 1792 0
-1779 -1789 0
-1780 -1792 0
-1796 6 7 8 9 0
-6 1796 0
-7 1796 0
-8 1796 0
-9 1796 0
-1797 31 32 33 34 0
-31 1797 0
-32 1797 0
-33 1797 0
-34 1797 0
-1798 56 57 58 59 0
-56 1798 0
-57 1798 0
-58 1798 0
-59 1798 0
-1799 81 82 83 84 0
-81 1799 0
-82 1799 0
-83 1799 0
-84 1799 0
-1800 106 107 108 109 0
-106 1800 0
-107 1800 0
-108 1800 0
-109 1800 0
-1796 1801 0
-1802 0
-1803 0
-1804 0
-1797 1805 0
-1801 1805 0
-1797 -1801 1806 0
-1802 1806 0
-1797 -1802 1807 0
-1803 1807 0
-1797 -1803 1808 0
-1804 1808 0
-1797 -1804 0
-1798 1809 0
-1805 1809 0
-1798 -1805 1810 0
-1806 1810 0
-1798 -1806 1811 0
-1807 1811 0
-1798 -1807 1812 0
-1808 1812 0
-1798 -1808 0
-1799 1813 0
-1809 1813 0
-1799 -1809 1814 0
-1810 1814 0
-1799 -1810 1815 0
-1811 1815 0
-1799 -1811 1816 0
-1812 1816 0
-1799 -1812 0
-1800 -1816 0
-1821 6 7 8 9 10 0
-6 1821 0
-7 1821 0
-8 1821 0
-9 1821 0
-10 1821 0
-1822 31 32 33 34 35 0
-31 1822 0
-32 1822 0
-33 1822 0
-34 1822 0
-35 1822 0
-1823 56 57 58 59 60 0
-56 1823 0
-57 1823 0
-58 1823 0
-59 1823 0
-60 1823 0
-1824 81 82 83 84 85 0
-81 1824 0
-82 1824 0
-83 1824 0
-84 1824 0
-85 1824 0
-1825 106 107 108 109 110 0
-106 1825 0
-107 1825 0
-108 1825 0
-109 1825 0
-110 1825 0
-1826 7 0
-7 1826 0
-1827 32 0
-32 1827 0
-1828 57 0
-57 1828 0
-1829 82 0
-82 1829 0
-1830 107 0
-107 1830 0
-1826 1831 0
-1827 1832 0
-1831 1832 0
-1827 -1831 0
-1828 1833 0
-1832 1833 0
-1828 -1832 0
-1829 1834 0
-1833 1834 0
-1829 -1833 0
-1830 -1834 0
-1836 7 8 0
-7 1836 0
-8 1836 0
-1837 32 33 0
-32 1837 0
-33 1837 0
-1838 57 58 0
-57 1838 0
-58 1838 0
-1839 82 83 0
-82 1839 0
-83 1839 0
-1840 107 108 0
-107 1840 0
-108 1840 0
-1836 1841 0
-1842 0
-1837 1843 0
-1841 1843 0
-1837 -1841 1844 0
-1842 1844 0
-1837 -1842 0
-1838 1845 0
-1843 1845 0
-1838 -1843 1846 0
-1844 1846 0
-1838 -1844 0
-1839 1847 0
-1845 1847 0
-1839 -1845 1848 0
-1846 1848 0
-1839 -1846 0
-1840 -1848 0
-1851 7 8 9 0
-7 1851 0
-8 1851 0
-9 1851 0
-1852 32 33 34 0
-32 1852 0
-33 1852 0
-34 1852 0
-1853 57 58 59 0
-57 1853 0
-58 1853 0
-59 1853 0
-1854 82 83 84 0
-82 1854 0
-83 1854 0
-84 1854 0
-1855 107 108 109 0
-107 1855 0
-108 1855 0
-109 1855 0
-1851 1856 0
-1857 0
-1858 0
-1852 1859 0
-1856 1859 0
-1852 -1856 1860 0
-1857 1860 0
-1852 -1857 1861 0
-1858 1861 0
-1852 -1858 0
-1853 1862 0
-1859 1862 0
-1853 -1859 1863 0
-1860 1863 0
-1853 -1860 1864 0
-1861 1864 0
-1853 -1861 0
-1854 1865 0
-1862 1865 0
-1854 -1862 1866 0
-1863 1866 0
-1854 -1863 1867 0
-1864 1867 0
-1854 -1864 0
-1855 -1867 0
-1871 7 8 9 10 0
-7 1871 0
-8 1871 0
-9 1871 0
-10 1871 0
-1872 32 33 34 35 0
-32 1872 0
-33 1872 0
-34 1872 0
-35 1872 0
-1873 57 58 59 60 0
-57 1873 0
-58 1873 0
-59 1873 0
-60 1873 0
-1874 82 83 84 85 0
-82 1874 0
-83 1874 0
-84 1874 0
-85 1874 0
-1875 107 108 109 110 0
-107 1875 0
-108 1875 0
-109 1875 0
-110 1875 0
-1871 1876 0
-1877 0
-1878 0
-1879 0
-1872 1880 0
-1876 1880 0
-1872 -1876 1881 0
-1877 1881 0
-1872 -1877 1882 0
-1878 1882 0
-1872 -1878 1883 0
-1879 1883 0
-1872 -1879 0
-1873 1884 0
-1880 1884 0
-1873 -1880 1885 0
-1881 1885 0
-1873 -1881 1886 0
-1882 1886 0
-1873 -1882 1887 0
-1883 1887 0
-1873 -1883 0
-1874 1888 0
-1884 1888 0
-1874 -1884 1889 0
-1885 1889 0
-1874 -1885 1890 0
-1886 1890 0
-1874 -1886 1891 0
-1887 1891 0
-1874 -1887 0
-1875 -1891 0
-1896 8 0
-8 1896 0
-1897 33 0
-33 1897 0
-1898 58 0
-58 1898 0
-1899 83 0
-83 1899 0
-1900 108 0
-108 1900 0
-1896 1901 0
-1897 1902 0
-1901 1902 0
-1897 -1901 0
-1898 1903 0
-1902 1903 0
-1898 -1902 0
-1899 1904 0
-1903 1904 0
-1899 -1903 0
-1900 -1904 0
-1906 8 9 0
-8 1906 0
-9 1906 0
-1907 33 34 0
-33 1907 0
-34 1907 0
-1908 58 59 0
-58 1908 0
-59 1908 0
-1909 83 84 0
-83 1909 0
-84 1909 0
-1910 108 109 0
-108 1910 0
-109 1910 0
-1906 1911 0
-1912 0
-1907 1913 0
-1911 1913 0
-1907 -1911 1914 0
-1912 1914 0
-1907 -1912 0
-1908 1915 0
-1913 1915 0
-1908 -1913 1916 0
-1914 1916 0
-1908 -1914 0
-1909 1917 0
-1915 1917 0
-1909 -1915 1918 0
-1916 1918 0
-1909 -1916 0
-1910 -1918 0
-1921 8 9 10 0
-8 1921 0
-9 1921 0
-10 1921 0
-1922 33 34 35 0
-33 1922 0
-34 1922 0
-35 1922 0
-1923 58 59 60 0
-58 1923 0
-59 1923 0
-60 1923 0
-1924 83 84 85 0
-83 1924 0
-84 1924 0
-85 1924 0
-1925 108 109 110 0
-108 1925 0
-109 1925 0
-110 1925 0
-1921 1926 0
-1927 0
-1928 0
-1922 1929 0
-1926 1929 0
-1922 -1926 1930 0
-1927 1930 0
-1922 -1927 1931 0
-1928 1931 0
-1922 -1928 0
-1923 1932 0
-1929 1932 0
-1923 -1929 1933 0
-1930 1933 0
-1923 -1930 1934 0
-1931 1934 0
-1923 -1931 0
-1924 1935 0
-1932 1935 0
-1924 -1932 1936 0
-1933 1936 0
-1924 -1933 1937 0
-1934 1937 0
-1924 -1934 0
-1925 -1937 0
-1941 9 0
-9 1941 0
-1942 34 0
-34 1942 0
-1943 59 0
-59 1943 0
-1944 84 0
-84 1944 0
-1945 109 0
-109 1945 0
-1941 1946 0
-1942 1947 0
-1946 1947 0
-1942 -1946 0
-1943 1948 0
-1947 1948 0
-1943 -1947 0
-1944 1949 0
-1948 1949 0
-1944 -1948 0
-1945 -1949 0
-1951 9 10 0
-9 1951 0
-10 1951 0
-1952 34 35 0
-34 1952 0
-35 1952 0
-1953 59 60 0
-59 1953 0
-60 1953 0
-1954 84 85 0
-84 1954 0
-85 1954 0
-1955 109 110 0
-109 1955 0
-110 1955 0
-1951 1956 0
-1957 0
-1952 1958 0
-1956 1958 0
-1952 -1956 1959 0
-1957 1959 0
-1952 -1957 0
-1953 1960 0
-1958 1960 0
-1953 -1958 1961 0
-1959 1961 0
-1953 -1959 0
-1954 1962 0
-1960 1962 0
-1954 -1960 1963 0
-1961 1963 0
-1954 -1961 0
-1955 -1963 0
-1966 10 0
-10 1966 0
-1967 35 0
-35 1967 0
-1968 60 0
-60 1968 0
-1969 85 0
-85 1969 0
-1970 110 0
-110 1970 0
-1966 1971 0
-1967 1972 0
-1971 1972 0
-1967 -1971 0
-1968 1973 0
-1972 1973 0
-1968 -1972 0
-1969 1974 0
-1973 1974 0
-1969 -1973 0
-1970 -1974 0
-6 1976 0
-31 1977 0
-1976 1977 0
-31 -1976 0
-56 1978 0
-1977 1978 0
-56 -1977 0
-81 1979 0
-1978 1979 0
-81 -1978 0
-106 -1979 0
6 31 56 81 106 0
-7 1981 0
-32 1982 0
-1981 1982 0
-32 -1981 0
-57 1983 0
-1982 1983 0
-57 -1982 0
-82 1984 0
-1983 1984 0
-82 -1983 0
-107 -1984 0
7 32 57 82 107 0
-8 1986 0
-33 1987 0
-1986 1987 0
-33 -1986 0
-58 1988 0
-1987 1988 0
-58 -1987 0
-83 1989 0
-1988 1989 0
-83 -1988 0
-108 -1989 0
8 33 58 83 108 0
-9 1991 0
-34 1992 0
-1991 1992 0
-34 -1991 0
-59 1993 0
-1992 1993 0
-59 -1992 0
-84 1994 0
-1993 1994 0
-84 -1993 0
-109 -1994 0
9 34 59 84 109 0
-10 1996 0
-35 1997 0
-1996 1997 0
-35 -1996 0
-60 1998 0
-1997 1998 0
-60 -1997 0
-85 1999 0
-1998 1999 0
-85 -1998 0
-110 -1999 0
10 35 60 85 110 0
-2001 11 0
-11 2001 0
-2002 36 0
-36 2002 0
-2003 61 0
-61 2003 0
-2004 86 0
-86 2004 0
-2005 111 0
-111 2005 0
-2001 2006 0
-2002 2007 0
-2006 2007 0
-2002 -2006 0
-2003 2008 0
-2007 2008 0
-2003 -2007 0
-2004 2009 0
-2008 2009 0
-2004 -2008 0
-2005 -2009 0
-2011 11 12 0
-11 2011 0
-12 2011 0
-2012 36 37 0
-36 2012 0
-37 2012 0
-2013 61 62 0
-61 2013 0
-62 2013 0
-2014 86 87 0
-86 2014 0
-87 2014 0
-2015 111 112 0
-111 2015 0
-112 2015 0
-2011 2016 0
-2017 0
-2012 2018 0
-2016 2018 0
-2012 -2016 2019 0
-2017 2019 0
-2012 -2017 0
-2013 2020 0
-2018 2020 0
-2013 -2018 2021 0
-2019 2021 0
-2013 -2019 0
-2014 2022 0
-2020 2022 0
-2014 -2020 2023 0
-2021 2023 0
-2014 -2021 0
-2015 -2023 0
-2026 11 12 13 0
-11 2026 0
-12 2026 0
-13 2026 0
-2027 36 37 38 0
-36 2027 0
-37 2027 0
-38 2027 0
-2028 61 62 63 0
-61 2028 0
-62 2028 0
-63 2028 0
-2029 86 87 88 0
-86 2029 0
-87 2029 0
-88 2029 0
-2030 111 112 113 0
-111 2030 0
-112 2030 0
-113 2030 0
-2026 2031 0
-2032 0
-2033 0
-2027 2034 0
-2031 2034 0
-2027 -2031 2035 0
-2032 2035 0
-2027 -2032 2036 0
-2033 2036 0
-2027 -2033 0
-2028 2037 0
-2034 2037 0
-2028 -2034 2038 0
-2035 2038 0
-2028 -2035 2039 0
-2036 2039 0
-2028 -2036 0
-2029 2040 0
-2037 2040 0
-2029 -2037 2041 0
-2038 2041 0
-2029 -2038 2042 0
-2039 2042 0
-2029 -2039 0
-2030 -2042 0
-2046 11 12 13 14 0
-11 2046 0
-12 2046 0
-13 2046 0
-14 2046 0
-2047 36 37 38 39 0
-36 2047 0
-37 2047 0
-38 2047 0
-39 2047 0
-2048 61 62 63 64 0
-61 2048 0
-62 2048 0
-63 2048 0
-64 2048 0
-2049 86 87 88 89 0
-86 2049 0
-87 2049 0
-88 2049 0
-89 2049 0
-2050 111 112 113 114 0
-111 2050 0
-112 2050 0
-113 2050 0
-114 2050 0
-2046 2051 0
-2052 0
-2053 0
-2054 0
-2047 2055 0
-2051 2055 0
-2047 -2051 2056 0
-2052 2056 0
-2047 -2052 2057 0
-2053 2057 0
-2047 -2053 2058 0
-2054 2058 0
-2047 -2054 0
-2048 2059 0
-2055 2059 0
-2048 -2055 2060 0
-2056 2060 0
-2048 -2056 2061 0
-2057 2061 0
-2048 -2057 2062 0
-2058 2062 0
-2048 -2058 0
-2049 2063 0
-2059 2063 0
-2049 -2059 2064 0
-2060 2064 0
-2049 -2060 2065 0
-2061 2065 0
-2049 -2061 2066 0
-2062 2066 0
-2049 -2062 0
-2050 -2066 0
-2071 11 12 13 14 15 0
-11 2071 0
-12 2071 0
-13 2071 0
-14 2071 0
-15 2071 0
-2072 36 37 38 39 40 0
-36 2072 0
-37 2072 0
-38 2072 0
-39 2072 0
-40 2072 0
-2073 61 62 63 64 65 0
-61 2073 0
-62 2073 0
-63 2073 0
-64 2073 0
-65 2073 0
-2074 86 87 88 89 90 0
-86 2074 0
-87 2074 0
-88 2074 0
-89 2074 0
-90 2074 0
-2075 111 112 113 114 115 0
-111 2075 0
-112 2075 0
-113 2075 0
-114 2075 0
-115 2075 0
-2076 12 0
-12 2076 0
-2077 37 0
-37 2077 0
-2078 62 0
-62 2078 0
-2079 87 0
-87 2079 0
-2080 112 0
-112 2080 0
-2076 2081 0
-2077 2082 0
-2081 2082 0
-2077 -2081 0
-2078 2083 0
-2082 2083 0
-2078 -2082 0
-2079 2084 0
-2083 2084 0
-2079 -2083 0
-2080 -2084 0
-2086 12 13 0
-12 2086 0
-13 2086 0
-2087 37 38 0
-37 2087 0
-38 2087 0
-2088 62 63 0
-62 2088 0
-63 2088 0
-2089 87 88 0
-87 2089 0
-88 2089 0
-2090 112 113 0
-112 2090 0
-113 2090 0
-2086 2091 0
-2092 0
-2087 2093 0
-2091 2093 0
-2087 -2091 2094 0
-2092 2094 0
-2087 -2092 0
-2088 2095 0
-2093 2095 0
-2088 -2093 2096 0
-2094 2096 0
-2088 -2094 0
-2089 2097 0
-2095 2097 0
-2089 -2095 2098 0
-2096 2098 0
-2089 -2096 0
-2090 -2098 0
-2101 12 13 14 0
-12 2101 0
-13 2101 0
-14 2101 0
-2102 37 38 39 0
-37 2102 0
-38 2102 0
-39 2102 0
-2103 62 63 64 0
-62 2103 0
-63 2103 0
-64 2103 0
-2104 87 88 89 0
-87 2104 0
-88 2104 0
-89 2104 0
-2105 112 113 114 0
-112 2105 0
-113 2105 0
-114 2105 0
-2101 2106 0
-2107 0
-2108 0
-2102 2109 0
-2106 2109 0
-2102 -2106 2110 0
-2107 2110 0
-2102 -2107 2111 0
-2108 2111 0
-2102 -2108 0
-2103 2112 0
-2109 2112 0
-2103 -2109 2113 0
-2110 2113 0
-2103 -2110 2114 0
-2111 2114 0
-2103 -2111 0
-2104 2115 0
-2112 2115 0
-2104 -2112 2116 0
-2113 2116 0
-2104 -2113 2117 0
-2114 2117 0
-2104 -2114 0
-2105 -2117 0
-2121 12 13 14 15 0
-12 2121 0
-13 2121 0
-14 2121 0
-15 2121 0
-2122 37 38 39 40 0
-37 2122 0
-38 2122 0
-39 2122 0
-40 2122 0
-2123 62 63 64 65 0
-62 2123 0
-63 2123 0
-64 2123 0
-65 2123 0
-2124 87 88 89 90 0
-87 2124 0
-88 2124 0
-89 2124 0
-90 2124 0
-2125 112 113 114 115 0
-112 2125 0
-113 2125 0
-114 2125 0
-115 2125 0
-2121 2126 0
-2127 0
-2128 0
-2129 0
-2122 2130 0
-2126 2130 0
-2122 -2126 2131 0
-2127 2131 0
-2122 -2127 2132 0
-2128 2132 0
-2122 -2128 2133 0
-2129 2133 0
-2122 -2129 0
-2123 2134 0
-2130 2134 0
-2123 -2130 2135 0
-2131 2135 0
-2123 -2131 2136 0
-2132 2136 0
-2123 -2132 2137 0
-2133 2137 0
-2123 -2133 0
-2124 2138 0
-2134 2138 0
-2124 -2134 2139 0
-2135 2139 0
-2124 -2135 2140 0
-2136 2140 0
-2124 -2136 2141 0
-2137 2141 0
-2124 -2137 0
-2125 -2141 0
-2146 13 0
-13 2146 0
-2147 38 0
-38 2147 0
-2148 63 0
-63 2148 0
-2149 88 0
-88 2149 0
-2150 113 0
-113 2150 0
-2146 2151 0
-2147 2152 0
-2151 2152 0
-2147 -2151 0
-2148 2153 0
-2152 2153 0
-2148 -2152 0
-2149 2154 0
-2153 2154 0
-2149 -2153 0
-2150 -2154 0
-2156 13 14 0
-13 2156 0
-14 2156 0
-2157 38 39 0
-38 2157 0
-39 2157 0
-2158 63 64 0
-63 2158 0
-64 2158 0
-2159 88 89 0
-88 2159 0
-89 2159 0
-2160 113 114 0
-113 2160 0
-114 2160 0
-2156 2161 0
-2162 0
-2157 2163 0
-2161 2163 0
-2157 -2161 2164 0
-2162 2164 0
-2157 -2162 0
-2158 2165 0
-2163 2165 0
-2158 -2163 2166 0
-2164 2166 0
-2158 -2164 0
-2159 2167 0
-2165 2167 0
-2159 -2165 2168 0
-2166 2168 0
-2159 -2166 0
-2160 -2168 0
-2171 13 14 15 0
-13 2171 0
-14 2171 0
-15 2171 0
-2172 38 39 40 0
-38 2172 0
-39 2172 0
-40 2172 0
-2173 63 64 65 0
-63 2173 0
-64 2173 0
-65 2173 0
-2174 88 89 90 0
-88 2174 0
-89 2174 0
-90 2174 0
-2175 113 114 115 0
-113 2175 0
-114 2175 0
-115 2175 0
-2171 2176 0
-2177 0
-2178 0
-2172 2179 0
-2176 2179 0
-2172 -2176 2180 0
-2177 2180 0
-2172 -2177 2181 0
-2178 2181 0
-2172 -2178 0
-2173 2182 0
-2179 2182 0
-2173 -2179 2183 0
-2180 2183 0
-2173 -2180 2184 0
-2181 2184 0
-2173 -2181 0
-2174 2185 0
-2182 2185 0
-2174 -2182 2186 0
-2183 2186 0
-2174 -2183 2187 0
-2184 2187 0
-2174 -2184 0
-2175 -2187 0
-2191 14 0
-14 2191 0
-2192 39 0
-39 2192 0
-2193 64 0
-64 2193 0
-2194 89 0
-89 2194 0
-2195 114 0
-114 2195 0
-2191 2196 0
-2192 2197 0
-2196 2197 0
-2192 -2196 0
-2193 2198 0
-2197 2198 0
-2193 -2197 0
-2194 2199 0
-2198 2199 0
-2194 -2198 0
-2195 -2199 0
-2201 14 15 0
-14 2201 0
-15 2201 0
-2202 39 40 0
-39 2202 0
-40 2202 0
-2203 64 65 0
-64 2203 0
-65 2203 0
-2204 89 90 0
-89 2204 0
-90 2204 0
-2205 114 115 0
-114 2205 0
-115 2205 0
-2201 2206 0
-2207 0
-2202 2208 0
-2206 2208 0
-2202 -2206 2209 0
-2207 2209 0
-2202 -2207 0
-2203 2210 0
-2208 2210 0
-2203 -2208 2211 0
-2209 2211 0
-2203 -2209 0
-2204 2212 0
-2210 2212 0
-2204 -2210 2213 0
-2211 2213 0
-2204 -2211 0
-2205 -2213 0
-2216 15 0
-15 2216 0
-2217 40 0
-40 2217 0
-2218 65 0
-65 2218 0
-2219 90 0
-90 2219 0
-2220 115 0
-115 2220 0
-2216 2221 0
-2217 2222 0
-2221 2222 0
-2217 -2221 0
-2218 2223 0
-2222 2223 0
-2218 -2222 0
-2219 2224 0
-2223 2224 0
-2219 -2223 0
-2220 -2224 0
-11 2226 0
-36 2227 0
-2226 2227 0
-36 -2226 0
-61 2228 0
-2227 2228 0
-61 -2227 0
-86 2229 0
-2228 2229 0
-86 -2228 0
-111 -2229 0
11 36 61 86 111 0
-12 2231 0
-37 2232 0
-2231 2232 0
-37 -2231 0
-62 2233 0
-2232 2233 0
-62 -2232 0
-87 2234 0
-2233 2234 0
-87 -2233 0
-112 -2234 0
12 37 62 87 112 0
-13 2236 0
-38 2237 0
-2236 2237 0
-38 -2236 0
-63 2238 0
-2237 2238 0
-63 -2237 0
-88 2239 0
-2238 2239 0
-88 -2238 0
-113 -2239 0
13 38 63 88 113 0
-14 2241 0
-39 2242 0
-2241 2242 0
-39 -2241 0
-64 2243 0
-2242 2243 0
-64 -2242 0
-89 2244 0
-2243 2244 0
-89 -2243 0
-114 -2244 0
14 39 64 89 114 0
-15 2246 0
-40 2247 0
-2246 2247 0
-40 -2246 0
-65 2248 0
-2247 2248 0
-65 -2247 0
-90 2249 0
-2248 2249 0
-90 -2248 0
-115 -2249 0
15 40 65 90 115 0
-2251 16 0
-16 2251 0
-2252 41 0
-41 2252 0
-2253 66 0
-66 2253 0
-2254 91 0
-91 2254 0
-2255 116 0
-116 2255 0
-2251 2256 0
-2252 2257 0
-2256 2257 0
-2252 -2256 0
-2253 2258 0
-2257 2258 0
-2253 -2257 0
-2254 2259 0
-2258 2259 0
-2254 -2258 0
-2255 -2259 0
-2261 16 17 0
-16 2261 0
-17 2261 0
-2262 41 42 0
-41 2262 0
-42 2262 0
-2263 66 67 0
-66 2263 0
-67 2263 0
-2264 91 92 0
-91 2264 0
-92 2264 0
-2265 116 117 0
-116 2265 0
-117 2265 0
-2261 2266 0
-2267 0
-2262 2268 0
-2266 2268 0
-2262 -2266 2269 0
-2267 2269 0
-2262 -2267 0
-2263 2270 0
-2268 2270 0
-2263 -2268 2271 0
-2269 2271 0
-2263 -2269 0
-2264 2272 0
-2270 2272 0
-2264 -2270 2273 0
-2271 2273 0
-2264 -2271 0
-2265 -2273 0
-2276 16 17 18 0
-16 2276 0
-17 2276 0
-18 2276 0
-2277 41 42 43 0
-41 2277 0
-42 2277 0
-43 2277 0
-2278 66 67 68 0
-66 2278 0
-67 2278 0
-68 2278 0
-2279 91 92 93 0
-91 2279 0
-92 2279 0
-93 2279 0
-2280 116 117 118 0
-116 2280 0
-117 2280 0
-118 2280 0
-2276 2281 0
-2282 0
-2283 0
-2277 2284 0
-2281 2284 0
-2277 -2281 2285 0
-2282 2285 0
-2277 -2282 2286 0
-2283 2286 0
-2277 -2283 0
-2278 2287 0
-2284 2287 0
-2278 -2284 2288 0
-2285 2288 0
-2278 -2285 2289 0
-2286 2289 0
-2278 -2286 0
-2279 2290 0
-2287 2290 0
-2279 -2287 2291 0
-2288 2291 0
-2279 -2288 2292 0
-2289 2292 0
-2279 -2289 0
-2280 -2292 0
-2296 16 17 18 19 0
-16 2296 0
-17 2296 0
-18 2296 0
-19 2296 0
-2297 41 42 43 44 0
-41 2297 0
-42 2297 0
-43 2297 0
-44 2297 0
-2298 66 67 68 69 0
-66 2298 0
-67 2298 0
-68 2298 0
-69 2298 0
-2299 91 92 93 94 0
-91 2299 0
-92 2299 0
-93 2299 0
-94 2299 0
-2300 116 117 118 119 0
-116 2300 0
-117 2300 0
-118 2300 0
-119 2300 0
-2296 2301 0
-2302 0
-2303 0
-2304 0
-2297 2305 0
-2301 2305 0
-2297 -2301 2306 0
-2302 2306 0
-2297 -2302 2307 0
-2303 2307 0
-2297 -2303 2308 0
-2304 2308 0
-2297 -2304 0
-2298 2309 0
-2305 2309 0
-2298 -2305 2310 0
-2306 2310 0
-2298 -2306 2311 0
-2307 2311 0
-2298 -2307 2312 0
-2308 2312 0
-2298 -2308 0
-2299 2313 0
-2309 2313 0
-2299 -2309 2314 0
-2310 2314 0
-2299 -2310 2315 0
-2311 2315 0
-2299 -2311 2316 0
-2312 2316 0
-2299 -2312 0
-2300 -2316 0
-2321 16 17 18 19 20 0
-16 2321 0
-17 2321 0
-18 2321 0
-19 2321 0
-20 2321 0
-2322 41 42 43 44 45 0
-41 2322 0
-42 2322 0
-43 2322 0
-44 2322 0
-45 2322 0
-2323 66 67 68 69 70 0
-66 2323 0
-67 2323 0
-68 2323 0
-69 2323 0
-70 2323 0
-2324 91 92 93 94 95 0
-91 2324 0
-92 2324 0
-93 2324 0
-94 2324 0
-95 2324 0
-2325 116 117 118 119 120 0
-116 2325 0
-117 2325 0
-118 2325 0
-119 2325 0
-120 2325 0
-2326 17 0
-17 2326 0
-2327 42 0
-42 2327 0
-2328 67 0
-67 2328 0
-2329 92 0
-92 2329 0
-2330 117 0
-117 2330 0
-2326 2331 0
-2327 2332 0
-2331 2332 0
-2327 -2331 0
-2328 2333 0
-2332 2333 0
-2328 -2332 0
-2329 2334 0
-2333 2334 0
-2329 -2333 0
-2330 -2334 0
-2336 17 18 0
-17 2336 0
-18 2336 0
-2337 42 43 0
-42 2337 0
-43 2337 0
-2338 67 68 0
-67 2338 0
-68 2338 0
-2339 92 93 0
-92 2339 0
-93 2339 0
-2340 117 118 0
-117 2340 0
-118 2340 0
-2336 2341 0
-2342 0
-2337 2343 0
-2341 2343 0
-2337 -2341 2344 0
-2342 2344 0
-2337 -2342 0
-2338 2345 0
-2343 2345 0
-2338 -2343 2346 0
-2344 2346 0
-2338 -2344 0
-2339 2347 0
-2345 2347 0
-2339 -2345 2348 0
-2346 2348 0
-2339 -2346 0
-2340 -2348 0
-2351 17 18 19 0
-17 2351 0
-18 2351 0
-19 2351 0
-2352 42 43 44 0
-42 2352 0
-43 2352 0
-44 2352 0
-2353 67 68 69 0
-67 2353 0
-68 2353 0
-69 2353 0
-2354 92 93 94 0
-92 2354 0
-93 2354 0
-94 2354 0
-2355 117 118 119 0
-117 2355 0
-118 2355 0
-119 2355 0
-2351 2356 0
-2357 0
-2358 0
-2352 2359 0
-2356 2359 0
-2352 -2356 2360 0
-2357 2360 0
-2352 -2357 2361 0
-2358 2361 0
-2352 -2358 0
-2353 2362 0
-2359 2362 0
-2353 -2359 2363 0
-2360 2363 0
-2353 -2360 2364 0
-2361 2364 0
-2353 -2361 0
-2354 2365 0
-2362 2365 0
-2354 -2362 2366 0
-2363 2366 0
-2354 -2363 2367 0
-2364 2367 0
-2354 -2364 0
-2355 -2367 0
-2371 17 18 19 20 0
-17 2371 0
-18 2371 0
-19 2371 0
-20 2371 0
-2372 42 43 44 45 0
-42 2372 0
-43 2372 0
-44 2372 0
-45 2372 0
-2373 67 68 69 70 0
-67 2373 0
-68 2373 0
-69 2373 0
-70 2373 0
-2374 92 93 94 95 0
-92 2374 0
-93 2374 0
-94 2374 0
-95 2374 0
-2375 117 118 119 120 0
-117 2375 0
-118 2375 0
-119 2375 0
-120 2375 0
-2371 2376 0
-2377 0
-2378 0
-2379 0
-2372 2380 0
-2376 2380 0
-2372 -2376 2381 0
-2377 2381 0
-2372 -2377 2382 0
-2378 2382 0
-2372 -2378 2383 0
-2379 2383 0
-2372 -2379 0
-2373 2384 0
-2380 2384 0
-2373 -2380 2385 0
-2381 2385 0
-2373 -2381 2386 0
-2382 2386 0
-2373 -2382 2387 0
-2383 2387 0
-2373 -2383 0
-2374 2388 0
-2384 2388 0
-2374 -2384 2389 0
-2385 2389 0
-2374 -2385 2390 0
-2386 2390 0
-2374 -2386 2391 0
-2387 2391 0
-2374 -2387 0
-2375 -2391 0
-2396 18 0
-18 2396 0
-2397 43 0
-43 2397 0
-2398 68 0
-68 2398 0
-2399 93 0
-93 2399 0
-2400 118 0
-118 2400 0
-2396 2401 0
-2397 2402 0
-2401 2402 0
-2397 -2401 0
-2398 2403 0
-2402 2403 0
-2398 -2402 0
-2399 2404 0
-2403 2404 0
-2399 -2403 0
-2400 -2404 0
-2406 18 19 0
-18 2406 0
-19 2406 0
-2407 43 44 0
-43 2407 0
-44 2407 0
-2408 68 69 0
-68 2408 0
-69 2408 0
-2409 93 94 0
-93 2409 0
-94 2409 0
-2410 118 119 0
-118 2410 0
-119 2410 0
-2406 2411 0
-2412 0
-2407 2413 0
-2411 2413 0
-2407 -2411 2414 0
-2412 2414 0
-2407 -2412 0
-2408 2415 0
-2413 2415 0
-2408 -2413 2416 0
-2414 2416 0
-2408 -2414 0
-2409 2417 0
-2415 2417 0
-2409 -2415 2418 0
-2416 2418 0
-2409 -2416 0
-2410 -2418 0
-2421 18 19 20 0
-18 2421 0
-19 2421 0
-20 2421 0
-2422 43 44 45 0
-43 2422 0
-44 2422 0
-45 2422 0
-2423 68 69 70 0
-68 2423 0
-69 2423 0
-70 2423 0
-2424 93 94 95 0
-93 2424 0
-94 2424 0
-95 2424 0
-2425 118 119 120 0
-118 2425 0
-119 2425 0
-120 2425 0
-2421 2426 0
-2427 0
-2428 0
-2422 2429 0
-2426 2429 0
-2422 -2426 2430 0
-2427 2430 0
-2422 -2427 2431 0
-2428 2431 0
-2422 -2428 0
-2423 2432 0
-2429 2432 0
-2423 -2429 2433 0
-2430 2433 0
-2423 -2430 2434 0
-2431 2434 0
-2423 -2431 0
-2424 2435 0
-2432 2435 0
-2424 -2432 2436 0
-2433 2436 0
-2424 -2433 2437 0
-2434 2437 0
-2424 -2434 0
-2425 -2437 0
-2441 19 0
-19 2441 0
-2442 44 0
-44 2442 0
-2443 69 0
-69 2443 0
-2444 94 0
-94 2444 0
-2445 119 0
-119 2445 0
-2441 2446 0
-2442 2447 0
-2446 2447 0
-2442 -2446 0
-2443 2448 0
-2447 2448 0
-2443 -2447 0
-2444 2449 0
-2448 2449 0
-2444 -2448 0
-2445 -2449 0
-2451 19 20 0
-19 2451 0
-20 2451 0
-2452 44 45 0
-44 2452 0
-45 2452 0
-2453 69 70 0
-69 2453 0
-70 2453 0
-2454 94 95 0
-94 2454 0
-95 2454 0
-2455 119 120 0
-119 2455 0
-120 2455 0
-2451 2456 0
-2457 0
-2452 2458 0
-2456 2458 0
-2452 -2456 2459 0
-2457 2459 0
-2452 -2457 0
-2453 2460 0
-2458 2460 0
-2453 -2458 2461 0
-2459 2461 0
-2453 -2459 0
-2454 2462 0
-2460 2462 0
-2454 -2460 2463 0
-2461 2463 0
-2454 -2461 0
-2455 -2463 0
-2466 20 0
-20 2466 0
-2467 45 0
-45 2467 0
-2468 70 0
-70 2468 0
-2469 95 0
-95 2469 0
-2470 120 0
-120 2470 0
-2466 2471 0
-2467 2472 0
-2471 2472 0
-2467 -2471 0
-2468 2473 0
-2472 2473 0
-2468 -2472 0
-2469 2474 0
-2473 2474 0
-2469 -2473 0
-2470 -2474 0
-16 2476 0
-41 2477 0
-2476 2477 0
-41 -2476 0
-66 2478 0
-2477 2478 0
-66 -2477 0
-91 2479 0
-2478 2479 0
-91 -2478 0
-116 -2479 0
16 41 66 91 116 0
-17 2481 0
-42 2482 0
-2481 2482 0
-42 -2481 0
-67 2483 0
-2482 2483 0
-67 -2482 0
-92 2484 0
-2483 2484 0
-92 -2483 0
-117 -2484 0
17 42 67 92 117 0
-18 2486 0
-43 2487 0
-2486 2487 0
-43 -2486 0
-68 2488 0
-2487 2488 0
-68 -2487 0
-93 2489 0
-2488 2489 0
-93 -2488 0
-118 -2489 0
18 43 68 93 118 0
-19 2491 0
-44 2492 0
-2491 2492 0
-44 -2491 0
-69 2493 0
-2492 2493 0
-69 -2492 0
-94 2494 0
-2493 2494 0
-94 -2493 0
-119 -2494 0
19 44 69 94 119 0
-20 2496 0
-45 2497 0
-2496 2497 0
-45 -2496 0
-70 2498 0
-2497 2498 0
-70 -2497 0
-95 2499 0
-2498 2499 0
-95 -2498 0
-120 -2499 0
20 45 70 95 120 0
-2501 21 0
-21 2501 0
-2502 46 0
-46 2502 0
-2503 71 0
-71 2503 0
-2504 96 0
-96 2504 0
-2505 121 0
-121 2505 0
-2501 2506 0
-2502 2507 0
-2506 2507 0
-2502 -2506 0
-2503 2508 0
-2507 2508 0
-2503 -2507 0
-2504 2509 0
-2508 2509 0
-2504 -2508 0
-2505 -2509 0
-2511 21 22 0
-21 2511 0
-22 2511 0
-2512 46 47 0
-46 2512 0
-47 2512 0
-2513 71 72 0
-71 2513 0
-72 2513 0
-2514 96 97 0
-96 2514 0
-97 2514 0
-2515 121 122 0
-121 2515 0
-122 2515 0
-2511 2516 0
-2517 0
-2512 2518 0
-2516 2518 0
-2512 -2516 2519 0
-2517 2519 0
-2512 -2517 0
-2513 2520 0
-2518 2520 0
-2513 -2518 2521 0
-2519 2521 0
-2513 -2519 0
-2514 2522 0
-2520 2522 0
-2514 -2520 2523 0
-2521 2523 0
-2514 -2521 0
-2515 -2523 0
-2526 21 22 23 0
-21 2526 0
-22 2526 0
-23 2526 0
-2527 46 47 48 0
-46 2527 0
-47 2527 0
-48 2527 0
-2528 71 72 73 0
-71 2528 0
-72 2528 0
-73 2528 0
-2529 96 97 98 0
-96 2529 0
-97 2529 0
-98 2529 0
-2530 121 122 123 0
-121 2530 0
-122 2530 0
-123 2530 0
-2526 2531 0
-2532 0
-2533 0
-2527 2534 0
-2531 2534 0
-2527 -2531 2535 0
-2532 2535 0
-2527 -2532 2536 0
-2533 2536 0
-2527 -2533 0
-2528 2537 0
-2534 2537 0
-2528 -2534 2538 0
-2535 2538 0
-2528 -2535 2539 0
-2536 2539 0
-2528 -2536 0
-2529 2540 0
-2537 2540 0
-2529 -2537 2541 0
-2538 2541 0
-2529 -2538 2542 0
-2539 2542 0
-2529 -2539 0
-2530 -2542 0
-2546 21 22 23 24 0
-21 2546 0
-22 2546 0
-23 2546 0
-24 2546 0
-2547 46 47 48 49 0
-46 2547 0
-47 2547 0
-48 2547 0
-49 2547 0
-2548 71 72 73 74 0
-71 2548 0
-72 2548 0
-73 2548 0
-74 2548 0
-2549 96 97 98 99 0
-96 2549 0
-97 2549 0
-98 2549 0
-99 2549 0
-2550 121 122 123 124 0
-121 2550 0
-122 2550 0
-123 2550 0
-124 2550 0
-2546 2551 0
-2552 0
-2553 0
-2554 0
-2547 2555 0
-2551 2555 0
-2547 -2551 2556 0
-2552 2556 0
-2547 -2552 2557 0
-2553 2557 0
-2547 -2553 2558 0
-2554 2558 0
-2547 -2554 0
-2548 2559 0
-2555 2559 0
-2548 -2555 2560 0
-2556 2560 0
-2548 -2556 2561 0
-2557 2561 0
-2548 -2557 2562 0
-2558 2562 0
-2548 -2558 0
-2549 2563 0
-2559 2563 0
-2549 -2559 2564 0
-2560 2564 0
-2549 -2560 2565 0
-2561 2565 0
-2549 -2561 2566 0
-2562 2566 0
-2549 -2562 0
-2550 -2566 0
-2571 21 22 23 24 25 0
-21 2571 0
-22 2571 0
-23 2571 0
-24 2571 0
-25 2571 0
-2572 46 47 48 49 50 0
-46 2572 0
-47 2572 0
-48 2572 0
-49 2572 0
-50 2572 0
-2573 71 72 73 74 75 0
-71 2573 0
-72 2573 0
-73 2573 0
-74 2573 0
-75 2573 0
-2574 96 97 98 99 100 0
-96 2574 0
-97 2574 0
-98 2574 0
-99 2574 0
-100 2574 0
-2575 121 122 123 124 125 0
-121 2575 0
-122 2575 0
-123 2575 0
-124 2575 0
-125 2575 0
-2576 22 0
-22 2576 0
-2577 47 0
-47 2577 0
-2578 72 0
-72 2578 0
-2579 97 0
-97 2579 0
-2580 122 0
-122 2580 0
-2576 2581 0
-2577 2582 0
-2581 2582 0
-2577 -2581 0
-2578 2583 0
-2582 2583 0
-2578 -2582 0
-2579 2584 0
-2583 2584 0
-2579 -2583 0
-2580 -2584 0
-2586 22 23 0
-22 2586 0
-23 2586 0
-2587 47 48 0
-47 2587 0
-48 2587 0
-2588 72 73 0
-72 2588 0
-73 2588 0
-2589 97 98 0
-97 2589 0
-98 2589 0
-2590 122 123 0
-122 2590 0
-123 2590 0
-2586 2591 0
-2592 0
-2587 2593 0
-2591 2593 0
-2587 -2591 2594 0
-2592 2594 0
-2587 -2592 0
-2588 2595 0
-2593 2595 0
-2588 -2593 2596 0
-2594 2596 0
-2588 -2594 0
-2589 2597 0
-2595 2597 0
-2589 -2595 2598 0
-2596 2598 0
-2589 -2596 0
-2590 -2598 0
-2601 22 23 24 0
-22 2601 0
-23 2601 0
-24 2601 0
-2602 47 48 49 0
-47 2602 0
-48 2602 0
-49 2602 0
-2603 72 73 74 0
-72 2603 0
-73 2603 0
-74 2603 0
-2604 97 98 99 0
-97 2604 0
-98 2604 0
-99 2604 0
-2605 122 123 124 0
-122 2605 0
-123 2605 0
-124 2605 0
-2601 2606 0
-2607 0
-2608 0
-2602 2609 0
-2606 2609 0
-2602 -2606 2610 0
-2607 2610 0
-2602 -2607 2611 0
-2608 2611 0
-2602 -2608 0
-2603 2612 0
-2609 2612 0
-2603 -2609 2613 0
-2610 2613 0
-2603 -2610 2614 0
-2611 2614 0
-2603 -2611 0
-2604 2615 0
-2612 2615 0
-2604 -2612 2616 0
-2613 2616 0
-2604 -2613 2617 0
-2614 2617 0
-2604 -2614 0
-2605 -2617 0
-2621 22 23 24 25 0
-22 2621 0
-23 2621 0
-24 2621 0
-25 2621 0
-2622 47 48 49 50 0
-47 2622 0
-48 2622 0
-49 2622 0
-50 2622 0
-2623 72 73 74 75 0
-72 2623 0
-73 2623 0
-74 2623 0
-75 2623 0
-2624 97 98 99 100 0
-97 2624 0
-98 2624 0
-99 2624 0
-100 2624 0
-2625 122 123 124 125 0
-122 2625 0
-123 2625 0
-124 2625 0
-125 2625 0
-2621 2626 0
-2627 0
-2628 0
-2629 0
-2622 2630 0
-2626 2630 0
-2622 -2626 2631 0
-2627 2631 0
-2622 -2627 2632 0
-2628 2632 0
-2622 -2628 2633 0
-2629 2633 0
-2622 -2629 0
-2623 2634 0
-2630 2634 0
-2623 -2630 2635 0
-2631 2635 0
-2623 -2631 2636 0
-2632 2636 0
-2623 -2632 2637 0
-2633 2637 0
-2623 -2633 0
-2624 2638 0
-2634 2638 0
-2624 -2634 2639 0
-2635 2639 0
-2624 -2635 2640 0
-2636 2640 0
-2624 -2636 2641 0
-2637 2641 0
-2624 -2637 0
-2625 -2641 0
-2646 23 0
-23 2646 0
-2647 48 0
-48 2647 0
-2648 73 0
-73 2648 0
-2649 98 0
-98 2649 0
-2650 123 0
-123 2650 0
-2646 2651 0
-2647 2652 0
-2651 2652 0
-2647 -2651 0
-2648 2653 0
-2652 2653 0
-2648 -2652 0
-2649 2654 0
-2653 2654 0
-2649 -2653 0
-2650 -2654 0
-2656 23 24 0
-23 2656 0
-24 2656 0
-2657 48 49 0
-48 2657 0
-49 2657 0
-2658 73 74 0
-73 2658 0
-74 2658 0
-2659 98 99 0
-98 2659 0
-99 2659 0
-2660 123 124 0
-123 2660 0
-124 2660 0
-2656 2661 0
-2662 0
-2657 2663 0
-2661 2663 0
-2657 -2661 2664 0
-2662 2664 0
-2657 -2662 0
-2658 2665 0
-2663 2665 0
-2658 -2663 2666 0
-2664 2666 0
-2658 -2664 0
-2659 2667 0
-2665 2667 0
-2659 -2665 2668 0
-2666 2668 0
-2659 -2666 0
-2660 -2668 0
-2671 23 24 25 0
-23 2671 0
-24 2671 0
-25 2671 0
-2672 48 49 50 0
-48 2672 0
-49 2672 0
-50 2672 0
-2673 73 74 75 0
-73 2673 0
-74 2673 0
-75 2673 0
-2674 98 99 100 0
-98 2674 0
-99 2674 0
-100 2674 0
-2675 123 124 125 0
-123 2675 0
-124 2675 0
-125 2675 0
-2671 2676 0
-2677 0
-2678 0
-2672 2679 0
-2676 2679 0
-2672 -2676 2680 0
-2677 2680 0
-2672 -2677 2681 0
-2678 2681 0
-2672 -2678 0
-2673 2682 0
-2679 2682 0
-2673 -2679 2683 0
-2680 2683 0
-2673 -2680 2684 0
-2681 2684 0
-2673 -2681 0
-2674 2685 0
-2682 2685 0
-2674 -2682 2686 0
-2683 2686 0
-2674 -2683 2687 0
-2684 2687 0
-2674 -2684 0
-2675 -2687 0
-2691 24 0
-24 2691 0
-2692 49 0
-49 2692 0
-2693 74 0
-74 2693 0
-2694 99 0
-99 2694 0
-2695 124 0
-124 2695 0
-2691 2696 0
-2692 2697 0
-2696 2697 0
-2692 -2696 0
-2693 2698 0
-2697 2698 0
-2693 -2697 0
-2694 2699 0
-2698 2699 0
-2694 -2698 0
-2695 -2699 0
-2701 24 25 0
-24 2701 0
-25 2701 0
-2702 49 50 0
-49 2702 0
-50 2702 0
-2703 74 75 0
-74 2703 0
-75 2703 0
-2704 99 100 0
-99 2704 0
-100 2704 0
-2705 124 125 0
-124 2705 0
-125 2705 0
-2701 2706 0
-2707 0
-2702 2708 0
-2706 2708 0
-2702 -2706 2709 0
-2707 2709 0
-2702 -2707 0
-2703 2710 0
-2708 2710 0
-2703 -2708 2711 0
-2709 2711 0
-2703 -2709 0
-2704 2712 0
-2710 2712 0
-2704 -2710 2713 0
-2711 2713 0
-2704 -2711 0
-2705 -2713 0
-2716 25 0
-25 2716 0
-2717 50 0
-50 2717 0
-2718 75 0
-75 2718 0
-2719 100 0
-100 2719 0
-2720 125 0
-125 2720 0
-2716 2721 0
-2717 2722 0
-2721 2722 0
-2717 -2721 0
-2718 2723 0
-2722 2723 0
-2718 -2722 0
-2719 2724 0
-2723 2724 0
-2719 -2723 0
-2720 -2724 0
-21 2726 0
-46 2727 0
-2726 2727 0
-46 -2726 0
-71 2728 0
-2727 2728 0
-71 -2727 0
-96 2729 0
-2728 2729 0
-96 -2728 0
-121 -2729 0
21 46 71 96 121 0
-22 2731 0
-47 2732 0
-2731 2732 0
-47 -2731 0
-72 2733 0
-2732 2733 0
-72 -2732 0
-97 2734 0
-2733 2734 0
-97 -2733 0
-122 -2734 0
22 47 72 97 122 0
-23 2736 0
-48 2737 0
-2736 2737 0
-48 -2736 0
-73 2738 0
-2737 2738 0
-73 -2737 0
-98 2739 0
-2738 2739 0
-98 -2738 0
-123 -2739 0
23 48 73 98 123 0
-24 2741 0
-49 2742 0
-2741 2742 0
-49 -2741 0
-74 2743 0
-2742 2743 0
-74 -2742 0
-99 2744 0
-2743 2744 0
-99 -2743 0
-124 -2744 0
24 49 74 99 124 0
-25 2746 0
-50 2747 0
-2746 2747 0
-50 -2746 0
-75 2748 0
-2747 2748 0
-75 -2747 0
-100 2749 0
-2748 2749 0
-100 -2748 0
-125 -2749 0
25 50 75 100 125 0
-2751 16 0
-16 2751 0
-2752 46 0
-46 2752 0
-2751 2753 0
-2752 -2753 0
-2755 16 17 0
-16 2755 0
-17 2755 0
-2756 46 47 0
-46 2756 0
-47 2756 0
-2757 17 0
-17 2757 0
-2758 47 0
-47 2758 0
-2757 2759 0
-2758 -2759 0
-2761 17 18 0
-17 2761 0
-18 2761 0
-2762 47 48 0
-47 2762 0
-48 2762 0
-2763 18 0
-18 2763 0
-2764 48 0
-48 2764 0
-2763 2765 0
-2764 -2765 0
-2767 18 19 0
-18 2767 0
-19 2767 0
-2768 48 49 0
-48 2768 0
-49 2768 0
-2769 19 0
-19 2769 0
-2770 49 0
-49 2770 0
-2769 2771 0
-2770 -2771 0
-2773 19 20 0
-19 2773 0
-20 2773 0
-2774 49 50 0
-49 2774 0
-50 2774 0
-2775 20 0
-20 2775 0
-2776 50 0
-50 2776 0
-2775 2777 0
-2776 -2777 0
-2779 2784 0
-2785 0
-2786 0
-2780 2787 0
-2784 2787 0
-2780 -2784 2788 0
-2785 2788 0
-2780 -2785 2789 0
-2786 2789 0
-2780 -2786 0
-2781 2790 0
-2787 2790 0
-2781 -2787 2791 0
-2788 2791 0
-2781 -2788 2792 0
-2789 2792 0
-2781 -2789 0
-2782 2793 0
-2790 2793 0
-2782 -2790 2794 0
-2791 2794 0
-2782 -2791 2795 0
-2792 2795 0
-2782 -2792 0
-2783 -2795 0
2779 2799 0
-2800 0
2780 2801 0
-2799 2801 0
2780 -2799 2802 0
-2800 2802 0
2780 -2800 0
2781 2803 0
-2801 2803 0
2781 -2801 2804 0
-2802 2804 0
2781 -2802 0
2782 2805 0
-2803 2805 0
2782 -2803 2806 0
-2804 2806 0
2782 -2804 0
2783 -2806 0
-16 2809 0
-46 2810 0
-2809 2810 0
-46 -2809 0
-2779 -2810 0
16 46 2779 0
-17 2812 0
-47 2813 0
-2812 2813 0
-47 -2812 0
-2780 -2813 0
17 47 2780 0
-18 2815 0
-48 2816 0
-2815 2816 0
-48 -2815 0
-2781 -2816 0
18 48 2781 0
-19 2818 0
-49 2819 0
-2818 2819 0
-49 -2818 0
-2782 -2819 0
19 49 2782 0
-20 2821 0
-50 2822 0
-2821 2822 0
-50 -2821 0
-2783 -2822 0
20 50 2783 0
-2824 11 0
-11 2824 0
-2825 41 0
-41 2825 0
-2826 71 0
-71 2826 0
-2824 2827 0
-2825 2828 0
-2827 2828 0
-2825 -2827 0
-2826 -2828 0
-2830 11 12 0
-11 2830 0
-12 2830 0
-2831 41 42 0
-41 2831 0
-42 2831 0
-2832 71 72 0
-71 2832 0
-72 2832 0
-2830 2833 0
-2834 0
-2831 2835 0
-2833 2835 0
-2831 -2833 2836 0
-2834 2836 0
-2831 -2834 0
-2832 -2836 0
-2839 11 12 13 0
-11 2839 0
-12 2839 0
-13 2839 0
-2840 41 42 43 0
-41 2840 0
-42 2840 0
-43 2840 0
-2841 71 72 73 0
-71 2841 0
-72 2841 0
-73 2841 0
-2842 12 0
-12 2842 0
-2843 42 0
-42 2843 0
-2844 72 0
-72 2844 0
-2842 2845 0
-2843 2846 0
-2845 2846 0
-2843 -2845 0
-2844 -2846 0
-2848 12 13 0
-12 2848 0
-13 2848 0
-2849 42 43 0
-42 2849 0
-43 2849 0
-2850 72 73 0
-72 2850 0
-73 2850 0
-2848 2851 0
-2852 0
-2849 2853 0
-2851 2853 0
-2849 -2851 2854 0
-2852 2854 0
-2849 -2852 0
-2850 -2854 0
-2857 12 13 14 0
-12 2857 0
-13 2857 0
-14 2857 0
-2858 42 43 44 0
-42 2858 0
-43 2858 0
-44 2858 0
-2859 72 73 74 0
-72 2859 0
-73 2859 0
-74 2859 0
-2860 13 0
-13 2860 0
-2861 43 0
-43 2861 0
-2862 73 0
-73 2862 0
-2860 2863 0
-2861 2864 0
-2863 2864 0
-2861 -2863 0
-2862 -2864 0
-2866 13 14 0
-13 2866 0
-14 2866 0
-2867 43 44 0
-43 2867 0
-44 2867 0
-2868 73 74 0
-73 2868 0
-74 2868 0
-2866 2869 0
-2870 0
-2867 2871 0
-2869 2871 0
-2867 -2869 2872 0
-2870 2872 0
-2867 -2870 0
-2868 -2872 0
-2875 13 14 15 0
-13 2875 0
-14 2875 0
-15 2875 0
-2876 43 44 45 0
-43 2876 0
-44 2876 0
-45 2876 0
-2877 73 74 75 0
-73 2877 0
-74 2877 0
-75 2877 0
-2878 14 0
-14 2878 0
-2879 44 0
-44 2879 0
-2880 74 0
-74 2880 0
-2878 2881 0
-2879 2882 0
-2881 2882 0
-2879 -2881 0
-2880 -2882 0
-2884 14 15 0
-14 2884 0
-15 2884 0
-2885 44 45 0
-44 2885 0
-45 2885 0
-2886 74 75 0
-74 2886 0
-75 2886 0
-2884 2887 0
-2888 0
-2885 2889 0
-2887 2889 0
-2885 -2887 2890 0
-2888 2890 0
-2885 -2888 0
-2886 -2890 0
-2893 15 0
-15 2893 0
-2894 45 0
-45 2894 0
-2895 75 0
-75 2895 0
-2893 2896 0
-2894 2897 0
-2896 2897 0
-2894 -2896 0
-2895 -2897 0
-2899 2904 0
-2905 0
-2900 2906 0
-2904 2906 0
-2900 -2904 2907 0
-2905 2907 0
-2900 -2905 0
-2901 2908 0
-2906 2908 0
-2901 -2906 2909 0
-2907 2909 0
-2901 -2907 0
-2902 2910 0
-2908 2910 0
-2902 -2908 2911 0
-2909 2911 0
-2902 -2909 0
-2903 -2911 0
2899 2914 0
-2915 0
-2916 0
2900 2917 0
-2914 2917 0
2900 -2914 2918 0
-2915 2918 0
2900 -2915 2919 0
-2916 2919 0
2900 -2916 0
2901 2920 0
-2917 2920 0
2901 -2917 2921 0
-2918 2921 0
2901 -2918 2922 0
-2919 2922 0
2901 -2919 0
2902 2923 0
-2920 2923 0
2902 -2920 2924 0
-2921 2924 0
2902 -2921 2925 0
-2922 2925 0
2902 -2922 0
2903 -2925 0
-11 2929 0
-41 2930 0
-2929 2930 0
-41 -2929 0
-71 2931 0
-2930 2931 0
-71 -2930 0
-2899 -2931 0
11 41 71 2899 0
-12 2933 0
-42 2934 0
-2933 2934 0
-42 -2933 0
-72 2935 0
-2934 2935 0
-72 -2934 0
-2900 -2935 0
12 42 72 2900 0
-13 2937 0
-43 2938 0
-2937 2938 0
-43 -2937 0
-73 2939 0
-2938 2939 0
-73 -2938 0
-2901 -2939 0
13 43 73 2901 0
-14 2941 0
-44 2942 0
-2941 2942 0
-44 -2941 0
-74 2943 0
-2942 2943 0
-74 -2942 0
-2902 -2943 0
14 44 74 2902 0
-15 2945 0
-45 2946 0
-2945 2946 0
-45 -2945 0
-75 2947 0
-2946 2947 0
-75 -2946 0
-2903 -2947 0
15 45 75 2903 0
-2949 6 0
-6 2949 0
-2950 36 0
-36 2950 0
-2951 66 0
-66 2951 0
-2952 96 0
-96 2952 0
-2949 2953 0
-2950 2954 0
-2953 2954 0
-2950 -2953 0
-2951 2955 0
-2954 2955 0
-2951 -2954 0
-2952 -2955 0
-2957 6 7 0
-6 2957 0
-7 2957 0
-2958 36 37 0
-36 2958 0
-37 2958 0
-2959 66 67 0
-66 2959 0
-67 2959 0
-2960 96 97 0
-96 2960 0
-97 2960 0
-2957 2961 0
-2962 0
-2958 2963 0
-2961 2963 0
-2958 -2961 2964 0
-2962 2964 0
-2958 -2962 0
-2959 2965 0
-2963 2965 0
-2959 -2963 2966 0
-2964 2966 0
-2959 -2964 0
-2960 -2966 0
-2969 6 7 8 0
-6 2969 0
-7 2969 0
-8 2969 0
-2970 36 37 38 0
-36 2970 0
-37 2970 0
-38 2970 0
-2971 66 67 68 0
-66 2971 0
-67 2971 0
-68 2971 0
-2972 96 97 98 0
-96 2972 0
-97 2972 0
-98 2972 0
-2969 2973 0
-2974 0
-2975 0
-2970 2976 0
-2973 2976 0
-2970 -2973 2977 0
-2974 2977 0
-2970 -2974 2978 0
-2975 2978 0
-2970 -2975 0
-2971 2979 0
-2976 2979 0
-2971 -2976 2980 0
-2977 2980 0
-2971 -2977 2981 0
-2978 2981 0
-2971 -2978 0
-2972 -2981 0
-2985 6 7 8 9 0
-6 2985 0
-7 2985 0
-8 2985 0
-9 2985 0
-2986 36 37 38 39 0
-36 2986 0
-37 2986 0
-38 2986 0
-39 2986 0
-2987 66 67 68 69 0
-66 2987 0
-67 2987 0
-68 2987 0
-69 2987 0
-2988 96 97 98 99 0
-96 2988 0
-97 2988 0
-98 2988 0
-99 2988 0
-2989 7 0
-7 2989 0
-2990 37 0
-37 2990 0
-2991 67 0
-67 2991 0
-2992 97 0
-97 2992 0
-2989 2993 0
-2990 2994 0
-2993 2994 0
-2990 -2993 0
-2991 2995 0
-2994 2995 0
-2991 -2994 0
-2992 -2995 0
-2997 7 8 0
-7 2997 0
-8 2997 0
-2998 37 38 0
-37 2998 0
-38 2998 0
-2999 67 68 0
-67 2999 0
-68 2999 0
-3000 97 98 0
-97 3000 0
-98 3000 0
-2997 3001 0
-3002 0
-2998 3003 0
-3001 3003 0
-2998 -3001 3004 0
-3002 3004 0
-2998 -3002 0
-2999 3005 0
-3003 3005 0
-2999 -3003 3006 0
-3004 3006 0
-2999 -3004 0
-3000 -3006 0
-3009 7 8 9 0
-7 3009 0
-8 3009 0
-9 3009 0
-3010 37 38 39 0
-37 3010 0
-38 3010 0
-39 3010 0
-3011 67 68 69 0
-67 3011 0
-68 3011 0
-69 3011 0
-3012 97 98 99 0
-97 3012 0
-98 3012 0
-99 3012 0
-3009 3013 0
-3014 0
-3015 0
-3010 3016 0
-3013 3016 0
-3010 -3013 3017 0
-3014 3017 0
-3010 -3014 3018 0
-3015 3018 0
-3010 -3015 0
-3011 3019 0
-3016 3019 0
-3011 -3016 3020 0
-3017 3020 0
-3011 -3017 3021 0
-3018 3021 0
-3011 -3018 0
-3012 -3021 0
-3025 7 8 9 10 0
-7 3025 0
-8 3025 0
-9 3025 0
-10 3025 0
-3026 37 38 39 40 0
-37 3026 0
-38 3026 0
-39 3026 0
-40 3026 0
-3027 67 68 69 70 0
-67 3027 0
-68 3027 0
-69 3027 0
-70 3027 0
-3028 97 98 99 100 0
-97 3028 0
-98 3028 0
-99 3028 0
-100 3028 0
-3029 8 0
-8 3029 0
-3030 38 0
-38 3030 0
-3031 68 0
-68 3031 0
-3032 98 0
-98 3032 0
-3029 3033 0
-3030 3034 0
-3033 3034 0
-3030 -3033 0
-3031 3035 0
-3034 3035 0
-3031 -3034 0
-3032 -3035 0
-3037 8 9 0
-8 3037 0
-9 3037 0
-3038 38 39 0
-38 3038 0
-39 3038 0
-3039 68 69 0
-68 3039 0
-69 3039 0
-3040 98 99 0
-98 3040 0
-99 3040 0
-3037 3041 0
-3042 0
-3038 3043 0
-3041 3043 0
-3038 -3041 3044 0
-3042 3044 0
-3038 -3042 0
-3039 3045 0
-3043 3045 0
-3039 -3043 3046 0
-3044 3046 0
-3039 -3044 0
-3040 -3046 0
-3049 8 9 10 0
-8 3049 0
-9 3049 0
-10 3049 0
-3050 38 39 40 0
-38 3050 0
-39 3050 0
-40 3050 0
-3051 68 69 70 0
-68 3051 0
-69 3051 0
-70 3051 0
-3052 98 99 100 0
-98 3052 0
-99 3052 0
-100 3052 0
-3049 3053 0
-3054 0
-3055 0
-3050 3056 0
-3053 3056 0
-3050 -3053 3057 0
-3054 3057 0
-3050 -3054 3058 0
-3055 3058 0
-3050 -3055 0
-3051 3059 0
-3056 3059 0
-3051 -3056 3060 0
-3057 3060 0
-3051 -3057 3061 0
-3058 3061 0
-3051 -3058 0
-3052 -3061 0
-3065 9 0
-9 3065 0
-3066 39 0
-39 3066 0
-3067 69 0
-69 3067 0
-3068 99 0
-99 3068 0
-3065 3069 0
-3066 3070 0
-3069 3070 0
-3066 -3069 0
-3067 3071 0
-3070 3071 0
-3067 -3070 0
-3068 -3071 0
-3073 9 10 0
-9 3073 0
-10 3073 0
-3074 39 40 0
-39 3074 0
-40 3074 0
-3075 69 70 0
-69 3075 0
-70 3075 0
-3076 99 100 0
-99 3076 0
-100 3076 0
-3073 3077 0
-3078 0
-3074 3079 0
-3077 3079 0
-3074 -3077 3080 0
-3078 3080 0
-3074 -3078 0
-3075 3081 0
-3079 3081 0
-3075 -3079 3082 0
-3080 3082 0
-3075 -3080 0
-3076 -3082 0
-3085 10 0
-10 3085 0
-3086 40 0
-40 3086 0
-3087 70 0
-70 3087 0
-3088 100 0
-100 3088 0
-3085 3089 0
-3086 3090 0
-3089 3090 0
-3086 -3089 0
-3087 3091 0
-3090 3091 0
-3087 -3090 0
-3088 -3091 0
-3093 3098 0
-3094 3099 0
-3098 3099 0
-3094 -3098 0
-3095 3100 0
-3099 3100 0
-3095 -3099 0
-3096 3101 0
-3100 3101 0
-3096 -3100 0
-3097 -3101 0
3093 3103 0
-3104 0
-3105 0
-3106 0
3094 3107 0
-3103 3107 0
3094 -3103 3108 0
-3104 3108 0
3094 -3104 3109 0
-3105 3109 0
3094 -3105 3110 0
-3106 3110 0
3094 -3106 0
3095 3111 0
-3107 3111 0
3095 -3107 3112 0
-3108 3112 0
3095 -3108 3113 0
-3109 3113 0
3095 -3109 3114 0
-3110 3114 0
3095 -3110 0
3096 3115 0
-3111 3115 0
3096 -3111 3116 0
-3112 3116 0
3096 -3112 3117 0
-3113 3117 0
3096 -3113 3118 0
-3114 3118 0
3096 -3114 0
3097 -3118 0
-6 3123 0
-36 3124 0
-3123 3124 0
-36 -3123 0
-66 3125 0
-3124 3125 0
-66 -3124 0
-96 3126 0
-3125 3126 0
-96 -3125 0
-3093 -3126 0
6 36 66 96 3093 0
-7 3128 0
-37 3129 0
-3128 3129 0
-37 -3128 0
-67 3130 0
-3129 3130 0
-67 -3129 0
-97 3131 0
-3130 3131 0
-97 -3130 0
-3094 -3131 0
7 37 67 97 3094 0
-8 3133 0
-38 3134 0
-3133 3134 0
-38 -3133 0
-68 3135 0
-3134 3135 0
-68 -3134 0
-98 3136 0
-3135 3136 0
-98 -3135 0
-3095 -3136 0
8 38 68 98 3095 0
-9 3138 0
-39 3139 0
-3138 3139 0
-39 -3138 0
-69 3140 0
-3139 3140 0
-69 -3139 0
-99 3141 0
-3140 3141 0
-99 -3140 0
-3096 -3141 0
9 39 69 99 3096 0
-10 3143 0
-40 3144 0
-3143 3144 0
-40 -3143 0
-70 3145 0
-3144 3145 0
-70 -3144 0
-100 3146 0
-3145 3146 0
-100 -3145 0
-3097 -3146 0
10 40 70 100 3097 0
-3148 1 0
-1 3148 0
-3149 31 0
-31 3149 0
-3150 61 0
-61 3150 0
-3151 91 0
-91 3151 0
-3152 121 0
-121 3152 0
-3148 3153 0
-3149 3154 0
-3153 3154 0
-3149 -3153 0
-3150 3155 0
-3154 3155 0
-3150 -3154 0
-3151 3156 0
-3155 3156 0
-3151 -3155 0
-3152 -3156 0
-3158 1 2 0
-1 3158 0
-2 3158 0
-3159 31 32 0
-31 3159 0
-32 3159 0
-3160 61 62 0
-61 3160 0
-62 3160 0
-3161 91 92 0
-91 3161 0
-92 3161 0
-3162 121 122 0
-121 3162 0
-122 3162 0
-3158 3163 0
-3164 0
-3159 3165 0
-3163 3165 0
-3159 -3163 3166 0
-3164 3166 0
-3159 -3164 0
-3160 3167 0
-3165 3167 0
-3160 -3165 3168 0
-3166 3168 0
-3160 -3166 0
-3161 3169 0
-3167 3169 0
-3161 -3167 3170 0
-3168 3170 0
-3161 -3168 0
-3162 -3170 0
-3173 1 2 3 0
-1 3173 0
-2 3173 0
-3 3173 0
-3174 31 32 33 0
-31 3174 0
-32 3174 0
-33 3174 0
-3175 61 62 63 0
-61 3175 0
-62 3175 0
-63 3175 0
-3176 91 92 93 0
-91 3176 0
-92 3176 0
-93 3176 0
-3177 121 122 123 0
-121 3177 0
-122 3177 0
-123 3177 0
-3173 3178 0
-3179 0
-3180 0
-3174 3181 0
-3178 3181 0
-3174 -3178 3182 0
-3179 3182 0
-3174 -3179 3183 0
-3180 3183 0
-3174 -3180 0
-3175 3184 0
-3181 3184 0
-3175 -3181 3185 0
-3182 3185 0
-3175 -3182 3186 0
-3183 3186 0
-3175 -3183 0
-3176 3187 0
-3184 3187 0
-3176 -3184 3188 0
-3185 3188 0
-3176 -3185 3189 0
-3186 3189 0
-3176 -3186 0
-3177 -3189 0
-3193 1 2 3 4 0
-1 3193 0
-2 3193 0
-3 3193 0
-4 3193 0
-3194 31 32 33 34 0
-31 3194 0
-32 3194 0
-33 3194 0
-34 3194 0
-3195 61 62 63 64 0
-61 3195 0
-62 3195 0
-63 3195 0
-64 3195 0
-3196 91 92 93 94 0
-91 3196 0
-92 3196 0
-93 3196 0
-94 3196 0
-3197 121 122 123 124 0
-121 3197 0
-122 3197 0
-123 3197 0
-124 3197 0
-3193 3198 0
-3199 0
-3200 0
-3201 0
-3194 3202 0
-3198 3202 0
-3194 -3198 3203 0
-3199 3203 0
-3194 -3199 3204 0
-3200 3204 0
-3194 -3200 3205 0
-3201 3205 0
-3194 -3201 0
-3195 3206 0
-3202 3206 0
-3195 -3202 3207 0
-3203 3207 0
-3195 -3203 3208 0
-3204 3208 0
-3195 -3204 3209 0
-3205 3209 0
-3195 -3205 0
-3196 3210 0
-3206 3210 0
-3196 -3206 3211 0
-3207 3211 0
-3196 -3207 3212 0
-3208 3212 0
-3196 -3208 3213 0
-3209 3213 0
-3196 -3209 0
-3197 -3213 0
-3218 1 2 3 4 5 0
-1 3218 0
-2 3218 0
-3 3218 0
-4 3218 0
-5 3218 0
-3219 31 32 33 34 35 0
-31 3219 0
-32 3219 0
-33 3219 0
-34 3219 0
-35 3219 0
-3220 61 62 63 64 65 0
-61 3220 0
-62 3220 0
-63 3220 0
-64 3220 0
-65 3220 0
-3221 91 92 93 94 95 0
-91 3221 0
-92 3221 0
-93 3221 0
-94 3221 0
-95 3221 0
-3222 121 122 123 124 125 0
-121 3222 0
-122 3222 0
-123 3222 0
-124 3222 0
-125 3222 0
-3223 2 0
-2 3223 0
-3224 32 0
-32 3224 0
-3225 62 0
-62 3225 0
-3226 92 0
-92 3226 0
-3227 122 0
-122 3227 0
-3223 3228 0
-3224 3229 0
-3228 3229 0
-3224 -3228 0
-3225 3230 0
-3229 3230 0
-3225 -3229 0
-3226 3231 0
-3230 3231 0
-3226 -3230 0
-3227 -3231 0
-3233 2 3 0
-2 3233 0
-3 3233 0
-3234 32 33 0
-32 3234 0
-33 3234 0
-3235 62 63 0
-62 3235 0
-63 3235 0
-3236 92 93 0
-92 3236 0
-93 3236 0
-3237 122 123 0
-122 3237 0
-123 3237 0
-3233 3238 0
-3239 0
-3234 3240 0
-3238 3240 0
-3234 -3238 3241 0
-3239 3241 0
-3234 -3239 0
-3235 3242 0
-3240 3242 0
-3235 -3240 3243 0
-3241 3243 0
-3235 -3241 0
-3236 3244 0
-3242 3244 0
-3236 -3242 3245 0
-3243 3245 0
-3236 -3243 0
-3237 -3245 0
-3248 2 3 4 0
-2 3248 0
-3 3248 0
-4 3248 0
-3249 32 33 34 0
-32 3249 0
-33 3249 0
-34 3249 0
-3250 62 63 64 0
-62 3250 0
-63 3250 0
-64 3250 0
-3251 92 93 94 0
-92 3251 0
-93 3251 0
-94 3251 0
-3252 122 123 124 0
-122 3252 0
-123 3252 0
-124 3252 0
-3248 3253 0
-3254 0
-3255 0
-3249 3256 0
-3253 3256 0
-3249 -3253 3257 0
-3254 3257 0
-3249 -3254 3258 0
-3255 3258 0
-3249 -3255 0
-3250 3259 0
-3256 3259 0
-3250 -3256 3260 0
-3257 3260 0
-3250 -3257 3261 0
-3258 3261 0
-3250 -3258 0
-3251 3262 0
-3259 3262 0
-3251 -3259 3263 0
-3260 3263 0
-3251 -3260 3264 0
-3261 3264 0
-3251 -3261 0
-3252 -3264 0
-3268 2 3 4 5 0
-2 3268 0
-3 3268 0
-4 3268 0
-5 3268 0
-3269 32 33 34 35 0
-32 3269 0
-33 3269 0
-34 3269 0
-35 3269 0
-3270 62 63 64 65 0
-62 3270 0
-63 3270 0
-64 3270 0
-65 3270 0
-3271 92 93 94 95 0
-92 3271 0
-93 3271 0
-94 3271 0
-95 3271 0
-3272 122 123 124 125 0
-122 3272 0
-123 3272 0
-124 3272 0
-125 3272 0
-3268 3273 0
-3274 0
-3275 0
-3276 0
-3269 3277 0
-3273 3277 0
-3269 -3273 3278 0
-3274 3278 0
-3269 -3274 3279 0
-3275 3279 0
-3269 -3275 3280 0
-3276 3280 0
-3269 -3276 0
-3270 3281 0
-3277 3281 0
-3270 -3277 3282 0
-3278 3282 0
-3270 -3278 3283 0
-3279 3283 0
-3270 -3279 3284 0
-3280 3284 0
-3270 -3280 0
-3271 3285 0
-3281 3285 0
-3271 -3281 3286 0
-3282 3286 0
-3271 -3282 3287 0
-3283 3287 0
-3271 -3283 3288 0
-3284 3288 0
-3271 -3284 0
-3272 -3288 0
-3293 3 0
-3 3293 0
-3294 33 0
-33 3294 0
-3295 63 0
-63 3295 0
-3296 93 0
-93 3296 0
-3297 123 0
-123 3297 0
-3293 3298 0
-3294 3299 0
-3298 3299 0
-3294 -3298 0
-3295 3300 0
-3299 3300 0
-3295 -3299 0
-3296 3301 0
-3300 3301 0
-3296 -3300 0
-3297 -3301 0
-3303 3 4 0
-3 3303 0
-4 3303 0
-3304 33 34 0
-33 3304 0
-34 3304 0
-3305 63 64 0
-63 3305 0
-64 3305 0
-3306 93 94 0
-93 3306 0
-94 3306 0
-3307 123 124 0
-123 3307 0
-124 3307 0
-3303 3308 0
-3309 0
-3304 3310 0
-3308 3310 0
-3304 -3308 3311 0
-3309 3311 0
-3304 -3309 0
-3305 3312 0
-3310 3312 0
-3305 -3310 3313 0
-3311 3313 0
-3305 -3311 0
-3306 3314 0
-3312 3314 0
-3306 -3312 3315 0
-3313 3315 0
-3306 -3313 0
-3307 -3315 0
-3318 3 4 5 0
-3 3318 0
-4 3318 0
-5 3318 0
-3319 33 34 35 0
-33 3319 0
-34 3319 0
-35 3319 0
-3320 63 64 65 0
-63 3320 0
-64 3320 0
-65 3320 0
-3321 93 94 95 0
-93 3321 0
-94 3321 0
-95 3321 0
-3322 123 124 125 0
-123 3322 0
-124 3322 0
-125 3322 0
-3318 3323 0
-3324 0
-3325 0
-3319 3326 0
-3323 3326 0
-3319 -3323 3327 0
-3324 3327 0
-3319 -3324 3328 0
-3325 3328 0
-3319 -3325 0
-3320 3329 0
-3326 3329 0
-3320 -3326 3330 0
-3327 3330 0
-3320 -3327 3331 0
-3328 3331 0
-3320 -3328 0
-3321 3332 0
-3329 3332 0
-3321 -3329 3333 0
-3330 3333 0
-3321 -3330 3334 0
-3331 3334 0
-3321 -3331 0
-3322 -3334 0
-3338 4 0
-4 3338 0
-3339 34 0
-34 3339 0
-3340 64 0
-64 3340 0
-3341 94 0
-94 3341 0
-3342 124 0
-124 3342 0
-3338 3343 0
-3339 3344 0
-3343 3344 0
-3339 -3343 0
-3340 3345 0
-3344 3345 0
-3340 -3344 0
-3341 3346 0
-3345 3346 0
-3341 -3345 0
-3342 -3346 0
-3348 4 5 0
-4 3348 0
-5 3348 0
-3349 34 35 0
-34 3349 0
-35 3349 0
-3350 64 65 0
-64 3350 0
-65 3350 0
-3351 94 95 0
-94 3351 0
-95 3351 0
-3352 124 125 0
-124 3352 0
-125 3352 0
-3348 3353 0
-3354 0
-3349 3355 0
-3353 3355 0
-3349 -3353 3356 0
-3354 3356 0
-3349 -3354 0
-3350 3357 0
-3355 3357 0
-3350 -3355 3358 0
-3356 3358 0
-3350 -3356 0
-3351 3359 0
-3357 3359 0
-3351 -3357 3360 0
-3358 3360 0
-3351 -3358 0
-3352 -3360 0
-3363 5 0
-5 3363 0
-3364 35 0
-35 3364 0
-3365 65 0
-65 3365 0
-3366 95 0
-95 3366 0
-3367 125 0
-125 3367 0
-3363 3368 0
-3364 3369 0
-3368 3369 0
-3364 -3368 0
-3365 3370 0
-3369 3370 0
-3365 -3369 0
-3366 3371 0
-3370 3371 0
-3366 -3370 0
-3367 -3371 0
-1 3373 0
-31 3374 0
-3373 3374 0
-31 -3373 0
-61 3375 0
-3374 3375 0
-61 -3374 0
-91 3376 0
-3375 3376 0
-91 -3375 0
-121 -3376 0
1 31 61 91 121 0
-2 3378 0
-32 3379 0
-3378 3379 0
-32 -3378 0
-62 3380 0
-3379 3380 0
-62 -3379 0
-92 3381 0
-3380 3381 0
-92 -3380 0
-122 -3381 0
2 32 62 92 122 0
-3 3383 0
-33 3384 0
-3383 3384 0
-33 -3383 0
-63 3385 0
-3384 3385 0
-63 -3384 0
-93 3386 0
-3385 3386 0
-93 -3385 0
-123 -3386 0
3 33 63 93 123 0
-4 3388 0
-34 3389 0
-3388 3389 0
-34 -3388 0
-64 3390 0
-3389 3390 0
-64 -3389 0
-94 3391 0
-3390 3391 0
-94 -3390 0
-124 -3391 0
4 34 64 94 124 0
-5 3393 0
-35 3394 0
-3393 3394 0
-35 -3393 0
-65 3395 0
-3394 3395 0
-65 -3394 0
-95 3396 0
-3395 3396 0
-95 -3395 0
-125 -3396 0
5 35 65 95 125 0
-3398 26 0
-26 3398 0
-3399 56 0
-56 3399 0
-3400 86 0
-86 3400 0
-3401 116 0
-116 3401 0
-3398 3402 0
-3399 3403 0
-3402 3403 0
-3399 -3402 0
-3400 3404 0
-3403 3404 0
-3400 -3403 0
-3401 -3404 0
-3406 26 27 0
-26 3406 0
-27 3406 0
-3407 56 57 0
-56 3407 0
-57 3407 0
-3408 86 87 0
-86 3408 0
-87 3408 0
-3409 116 117 0
-116 3409 0
-117 3409 0
-3406 3410 0
-3411 0
-3407 3412 0
-3410 3412 0
-3407 -3410 3413 0
-3411 3413 0
-3407 -3411 0
-3408 3414 0
-3412 3414 0
-3408 -3412 3415 0
-3413 3415 0
-3408 -3413 0
-3409 -3415 0
-3418 26 27 28 0
-26 3418 0
-27 3418 0
-28 3418 0
-3419 56 57 58 0
-56 3419 0
-57 3419 0
-58 3419 0
-3420 86 87 88 0
-86 3420 0
-87 3420 0
-88 3420 0
-3421 116 117 118 0
-116 3421 0
-117 3421 0
-118 3421 0
-3418 3422 0
-3423 0
-3424 0
-3419 3425 0
-3422 3425 0
-3419 -3422 3426 0
-3423 3426 0
-3419 -3423 3427 0
-3424 3427 0
-3419 -3424 0
-3420 3428 0
-3425 3428 0
-3420 -3425 3429 0
-3426 3429 0
-3420 -3426 3430 0
-3427 3430 0
-3420 -3427 0
-3421 -3430 0
-3434 26 27 28 29 0
-26 3434 0
-27 3434 0
-28 3434 0
-29 3434 0
-3435 56 57 58 59 0
-56 3435 0
-57 3435 0
-58 3435 0
-59 3435 0
-3436 86 87 88 89 0
-86 3436 0
-87 3436 0
-88 3436 0
-89 3436 0
-3437 116 117 118 119 0
-116 3437 0
-117 3437 0
-118 3437 0
-119 3437 0
-3438 27 0
-27 3438 0
-3439 57 0
-57 3439 0
-3440 87 0
-87 3440 0
-3441 117 0
-117 3441 0
-3438 3442 0
-3439 3443 0
-3442 3443 0
-3439 -3442 0
-3440 3444 0
-3443 3444 0
-3440 -3443 0
-3441 -3444 0
-3446 27 28 0
-27 3446 0
-28 3446 0
-3447 57 58 0
-57 3447 0
-58 3447 0
-3448 87 88 0
-87 3448 0
-88 3448 0
-3449 117 118 0
-117 3449 0
-118 3449 0
-3446 3450 0
-3451 0
-3447 3452 0
-3450 3452 0
-3447 -3450 3453 0
-3451 3453 0
-3447 -3451 0
-3448 3454 0
-3452 3454 0
-3448 -3452 3455 0
-3453 3455 0
-3448 -3453 0
-3449 -3455 0
-3458 27 28 29 0
-27 3458 0
-28 3458 0
-29 3458 0
-3459 57 58 59 0
-57 3459 0
-58 3459 0
-59 3459 0
-3460 87 88 89 0
-87 3460 0
-88 3460 0
-89 3460 0
-3461 117 118 119 0
-117 3461 0
-118 3461 0
-119 3461 0
-3458 3462 0
-3463 0
-3464 0
-3459 3465 0
-3462 3465 0
-3459 -3462 3466 0
-3463 3466 0
-3459 -3463 3467 0
-3464 3467 0
-3459 -3464 0
-3460 3468 0
-3465 3468 0
-3460 -3465 3469 0
-3466 3469 0
-3460 -3466 3470 0
-3467 3470 0
-3460 -3467 0
-3461 -3470 0
-3474 27 28 29 30 0
-27 3474 0
-28 3474 0
-29 3474 0
-30 3474 0
-3475 57 58 59 60 0
-57 3475 0
-58 3475 0
-59 3475 0
-60 3475 0
-3476 87 88 89 90 0
-87 3476 0
-88 3476 0
-89 3476 0
-90 3476 0
-3477 117 118 119 120 0
-117 3477 0
-118 3477 0
-119 3477 0
-120 3477 0
-3478 28 0
-28 3478 0
-3479 58 0
-58 3479 0
-3480 88 0
-88 3480 0
-3481 118 0
-118 3481 0
-3478 3482 0
-3479 3483 0
-3482 3483 0
-3479 -3482 0
-3480 3484 0
-3483 3484 0
-3480 -3483 0
-3481 -3484 0
-3486 28 29 0
-28 3486 0
-29 3486 0
-3487 58 59 0
-58 3487 0
-59 3487 0
-3488 88 89 0
-88 3488 0
-89 3488 0
-3489 118 119 0
-118 3489 0
-119 3489 0
-3486 3490 0
-3491 0
-3487 3492 0
-3490 3492 0
-3487 -3490 3493 0
-3491 3493 0
-3487 -3491 0
-3488 3494 0
-3492 3494 0
-3488 -3492 3495 0
-3493 3495 0
-3488 -3493 0
-3489 -3495 0
-3498 28 29 30 0
-28 3498 0
-29 3498 0
-30 3498 0
-3499 58 59 60 0
-58 3499 0
-59 3499 0
-60 3499 0
-3500 88 89 90 0
-88 3500 0
-89 3500 0
-90 3500 0
-3501 118 119 120 0
-118 3501 0
-119 3501 0
-120 3501 0
-3498 3502 0
-3503 0
-3504 0
-3499 3505 0
-3502 3505 0
-3499 -3502 3506 0
-3503 3506 0
-3499 -3503 3507 0
-3504 3507 0
-3499 -3504 0
-3500 3508 0
-3505 3508 0
-3500 -3505 3509 0
-3506 3509 0
-3500 -3506 3510 0
-3507 3510 0
-3500 -3507 0
-3501 -3510 0
-3514 29 0
-29 3514 0
-3515 59 0
-59 3515 0
-3516 89 0
-89 3516 0
-3517 119 0
-119 3517 0
-3514 3518 0
-3515 3519 0
-3518 3519 0
-3515 -3518 0
-3516 3520 0
-3519 3520 0
-3516 -3519 0
-3517 -3520 0
-3522 29 30 0
-29 3522 0
-30 3522 0
-3523 59 60 0
-59 3523 0
-60 3523 0
-3524 89 90 0
-89 3524 0
-90 3524 0
-3525 119 120 0
-119 3525 0
-120 3525 0
-3522 3526 0
-3527 0
-3523 3528 0
-3526 3528 0
-3523 -3526 3529 0
-3527 3529 0
-3523 -3527 0
-3524 3530 0
-3528 3530 0
-3524 -3528 3531 0
-3529 3531 0
-3524 -3529 0
-3525 -3531 0
-3534 30 0
-30 3534 0
-3535 60 0
-60 3535 0
-3536 90 0
-90 3536 0
-3537 120 0
-120 3537 0
-3534 3538 0
-3535 3539 0
-3538 3539 0
-3535 -3538 0
-3536 3540 0
-3539 3540 0
-3536 -3539 0
-3537 -3540 0
-3542 3547 0
-3543 3548 0
-3547 3548 0
-3543 -3547 0
-3544 3549 0
-3548 3549 0
-3544 -3548 0
-3545 3550 0
-3549 3550 0
-3545 -3549 0
-3546 -3550 0
3542 3552 0
-3553 0
-3554 0
-3555 0
3543 3556 0
-3552 3556 0
3543 -3552 3557 0
-3553 3557 0
3543 -3553 3558 0
-3554 3558 0
3543 -3554 3559 0
-3555 3559 0
3543 -3555 0
3544 3560 0
-3556 3560 0
3544 -3556 3561 0
-3557 3561 0
3544 -3557 3562 0
-3558 3562 0
3544 -3558 3563 0
-3559 3563 0
3544 -3559 0
3545 3564 0
-3560 3564 0
3545 -3560 3565 0
-3561 3565 0
3545 -3561 3566 0
-3562 3566 0
3545 -3562 3567 0
-3563 3567 0
3545 -3563 0
3546 -3567 0
-26 3572 0
-56 3573 0
-3572 3573 0
-56 -3572 0
-86 3574 0
-3573 3574 0
-86 -3573 0
-116 3575 0
-3574 3575 0
-116 -3574 0
-3542 -3575 0
26 56 86 116 3542 0
-27 3577 0
-57 3578 0
-3577 3578 0
-57 -3577 0
-87 3579 0
-3578 3579 0
-87 -3578 0
-117 3580 0
-3579 3580 0
-117 -3579 0
-3543 -3580 0
27 57 87 117 3543 0
-28 3582 0
-58 3583 0
-3582 3583 0
-58 -3582 0
-88 3584 0
-3583 3584 0
-88 -3583 0
-118 3585 0
-3584 3585 0
-118 -3584 0
-3544 -3585 0
28 58 88 118 3544 0
-29 3587 0
-59 3588 0
-3587 3588 0
-59 -3587 0
-89 3589 0
-3588 3589 0
-89 -3588 0
-119 3590 0
-3589 3590 0
-119 -3589 0
-3545 -3590 0
29 59 89 119 3545 0
-30 3592 0
-60 3593 0
-3592 3593 0
-60 -3592 0
-90 3594 0
-3593 3594 0
-90 -3593 0
-120 3595 0
-3594 3595 0
-120 -3594 0
-3546 -3595 0
30 60 90 120 3546 0
-3597 51 0
-51 3597 0
-3598 81 0
-81 3598 0
-3599 111 0
-111 3599 0
-3597 3600 0
-3598 3601 0
-3600 3601 0
-3598 -3600 0
-3599 -3601 0
-3603 51 52 0
-51 3603 0
-52 3603 0
-3604 81 82 0
-81 3604 0
-82 3604 0
-3605 111 112 0
-111 3605 0
-112 3605 0
-3603 3606 0
-3607 0
-3604 3608 0
-3606 3608 0
-3604 -3606 3609 0
-3607 3609 0
-3604 -3607 0
-3605 -3609 0
-3612 51 52 53 0
-51 3612 0
-52 3612 0
-53 3612 0
-3613 81 82 83 0
-81 3613 0
-82 3613 0
-83 3613 0
-3614 111 112 113 0
-111 3614 0
-112 3614 0
-113 3614 0
-3615 52 0
-52 3615 0
-3616 82 0
-82 3616 0
-3617 112 0
-112 3617 0
-3615 3618 0
-3616 3619 0
-3618 3619 0
-3616 -3618 0
-3617 -3619 0
-3621 52 53 0
-52 3621 0
-53 3621 0
-3622 82 83 0
-82 3622 0
-83 3622 0
-3623 112 113 0
-112 3623 0
-113 3623 0
-3621 3624 0
-3625 0
-3622 3626 0
-3624 3626 0
-3622 -3624 3627 0
-3625 3627 0
-3622 -3625 0
-3623 -3627 0
-3630 52 53 54 0
-52 3630 0
-53 3630 0
-54 3630 0
-3631 82 83 84 0
-82 3631 0
-83 3631 0
-84 3631 0
-3632 112 113 114 0
-112 3632 0
-113 3632 0
-114 3632 0
-3633 53 0
-53 3633 0
-3634 83 0
-83 3634 0
-3635 113 0
-113 3635 0
-3633 3636 0
-3634 3637 0
-3636 3637 0
-3634 -3636 0
-3635 -3637 0
-3639 53 54 0
-53 3639 0
-54 3639 0
-3640 83 84 0
-83 3640 0
-84 3640 0
-3641 113 114 0
-113 3641 0
-114 3641 0
-3639 3642 0
-3643 0
-3640 3644 0
-3642 3644 0
-3640 -3642 3645 0
-3643 3645 0
-3640 -3643 0
-3641 -3645 0
-3648 53 54 55 0
-53 3648 0
-54 3648 0
-55 3648 0
-3649 83 84 85 0
-83 3649 0
-84 3649 0
-85 3649 0
-3650 113 114 115 0
-113 3650 0
-114 3650 0
-115 3650 0
-3651 54 0
-54 3651 0
-3652 84 0
-84 3652 0
-3653 114 0
-114 3653 0
-3651 3654 0
-3652 3655 0
-3654 3655 0
-3652 -3654 0
-3653 -3655 0
-3657 54 55 0
-54 3657 0
-55 3657 0
-3658 84 85 0
-84 3658 0
-85 3658 0
-3659 114 115 0
-114 3659 0
-115 3659 0
-3657 3660 0
-3661 0
-3658 3662 0
-3660 3662 0
-3658 -3660 3663 0
-3661 3663 0
-3658 -3661 0
-3659 -3663 0
-3666 55 0
-55 3666 0
-3667 85 0
-85 3667 0
-3668 115 0
-115 3668 0
-3666 3669 0
-3667 3670 0
-3669 3670 0
-3667 -3669 0
-3668 -3670 0
-3672 3677 0
-3678 0
-3673 3679 0
-3677 3679 0
-3673 -3677 3680 0
-3678 3680 0
-3673 -3678 0
-3674 3681 0
-3679 3681 0
-3674 -3679 3682 0
-3680 3682 0
-3674 -3680 0
-3675 3683 0
-3681 3683 0
-3675 -3681 3684 0
-3682 3684 0
-3675 -3682 0
-3676 -3684 0
3672 3687 0
-3688 0
-3689 0
3673 3690 0
-3687 3690 0
3673 -3687 3691 0
-3688 3691 0
3673 -3688 3692 0
-3689 3692 0
3673 -3689 0
3674 3693 0
-3690 3693 0
3674 -3690 3694 0
-3691 3694 0
3674 -3691 3695 0
-3692 3695 0
3674 -3692 0
3675 3696 0
-3693 3696 0
3675 -3693 3697 0
-3694 3697 0
3675 -3694 3698 0
-3695 3698 0
3675 -3695 0
3676 -3698 0
-51 3702 0
-81 3703 0
-3702 3703 0
-81 -3702 0
-111 3704 0
-3703 3704 0
-111 -3703 0
-3672 -3704 0
51 81 111 3672 0
-52 3706 0
-82 3707 0
-3706 3707 0
-82 -3706 0
-112 3708 0
-3707 3708 0
-112 -3707 0
-3673 -3708 0
52 82 112 3673 0
-53 3710 0
-83 3711 0
-3710 3711 0
-83 -3710 0
-113 3712 0
-3711 3712 0
-113 -3711 0
-3674 -3712 0
53 83 113 3674 0
-54 3714 0
-84 3715 0
-3714 3715 0
-84 -3714 0
-114 3716 0
-3715 3716 0
-114 -3715 0
-3675 -3716 0
54 84 114 3675 0
-55 3718 0
-85 3719 0
-3718 3719 0
-85 -3718 0
-115 3720 0
-3719 3720 0
-115 -3719 0
-3676 -3720 0
55 85 115 3676 0
-3722 76 0
-76 3722 0
-3723 106 0
-106 3723 0
-3722 3724 0
-3723 -3724 0
-3726 76 77 0
-76 3726 0
-77 3726 0
-3727 106 107 0
-106 3727 0
-107 3727 0
-3728 77 0
-77 3728 0
-3729 107 0
-107 3729 0
-3728 3730 0
-3729 -3730 0
-3732 77 78 0
-77 3732 0
-78 3732 0
-3733 107 108 0
-107 3733 0
-108 3733 0
-3734 78 0
-78 3734 0
-3735 108 0
-108 3735 0
-3734 3736 0
-3735 -3736 0
-3738 78 79 0
-78 3738 0
-79 3738 0
-3739 108 109 0
-108 3739 0
-109 3739 0
-3740 79 0
-79 3740 0
-3741 109 0
-109 3741 0
-3740 3742 0
-3741 -3742 0
-3744 79 80 0
-79 3744 0
-80 3744 0
-3745 109 110 0
-109 3745 0
-110 3745 0
-3746 80 0
-80 3746 0
-3747 110 0
-110 3747 0
-3746 3748 0
-3747 -3748 0
-3750 3755 0
-3756 0
-3757 0
-3751 3758 0
-3755 3758 0
-3751 -3755 3759 0
-3756 3759 0
-3751 -3756 3760 0
-3757 3760 0
-3751 -3757 0
-3752 3761 0
-3758 3761 0
-3752 -3758 3762 0
-3759 3762 0
-3752 -3759 3763 0
-3760 3763 0
-3752 -3760 0
-3753 3764 0
-3761 3764 0
-3753 -3761 3765 0
-3762 3765 0
-3753 -3762 3766 0
-3763 3766 0
-3753 -3763 0
-3754 -3766 0
3750 3770 0
-3771 0
3751 3772 0
-3770 3772 0
3751 -3770 3773 0
-3771 3773 0
3751 -3771 0
3752 3774 0
-3772 3774 0
3752 -3772 3775 0
-3773 3775 0
3752 -3773 0
3753 3776 0
-3774 3776 0
3753 -3774 3777 0
-3775 3777 0
3753 -3775 0
3754 -3777 0
-76 3780 0
-106 3781 0
-3780 3781 0
-106 -3780 0
-3750 -3781 0
76 106 3750 0
-77 3783 0
-107 3784 0
-3783 3784 0
-107 -3783 0
-3751 -3784 0
77 107 3751 0
-78 3786 0
-108 3787 0
-3786 3787 0
-108 -3786 0
-3752 -3787 0
78 108 3752 0
-79 3789 0
-109 3790 0
-3789 3790 0
-109 -3789 0
-3753 -3790 0
79 109 3753 0
-80 3792 0
-110 3793 0
-3792 3793 0
-110 -3792 0
-3754 -3793 0
80 110 3754 0
-3795 6 0
-6 3795 0
-3796 26 0
-26 3796 0
-3795 3797 0
-3796 -3797 0
-3799 6 7 0
-6 3799 0
-7 3799 0
-3800 26 27 0
-26 3800 0
-27 3800 0
-3801 7 0
-7 3801 0
-3802 27 0
-27 3802 0
-3801 3803 0
-3802 -3803 0
-3805 7 8 0
-7 3805 0
-8 3805 0
-3806 27 28 0
-27 3806 0
-28 3806 0
-3807 8 0
-8 3807 0
-3808 28 0
-28 3808 0
-3807 3809 0
-3808 -3809 0
-3811 8 9 0
-8 3811 0
-9 3811 0
-3812 28 29 0
-28 3812 0
-29 3812 0
-3813 9 0
-9 3813 0
-3814 29 0
-29 3814 0
-3813 3815 0
-3814 -3815 0
-3817 9 10 0
-9 3817 0
-10 3817 0
-3818 29 30 0
-29 3818 0
-30 3818 0
-3819 10 0
-10 3819 0
-3820 30 0
-30 3820 0
-3819 3821 0
-3820 -3821 0
-3823 3828 0
-3829 0
-3830 0
-3824 3831 0
-3828 3831 0
-3824 -3828 3832 0
-3829 3832 0
-3824 -3829 3833 0
-3830 3833 0
-3824 -3830 0
-3825 3834 0
-3831 3834 0
-3825 -3831 3835 0
-3832 3835 0
-3825 -3832 3836 0
-3833 3836 0
-3825 -3833 0
-3826 3837 0
-3834 3837 0
-3826 -3834 3838 0
-3835 3838 0
-3826 -3835 3839 0
-3836 3839 0
-3826 -3836 0
-3827 -3839 0
3823 3843 0
-3844 0
3824 3845 0
-3843 3845 0
3824 -3843 3846 0
-3844 3846 0
3824 -3844 0
3825 3847 0
-3845 3847 0
3825 -3845 3848 0
-3846 3848 0
3825 -3846 0
3826 3849 0
-3847 3849 0
3826 -3847 3850 0
-3848 3850 0
3826 -3848 0
3827 -3850 0
-6 3853 0
-26 3854 0
-3853 3854 0
-26 -3853 0
-3823 -3854 0
6 26 3823 0
-7 3856 0
-27 3857 0
-3856 3857 0
-27 -3856 0
-3824 -3857 0
7 27 3824 0
-8 3859 0
-28 3860 0
-3859 3860 0
-28 -3859 0
-3825 -3860 0
8 28 3825 0
-9 3862 0
-29 3863 0
-3862 3863 0
-29 -3862 0
-3826 -3863 0
9 29 3826 0
-10 3865 0
-30 3866 0
-3865 3866 0
-30 -3865 0
-3827 -3866 0
10 30 3827 0
-3868 11 0
-11 3868 0
-3869 31 0
-31 3869 0
-3870 51 0
-51 3870 0
-3868 3871 0
-3869 3872 0
-3871 3872 0
-3869 -3871 0
-3870 -3872 0
-3874 11 12 0
-11 3874 0
-12 3874 0
-3875 31 32 0
-31 3875 0
-32 3875 0
-3876 51 52 0
-51 3876 0
-52 3876 0
-3874 3877 0
-3878 0
-3875 3879 0
-3877 3879 0
-3875 -3877 3880 0
-3878 3880 0
-3875 -3878 0
-3876 -3880 0
-3883 11 12 13 0
-11 3883 0
-12 3883 0
-13 3883 0
-3884 31 32 33 0
-31 3884 0
-32 3884 0
-33 3884 0
-3885 51 52 53 0
-51 3885 0
-52 3885 0
-53 3885 0
-3886 12 0
-12 3886 0
-3887 32 0
-32 3887 0
-3888 52 0
-52 3888 0
-3886 3889 0
-3887 3890 0
-3889 3890 0
-3887 -3889 0
-3888 -3890 0
-3892 12 13 0
-12 3892 0
-13 3892 0
-3893 32 33 0
-32 3893 0
-33 3893 0
-3894 52 53 0
-52 3894 0
-53 3894 0
-3892 3895 0
-3896 0
-3893 3897 0
-3895 3897 0
-3893 -3895 3898 0
-3896 3898 0
-3893 -3896 0
-3894 -3898 0
-3901 12 13 14 0
-12 3901 0
-13 3901 0
-14 3901 0
-3902 32 33 34 0
-32 3902 0
-33 3902 0
-34 3902 0
-3903 52 53 54 0
-52 3903 0
-53 3903 0
-54 3903 0
-3904 13 0
-13 3904 0
-3905 33 0
-33 3905 0
-3906 53 0
-53 3906 0
-3904 3907 0
-3905 3908 0
-3907 3908 0
-3905 -3907 0
-3906 -3908 0
-3910 13 14 0
-13 3910 0
-14 3910 0
-3911 33 34 0
-33 3911 0
-34 3911 0
-3912 53 54 0
-53 3912 0
-54 3912 0
-3910 3913 0
-3914 0
-3911 3915 0
-3913 3915 0
-3911 -3913 3916 0
-3914 3916 0
-3911 -3914 0
-3912 -3916 0
-3919 13 14 15 0
-13 3919 0
-14 3919 0
-15 3919 0
-3920 33 34 35 0
-33 3920 0
-34 3920 0
-35 3920 0
-3921 53 54 55 0
-53 3921 0
-54 3921 0
-55 3921 0
-3922 14 0
-14 3922 0
-3923 34 0
-34 3923 0
-3924 54 0
-54 3924 0
-3922 3925 0
-3923 3926 0
-3925 3926 0
-3923 -3925 0
-3924 -3926 0
-3928 14 15 0
-14 3928 0
-15 3928 0
-3929 34 35 0
-34 3929 0
-35 3929 0
-3930 54 55 0
-54 3930 0
-55 3930 0
-3928 3931 0
-3932 0
-3929 3933 0
-3931 3933 0
-3929 -3931 3934 0
-3932 3934 0
-3929 -3932 0
-3930 -3934 0
-3937 15 0
-15 3937 0
-3938 35 0
-35 3938 0
-3939 55 0
-55 3939 0
-3937 3940 0
-3938 3941 0
-3940 3941 0
-3938 -3940 0
-3939 -3941 0
-3943 3948 0
-3949 0
-3944 3950 0
-3948 3950 0
-3944 -3948 3951 0
-3949 3951 0
-3944 -3949 0
-3945 3952 0
-3950 3952 0
-3945 -3950 3953 0
-3951 3953 0
-3945 -3951 0
-3946 3954 0
-3952 3954 0
-3946 -3952 3955 0
-3953 3955 0
-3946 -3953 0
-3947 -3955 0
3943 3958 0
-3959 0
-3960 0
3944 3961 0
-3958 3961 0
3944 -3958 3962 0
-3959 3962 0
3944 -3959 3963 0
-3960 3963 0
3944 -3960 0
3945 3964 0
-3961 3964 0
3945 -3961 3965 0
-3962 3965 0
3945 -3962 3966 0
-3963 3966 0
3945 -3963 0
3946 3967 0
-3964 3967 0
3946 -3964 3968 0
-3965 3968 0
3946 -3965 3969 0
-3966 3969 0
3946 -3966 0
3947 -3969 0
-11 3973 0
-31 3974 0
-3973 3974 0
-31 -3973 0
-51 3975 0
-3974 3975 0
-51 -3974 0
-3943 -3975 0
11 31 51 3943 0
-12 3977 0
-32 3978 0
-3977 3978 0
-32 -3977 0
-52 3979 0
-3978 3979 0
-52 -3978 0
-3944 -3979 0
12 32 52 3944 0
-13 3981 0
-33 3982 0
-3981 3982 0
-33 -3981 0
-53 3983 0
-3982 3983 0
-53 -3982 0
-3945 -3983 0
13 33 53 3945 0
-14 3985 0
-34 3986 0
-3985 3986 0
-34 -3985 0
-54 3987 0
-3986 3987 0
-54 -3986 0
-3946 -3987 0
14 34 54 3946 0
-15 3989 0
-35 3990 0
-3989 3990 0
-35 -3989 0
-55 3991 0
-3990 3991 0
-55 -3990 0
-3947 -3991 0
15 35 55 3947 0
-3993 16 0
-16 3993 0
-3994 36 0
-36 3994 0
-3995 56 0
-56 3995 0
-3996 76 0
-76 3996 0
-3993 3997 0
-3994 3998 0
-3997 3998 0
-3994 -3997 0
-3995 3999 0
-3998 3999 0
-3995 -3998 0
-3996 -3999 0
-4001 16 17 0
-16 4001 0
-17 4001 0
-4002 36 37 0
-36 4002 0
-37 4002 0
-4003 56 57 0
-56 4003 0
-57 4003 0
-4004 76 77 0
-76 4004 0
-77 4004 0
-4001 4005 0
-4006 0
-4002 4007 0
-4005 4007 0
-4002 -4005 4008 0
-4006 4008 0
-4002 -4006 0
-4003 4009 0
-4007 4009 0
-4003 -4007 4010 0
-4008 4010 0
-4003 -4008 0
-4004 -4010 0
-4013 16 17 18 0
-16 4013 0
-17 4013 0
-18 4013 0
-4014 36 37 38 0
-36 4014 0
-37 4014 0
-38 4014 0
-4015 56 57 58 0
-56 4015 0
-57 4015 0
-58 4015 0
-4016 76 77 78 0
-76 4016 0
-77 4016 0
-78 4016 0
-4013 4017 0
-4018 0
-4019 0
-4014 4020 0
-4017 4020 0
-4014 -4017 4021 0
-4018 4021 0
-4014 -4018 4022 0
-4019 4022 0
-4014 -4019 0
-4015 4023 0
-4020 4023 0
-4015 -4020 4024 0
-4021 4024 0
-4015 -4021 4025 0
-4022 4025 0
-4015 -4022 0
-4016 -4025 0
-4029 16 17 18 19 0
-16 4029 0
-17 4029 0
-18 4029 0
-19 4029 0
-4030 36 37 38 39 0
-36 4030 0
-37 4030 0
-38 4030 0
-39 4030 0
-4031 56 57 58 59 0
-56 4031 0
-57 4031 0
-58 4031 0
-59 4031 0
-4032 76 77 78 79 0
-76 4032 0
-77 4032 0
-78 4032 0
-79 4032 0
-4033 17 0
-17 4033 0
-4034 37 0
-37 4034 0
-4035 57 0
-57 4035 0
-4036 77 0
-77 4036 0
-4033 4037 0
-4034 4038 0
-4037 4038 0
-4034 -4037 0
-4035 4039 0
-4038 4039 0
-4035 -4038 0
-4036 -4039 0
-4041 17 18 0
-17 4041 0
-18 4041 0
-4042 37 38 0
-37 4042 0
-38 4042 0
-4043 57 58 0
-57 4043 0
-58 4043 0
-4044 77 78 0
-77 4044 0
-78 4044 0
-4041 4045 0
-4046 0
-4042 4047 0
-4045 4047 0
-4042 -4045 4048 0
-4046 4048 0
-4042 -4046 0
-4043 4049 0
-4047 4049 0
-4043 -4047 4050 0
-4048 4050 0
-4043 -4048 0
-4044 -4050 0
-4053 17 18 19 0
-17 4053 0
-18 4053 0
-19 4053 0
-4054 37 38 39 0
-37 4054 0
-38 4054 0
-39 4054 0
-4055 57 58 59 0
-57 4055 0
-58 4055 0
-59 4055 0
-4056 77 78 79 0
-77 4056 0
-78 4056 0
-79 4056 0
-4053 4057 0
-4058 0
-4059 0
-4054 4060 0
-4057 4060 0
-4054 -4057 4061 0
-4058 4061 0
-4054 -4058 4062 0
-4059 4062 0
-4054 -4059 0
-4055 4063 0
-4060 4063 0
-4055 -4060 4064 0
-4061 4064 0
-4055 -4061 4065 0
-4062 4065 0
-4055 -4062 0
-4056 -4065 0
-4069 17 18 19 20 0
-17 4069 0
-18 4069 0
-19 4069 0
-20 4069 0
-4070 37 38 39 40 0
-37 4070 0
-38 4070 0
-39 4070 0
-40 4070 0
-4071 57 58 59 60 0
-57 4071 0
-58 4071 0
-59 4071 0
-60 4071 0
-4072 77 78 79 80 0
-77 4072 0
-78 4072 0
-79 4072 0
-80 4072 0
-4073 18 0
-18 4073 0
-4074 38 0
-38 4074 0
-4075 58 0
-58 4075 0
-4076 78 0
-78 4076 0
-4073 4077 0
-4074 4078 0
-4077 4078 0
-4074 -4077 0
-4075 4079 0
-4078 4079 0
-4075 -4078 0
-4076 -4079 0
-4081 18 19 0
-18 4081 0
-19 4081 0
-4082 38 39 0
-38 4082 0
-39 4082 0
-4083 58 59 0
-58 4083 0
-59 4083 0
-4084 78 79 0
-78 4084 0
-79 4084 0
-4081 4085 0
-4086 0
-4082 4087 0
-4085 4087 0
-4082 -4085 4088 0
-4086 4088 0
-4082 -4086 0
-4083 4089 0
-4087 4089 0
-4083 -4087 4090 0
-4088 4090 0
-4083 -4088 0
-4084 -4090 0
-4093 18 19 20 0
-18 4093 0
-19 4093 0
-20 4093 0
-4094 38 39 40 0
-38 4094 0
-39 4094 0
-40 4094 0
-4095 58 59 60 0
-58 4095 0
-59 4095 0
-60 4095 0
-4096 78 79 80 0
-78 4096 0
-79 4096 0
-80 4096 0
-4093 4097 0
-4098 0
-4099 0
-4094 4100 0
-4097 4100 0
-4094 -4097 4101 0
-4098 4101 0
-4094 -4098 4102 0
-4099 4102 0
-4094 -4099 0
-4095 4103 0
-4100 4103 0
-4095 -4100 4104 0
-4101 4104 0
-4095 -4101 4105 0
-4102 4105 0
-4095 -4102 0
-4096 -4105 0
-4109 19 0
-19 4109 0
-4110 39 0
-39 4110 0
-4111 59 0
-59 4111 0
-4112 79 0
-79 4112 0
-4109 4113 0
-4110 4114 0
-4113 4114 0
-4110 -4113 0
-4111 4115 0
-4114 4115 0
-4111 -4114 0
-4112 -4115 0
-4117 19 20 0
-19 4117 0
-20 4117 0
-4118 39 40 0
-39 4118 0
-40 4118 0
-4119 59 60 0
-59 4119 0
-60 4119 0
-4120 79 80 0
-79 4120 0
-80 4120 0
-4117 4121 0
-4122 0
-4118 4123 0
-4121 4123 0
-4118 -4121 4124 0
-4122 4124 0
-4118 -4122 0
-4119 4125 0
-4123 4125 0
-4119 -4123 4126 0
-4124 4126 0
-4119 -4124 0
-4120 -4126 0
-4129 20 0
-20 4129 0
-4130 40 0
-40 4130 0
-4131 60 0
-60 4131 0
-4132 80 0
-80 4132 0
-4129 4133 0
-4130 4134 0
-4133 4134 0
-4130 -4133 0
-4131 4135 0
-4134 4135 0
-4131 -4134 0
-4132 -4135 0
-4137 4142 0
-4138 4143 0
-4142 4143 0
-4138 -4142 0
-4139 4144 0
-4143 4144 0
-4139 -4143 0
-4140 4145 0
-4144 4145 0
-4140 -4144 0
-4141 -4145 0
4137 4147 0
-4148 0
-4149 0
-4150 0
4138 4151 0
-4147 4151 0
4138 -4147 4152 0
-4148 4152 0
4138 -4148 4153 0
-4149 4153 0
4138 -4149 4154 0
-4150 4154 0
4138 -4150 0
4139 4155 0
-4151 4155 0
4139 -4151 4156 0
-4152 4156 0
4139 -4152 4157 0
-4153 4157 0
4139 -4153 4158 0
-4154 4158 0
4139 -4154 0
4140 4159 0
-4155 4159 0
4140 -4155 4160 0
-4156 4160 0
4140 -4156 4161 0
-4157 4161 0
4140 -4157 4162 0
-4158 4162 0
4140 -4158 0
4141 -4162 0
-16 4167 0
-36 4168 0
-4167 4168 0
-36 -4167 0
-56 4169 0
-4168 4169 0
-56 -4168 0
-76 4170 0
-4169 4170 0
-76 -4169 0
-4137 -4170 0
16 36 56 76 4137 0
-17 4172 0
-37 4173 0
-4172 4173 0
-37 -4172 0
-57 4174 0
-4173 4174 0
-57 -4173 0
-77 4175 0
-4174 4175 0
-77 -4174 0
-4138 -4175 0
17 37 57 77 4138 0
-18 4177 0
-38 4178 0
-4177 4178 0
-38 -4177 0
-58 4179 0
-4178 4179 0
-58 -4178 0
-78 4180 0
-4179 4180 0
-78 -4179 0
-4139 -4180 0
18 38 58 78 4139 0
-19 4182 0
-39 4183 0
-4182 4183 0
-39 -4182 0
-59 4184 0
-4183 4184 0
-59 -4183 0
-79 4185 0
-4184 4185 0
-79 -4184 0
-4140 -4185 0
19 39 59 79 4140 0
-20 4187 0
-40 4188 0
-4187 4188 0
-40 -4187 0
-60 4189 0
-4188 4189 0
-60 -4188 0
-80 4190 0
-4189 4190 0
-80 -4189 0
-4141 -4190 0
20 40 60 80 4141 0
-4192 21 0
-21 4192 0
-4193 41 0
-41 4193 0
-4194 61 0
-61 4194 0
-4195 81 0
-81 4195 0
-4196 101 0
-101 4196 0
-4192 4197 0
-4193 4198 0
-4197 4198 0
-4193 -4197 0
-4194 4199 0
-4198 4199 0
-4194 -4198 0
-4195 4200 0
-4199 4200 0
-4195 -4199 0
-4196 -4200 0
-4202 21 22 0
-21 4202 0
-22 4202 0
-4203 41 42 0
-41 4203 0
-42 4203 0
-4204 61 62 0
-61 4204 0
-62 4204 0
-4205 81 82 0
-81 4205 0
-82 4205 0
-4206 101 102 0
-101 4206 0
-102 4206 0
-4202 4207 0
-4208 0
-4203 4209 0
-4207 4209 0
-4203 -4207 4210 0
-4208 4210 0
-4203 -4208 0
-4204 4211 0
-4209 4211 0
-4204 -4209 4212 0
-4210 4212 0
-4204 -4210 0
-4205 4213 0
-4211 4213 0
-4205 -4211 4214 0
-4212 4214 0
-4205 -4212 0
-4206 -4214 0
-4217 21 22 23 0
-21 4217 0
-22 4217 0
-23 4217 0
-4218 41 42 43 0
-41 4218 0
-42 4218 0
-43 4218 0
-4219 61 62 63 0
-61 4219 0
-62 4219 0
-63 4219 0
-4220 81 82 83 0
-81 4220 0
-82 4220 0
-83 4220 0
-4221 101 102 103 0
-101 4221 0
-102 4221 0
-103 4221 0
-4217 4222 0
-4223 0
-4224 0
-4218 4225 0
-4222 4225 0
-4218 -4222 4226 0
-4223 4226 0
-4218 -4223 4227 0
-4224 4227 0
-4218 -4224 0
-4219 4228 0
-4225 4228 0
-4219 -4225 4229 0
-4226 4229 0
-4219 -4226 4230 0
-4227 4230 0
-4219 -4227 0
-4220 4231 0
-4228 4231 0
-4220 -4228 4232 0
-4229 4232 0
-4220 -4229 4233 0
-4230 4233 0
-4220 -4230 0
-4221 -4233 0
-4237 21 22 23 24 0
-21 4237 0
-22 4237 0
-23 4237 0
-24 4237 0
-4238 41 42 43 44 0
-41 4238 0
-42 4238 0
-43 4238 0
-44 4238 0
-4239 61 62 63 64 0
-61 4239 0
-62 4239 0
-63 4239 0
-64 4239 0
-4240 81 82 83 84 0
-81 4240 0
-82 4240 0
-83 4240 0
-84 4240 0
-4241 101 102 103 104 0
-101 4241 0
-102 4241 0
-103 4241 0
-104 4241 0
-4237 4242 0
-4243 0
-4244 0
-4245 0
-4238 4246 0
-4242 4246 0
-4238 -4242 4247 0
-4243 4247 0
-4238 -4243 4248 0
-4244 4248 0
-4238 -4244 4249 0
-4245 4249 0
-4238 -4245 0
-4239 4250 0
-4246 4250 0
-4239 -4246 4251 0
-4247 4251 0
-4239 -4247 4252 0
-4248 4252 0
-4239 -4248 4253 0
-4249 4253 0
-4239 -4249 0
-4240 4254 0
-4250 4254 0
-4240 -4250 4255 0
-4251 4255 0
-4240 -4251 4256 0
-4252 4256 0
-4240 -4252 4257 0
-4253 4257 0
-4240 -4253 0
-4241 -4257 0
-4262 21 22 23 24 25 0
-21 4262 0
-22 4262 0
-23 4262 0
-24 4262 0
-25 4262 0
-4263 41 42 43 44 45 0
-41 4263 0
-42 4263 0
-43 4263 0
-44 4263 0
-45 4263 0
-4264 61 62 63 64 65 0
-61 4264 0
-62 4264 0
-63 4264 0
-64 4264 0
-65 4264 0
-4265 81 82 83 84 85 0
-81 4265 0
-82 4265 0
-83 4265 0
-84 4265 0
-85 4265 0
-4266 101 102 103 104 105 0
-101 4266 0
-102 4266 0
-103 4266 0
-104 4266 0
-105 4266 0
-4267 22 0
-22 4267 0
-4268 42 0
-42 4268 0
-4269 62 0
-62 4269 0
-4270 82 0
-82 4270 0
-4271 102 0
-102 4271 0
-4267 4272 0
-4268 4273 0
-4272 4273 0
-4268 -4272 0
-4269 4274 0
-4273 4274 0
-4269 -4273 0
-4270 4275 0
-4274 4275 0
-4270 -4274 0
-4271 -4275 0
-4277 22 23 0
-22 4277 0
-23 4277 0
-4278 42 43 0
-42 4278 0
-43 4278 0
-4279 62 63 0
-62 4279 0
-63 4279 0
-4280 82 83 0
-82 4280 0
-83 4280 0
-4281 102 103 0
-102 4281 0
-103 4281 0
-4277 4282 0
-4283 0
-4278 4284 0
-4282 4284 0
-4278 -4282 4285 0
-4283 4285 0
-4278 -4283 0
-4279 4286 0
-4284 4286 0
-4279 -4284 4287 0
-4285 4287 0
-4279 -4285 0
-4280 4288 0
-4286 4288 0
-4280 -4286 4289 0
-4287 4289 0
-4280 -4287 0
-4281 -4289 0
-4292 22 23 24 0
-22 4292 0
-23 4292 0
-24 4292 0
-4293 42 43 44 0
-42 4293 0
-43 4293 0
-44 4293 0
-4294 62 63 64 0
-62 4294 0
-63 4294 0
-64 4294 0
-4295 82 83 84 0
-82 4295 0
-83 4295 0
-84 4295 0
-4296 102 103 104 0
-102 4296 0
-103 4296 0
-104 4296 0
-4292 4297 0
-4298 0
-4299 0
-4293 4300 0
-4297 4300 0
-4293 -4297 4301 0
-4298 4301 0
-4293 -4298 4302 0
-4299 4302 0
-4293 -4299 0
-4294 4303 0
-4300 4303 0
-4294 -4300 4304 0
-4301 4304 0
-4294 -4301 4305 0
-4302 4305 0
-4294 -4302 0
-4295 4306 0
-4303 4306 0
-4295 -4303 4307 0
-4304 4307 0
-4295 -4304 4308 0
-4305 4308 0
-4295 -4305 0
-4296 -4308 0
-4312 22 23 24 25 0
-22 4312 0
-23 4312 0
-24 4312 0
-25 4312 0
-4313 42 43 44 45 0
-42 4313 0
-43 4313 0
-44 4313 0
-45 4313 0
-4314 62 63 64 65 0
-62 4314 0
-63 4314 0
-64 4314 0
-65 4314 0
-4315 82 83 84 85 0
-82 4315 0
-83 4315 0
-84 4315 0
-85 4315 0
-4316 102 103 104 105 0
-102 4316 0
-103 4316 0
-104 4316 0
-105 4316 0
-4312 4317 0
-4318 0
-4319 0
-4320 0
-4313 4321 0
-4317 4321 0
-4313 -4317 4322 0
-4318 4322 0
-4313 -4318 4323 0
-4319 4323 0
-4313 -4319 4324 0
-4320 4324 0
-4313 -4320 0
-4314 4325 0
-4321 4325 0
-4314 -4321 4326 0
-4322 4326 0
-4314 -4322 4327 0
-4323 4327 0
-4314 -4323 4328 0
-4324 4328 0
-4314 -4324 0
-4315 4329 0
-4325 4329 0
-4315 -4325 4330 0
-4326 4330 0
-4315 -4326 4331 0
-4327 4331 0
-4315 -4327 4332 0
-4328 4332 0
-4315 -4328 0
-4316 -4332 0
-4337 23 0
-23 4337 0
-4338 43 0
-43 4338 0
-4339 63 0
-63 4339 0
-4340 83 0
-83 4340 0
-4341 103 0
-103 4341 0
-4337 4342 0
-4338 4343 0
-4342 4343 0
-4338 -4342 0
-4339 4344 0
-4343 4344 0
-4339 -4343 0
-4340 4345 0
-4344 4345 0
-4340 -4344 0
-4341 -4345 0
-4347 23 24 0
-23 4347 0
-24 4347 0
-4348 43 44 0
-43 4348 0
-44 4348 0
-4349 63 64 0
-63 4349 0
-64 4349 0
-4350 83 84 0
-83 4350 0
-84 4350 0
-4351 103 104 0
-103 4351 0
-104 4351 0
-4347 4352 0
-4353 0
-4348 4354 0
-4352 4354 0
-4348 -4352 4355 0
-4353 4355 0
-4348 -4353 0
-4349 4356 0
-4354 4356 0
-4349 -4354 4357 0
-4355 4357 0
-4349 -4355 0
-4350 4358 0
-4356 4358 0
-4350 -4356 4359 0
-4357 4359 0
-4350 -4357 0
-4351 -4359 0
-4362 23 24 25 0
-23 4362 0
-24 4362 0
-25 4362 0
-4363 43 44 45 0
-43 4363 0
-44 4363 0
-45 4363 0
-4364 63 64 65 0
-63 4364 0
-64 4364 0
-65 4364 0
-4365 83 84 85 0
-83 4365 0
-84 4365 0
-85 4365 0
-4366 103 104 105 0
-103 4366 0
-104 4366 0
-105 4366 0
-4362 4367 0
-4368 0
-4369 0
-4363 4370 0
-4367 4370 0
-4363 -4367 4371 0
-4368 4371 0
-4363 -4368 4372 0
-4369 4372 0
-4363 -4369 0
-4364 4373 0
-4370 4373 0
-4364 -4370 4374 0
-4371 4374 0
-4364 -4371 4375 0
-4372 4375 0
-4364 -4372 0
-4365 4376 0
-4373 4376 0
-4365 -4373 4377 0
-4374 4377 0
-4365 -4374 4378 0
-4375 4378 0
-4365 -4375 0
-4366 -4378 0
-4382 24 0
-24 4382 0
-4383 44 0
-44 4383 0
-4384 64 0
-64 4384 0
-4385 84 0
-84 4385 0
-4386 104 0
-104 4386 0
-4382 4387 0
-4383 4388 0
-4387 4388 0
-4383 -4387 0
-4384 4389 0
-4388 4389 0
-4384 -4388 0
-4385 4390 0
-4389 4390 0
-4385 -4389 0
-4386 -4390 0
-4392 24 25 0
-24 4392 0
-25 4392 0
-4393 44 45 0
-44 4393 0
-45 4393 0
-4394 64 65 0
-64 4394 0
-65 4394 0
-4395 84 85 0
-84 4395 0
-85 4395 0
-4396 104 105 0
-104 4396 0
-105 4396 0
-4392 4397 0
-4398 0
-4393 4399 0
-4397 4399 0
-4393 -4397 4400 0
-4398 4400 0
-4393 -4398 0
-4394 4401 0
-4399 4401 0
-4394 -4399 4402 0
-4400 4402 0
-4394 -4400 0
-4395 4403 0
-4401 4403 0
-4395 -4401 4404 0
-4402 4404 0
-4395 -4402 0
-4396 -4404 0
-4407 25 0
-25 4407 0
-4408 45 0
-45 4408 0
-4409 65 0
-65 4409 0
-4410 85 0
-85 4410 0
-4411 105 0
-105 4411 0
-4407 4412 0
-4408 4413 0
-4412 4413 0
-4408 -4412 0
-4409 4414 0
-4413 4414 0
-4409 -4413 0
-4410 4415 0
-4414 4415 0
-4410 -4414 0
-4411 -4415 0
-21 4417 0
-41 4418 0
-4417 4418 0
-41 -4417 0
-61 4419 0
-4418 4419 0
-61 -4418 0
-81 4420 0
-4419 4420 0
-81 -4419 0
-101 -4420 0
21 41 61 81 101 0
-22 4422 0
-42 4423 0
-4422 4423 0
-42 -4422 0
-62 4424 0
-4423 4424 0
-62 -4423 0
-82 4425 0
-4424 4425 0
-82 -4424 0
-102 -4425 0
22 42 62 82 102 0
-23 4427 0
-43 4428 0
-4427 4428 0
-43 -4427 0
-63 4429 0
-4428 4429 0
-63 -4428 0
-83 4430 0
-4429 4430 0
-83 -4429 0
-103 -4430 0
23 43 63 83 103 0
-24 4432 0
-44 4433 0
-4432 4433 0
-44 -4432 0
-64 4434 0
-4433 4434 0
-64 -4433 0
-84 4435 0
-4434 4435 0
-84 -4434 0
-104 -4435 0
24 44 64 84 104 0
-25 4437 0
-45 4438 0
-4437 4438 0
-45 -4437 0
-65 4439 0
-4438 4439 0
-65 -4438 0
-85 4440 0
-4439 4440 0
-85 -4439 0
-105 -4440 0
25 45 65 85 105 0
-4442 46 0
-46 4442 0
-4443 66 0
-66 4443 0
-4444 86 0
-86 4444 0
-4445 106 0
-106 4445 0
-4442 4446 0
-4443 4447 0
-4446 4447 0
-4443 -4446 0
-4444 4448 0
-4447 4448 0
-4444 -4447 0
-4445 -4448 0
-4450 46 47 0
-46 4450 0
-47 4450 0
-4451 66 67 0
-66 4451 0
-67 4451 0
-4452 86 87 0
-86 4452 0
-87 4452 0
-4453 106 107 0
-106 4453 0
-107 4453 0
-4450 4454 0
-4455 0
-4451 4456 0
-4454 4456 0
-4451 -4454 4457 0
-4455 4457 0
-4451 -4455 0
-4452 4458 0
-4456 4458 0
-4452 -4456 4459 0
-4457 4459 0
-4452 -4457 0
-4453 -4459 0
-4462 46 47 48 0
-46 4462 0
-47 4462 0
-48 4462 0
-4463 66 67 68 0
-66 4463 0
-67 4463 0
-68 4463 0
-4464 86 87 88 0
-86 4464 0
-87 4464 0
-88 4464 0
-4465 106 107 108 0
-106 4465 0
-107 4465 0
-108 4465 0
-4462 4466 0
-4467 0
-4468 0
-4463 4469 0
-4466 4469 0
-4463 -4466 4470 0
-4467 4470 0
-4463 -4467 4471 0
-4468 4471 0
-4463 -4468 0
-4464 4472 0
-4469 4472 0
-4464 -4469 4473 0
-4470 4473 0
-4464 -4470 4474 0
-4471 4474 0
-4464 -4471 0
-4465 -4474 0
-4478 46 47 48 49 0
-46 4478 0
-47 4478 0
-48 4478 0
-49 4478 0
-4479 66 67 68 69 0
-66 4479 0
-67 4479 0
-68 4479 0
-69 4479 0
-4480 86 87 88 89 0
-86 4480 0
-87 4480 0
-88 4480 0
-89 4480 0
-4481 106 107 108 109 0
-106 4481 0
-107 4481 0
-108 4481 0
-109 4481 0
-4482 47 0
-47 4482 0
-4483 67 0
-67 4483 0
-4484 87 0
-87 4484 0
-4485 107 0
-107 4485 0
-4482 4486 0
-4483 4487 0
-4486 4487 0
-4483 -4486 0
-4484 4488 0
-4487 4488 0
-4484 -4487 0
-4485 -4488 0
-4490 47 48 0
-47 4490 0
-48 4490 0
-4491 67 68 0
-67 4491 0
-68 4491 0
-4492 87 88 0
-87 4492 0
-88 4492 0
-4493 107 108 0
-107 4493 0
-108 4493 0
-4490 4494 0
-4495 0
-4491 4496 0
-4494 4496 0
-4491 -4494 4497 0
-4495 4497 0
-4491 -4495 0
-4492 4498 0
-4496 4498 0
-4492 -4496 4499 0
-4497 4499 0
-4492 -4497 0
-4493 -4499 0
-4502 47 48 49 0
-47 4502 0
-48 4502 0
-49 4502 0
-4503 67 68 69 0
-67 4503 0
-68 4503 0
-69 4503 0
-4504 87 88 89 0
-87 4504 0
-88 4504 0
-89 4504 0
-4505 107 108 109 0
-107 4505 0
-108 4505 0
-109 4505 0
-4502 4506 0
-4507 0
-4508 0
-4503 4509 0
-4506 4509 0
-4503 -4506 4510 0
-4507 4510 0
-4503 -4507 4511 0
-4508 4511 0
-4503 -4508 0
-4504 4512 0
-4509 4512 0
-4504 -4509 4513 0
-4510 4513 0
-4504 -4510 4514 0
-4511 4514 0
-4504 -4511 0
-4505 -4514 0
-4518 47 48 49 50 0
-47 4518 0
-48 4518 0
-49 4518 0
-50 4518 0
-4519 67 68 69 70 0
-67 4519 0
-68 4519 0
-69 4519 0
-70 4519 0
-4520 87 88 89 90 0
-87 4520 0
-88 4520 0
-89 4520 0
-90 4520 0
-4521 107 108 109 110 0
-107 4521 0
-108 4521 0
-109 4521 0
-110 4521 0
-4522 48 0
-48 4522 0
-4523 68 0
-68 4523 0
-4524 88 0
-88 4524 0
-4525 108 0
-108 4525 0
-4522 4526 0
-4523 4527 0
-4526 4527 0
-4523 -4526 0
-4524 4528 0
-4527 4528 0
-4524 -4527 0
-4525 -4528 0
-4530 48 49 0
-48 4530 0
-49 4530 0
-4531 68 69 0
-68 4531 0
-69 4531 0
-4532 88 89 0
-88 4532 0
-89 4532 0
-4533 108 109 0
-108 4533 0
-109 4533 0
-4530 4534 0
-4535 0
-4531 4536 0
-4534 4536 0
-4531 -4534 4537 0
-4535 4537 0
-4531 -4535 0
-4532 4538 0
-4536 4538 0
-4532 -4536 4539 0
-4537 4539 0
-4532 -4537 0
-4533 -4539 0
-4542 48 49 50 0
-48 4542 0
-49 4542 0
-50 4542 0
-4543 68 69 70 0
-68 4543 0
-69 4543 0
-70 4543 0
-4544 88 89 90 0
-88 4544 0
-89 4544 0
-90 4544 0
-4545 108 109 110 0
-108 4545 0
-109 4545 0
-110 4545 0
-4542 4546 0
-4547 0
-4548 0
-4543 4549 0
-4546 4549 0
-4543 -4546 4550 0
-4547 4550 0
-4543 -4547 4551 0
-4548 4551 0
-4543 -4548 0
-4544 4552 0
-4549 4552 0
-4544 -4549 4553 0
-4550 4553 0
-4544 -4550 4554 0
-4551 4554 0
-4544 -4551 0
-4545 -4554 0
-4558 49 0
-49 4558 0
-4559 69 0
-69 4559 0
-4560 89 0
-89 4560 0
-4561 109 0
-109 4561 0
-4558 4562 0
-4559 4563 0
-4562 4563 0
-4559 -4562 0
-4560 4564 0
-4563 4564 0
-4560 -4563 0
-4561 -4564 0
-4566 49 50 0
-49 4566 0
-50 4566 0
-4567 69 70 0
-69 4567 0
-70 4567 0
-4568 89 90 0
-89 4568 0
-90 4568 0
-4569 109 110 0
-109 4569 0
-110 4569 0
-4566 4570 0
-4571 0
-4567 4572 0
-4570 4572 0
-4567 -4570 4573 0
-4571 4573 0
-4567 -4571 0
-4568 4574 0
-4572 4574 0
-4568 -4572 4575 0
-4573 4575 0
-4568 -4573 0
-4569 -4575 0
-4578 50 0
-50 4578 0
-4579 70 0
-70 4579 0
-4580 90 0
-90 4580 0
-4581 110 0
-110 4581 0
-4578 4582 0
-4579 4583 0
-4582 4583 0
-4579 -4582 0
-4580 4584 0
-4583 4584 0
-4580 -4583 0
-4581 -4584 0
-4586 4591 0
-4587 4592 0
-4591 4592 0
-4587 -4591 0
-4588 4593 0
-4592 4593 0
-4588 -4592 0
-4589 4594 0
-4593 4594 0
-4589 -4593 0
-4590 -4594 0
4586 4596 0
-4597 0
-4598 0
-4599 0
4587 4600 0
-4596 4600 0
4587 -4596 4601 0
-4597 4601 0
4587 -4597 4602 0
-4598 4602 0
4587 -4598 4603 0
-4599 4603 0
4587 -4599 0
4588 4604 0
-4600 4604 0
4588 -4600 4605 0
-4601 4605 0
4588 -4601 4606 0
-4602 4606 0
4588 -4602 4607 0
-4603 4607 0
4588 -4603 0
4589 4608 0
-4604 4608 0
4589 -4604 4609 0
-4605 4609 0
4589 -4605 4610 0
-4606 4610 0
4589 -4606 4611 0
-4607 4611 0
4589 -4607 0
4590 -4611 0
-46 4616 0
-66 4617 0
-4616 4617 0
-66 -4616 0
-86 4618 0
-4617 4618 0
-86 -4617 0
-106 4619 0
-4618 4619 0
-106 -4618 0
-4586 -4619 0
46 66 86 106 4586 0
-47 4621 0
-67 4622 0
-4621 4622 0
-67 -4621 0
-87 4623 0
-4622 4623 0
-87 -4622 0
-107 4624 0
-4623 4624 0
-107 -4623 0
-4587 -4624 0
47 67 87 107 4587 0
-48 4626 0
-68 4627 0
-4626 4627 0
-68 -4626 0
-88 4628 0
-4627 4628 0
-88 -4627 0
-108 4629 0
-4628 4629 0
-108 -4628 0
-4588 -4629 0
48 68 88 108 4588 0
-49 4631 0
-69 4632 0
-4631 4632 0
-69 -4631 0
-89 4633 0
-4632 4633 0
-89 -4632 0
-109 4634 0
-4633 4634 0
-109 -4633 0
-4589 -4634 0
49 69 89 109 4589 0
-50 4636 0
-70 4637 0
-4636 4637 0
-70 -4636 0
-90 4638 0
-4637 4638 0
-90 -4637 0
-110 4639 0
-4638 4639 0
-110 -4638 0
-4590 -4639 0
50 70 90 110 4590 0
-4641 71 0
-71 4641 0
-4642 91 0
-91 4642 0
-4643 111 0
-111 4643 0
-4641 4644 0
-4642 4645 0
-4644 4645 0
-4642 -4644 0
-4643 -4645 0
-4647 71 72 0
-71 4647 0
-72 4647 0
-4648 91 92 0
-91 4648 0
-92 4648 0
-4649 111 112 0
-111 4649 0
-112 4649 0
-4647 4650 0
-4651 0
-4648 4652 0
-4650 4652 0
-4648 -4650 4653 0
-4651 4653 0
-4648 -4651 0
-4649 -4653 0
-4656 71 72 73 0
-71 4656 0
-72 4656 0
-73 4656 0
-4657 91 92 93 0
-91 4657 0
-92 4657 0
-93 4657 0
-4658 111 112 113 0
-111 4658 0
-112 4658 0
-113 4658 0
-4659 72 0
-72 4659 0
-4660 92 0
-92 4660 0
-4661 112 0
-112 4661 0
-4659 4662 0
-4660 4663 0
-4662 4663 0
-4660 -4662 0
-4661 -4663 0
-4665 72 73 0
-72 4665 0
-73 4665 0
-4666 92 93 0
-92 4666 0
-93 4666 0
-4667 112 113 0
-112 4667 0
-113 4667 0
-4665 4668 0
-4669 0
-4666 4670 0
-4668 4670 0
-4666 -4668 4671 0
-4669 4671 0
-4666 -4669 0
-4667 -4671 0
-4674 72 73 74 0
-72 4674 0
-73 4674 0
-74 4674 0
-4675 92 93 94 0
-92 4675 0
-93 4675 0
-94 4675 0
-4676 112 113 114 0
-112 4676 0
-113 4676 0
-114 4676 0
-4677 73 0
-73 4677 0
-4678 93 0
-93 4678 0
-4679 113 0
-113 4679 0
-4677 4680 0
-4678 4681 0
-4680 4681 0
-4678 -4680 0
-4679 -4681 0
-4683 73 74 0
-73 4683 0
-74 4683 0
-4684 93 94 0
-93 4684 0
-94 4684 0
-4685 113 114 0
-113 4685 0
-114 4685 0
-4683 4686 0
-4687 0
-4684 4688 0
-4686 4688 0
-4684 -4686 4689 0
-4687 4689 0
-4684 -4687 0
-4685 -4689 0
-4692 73 74 75 0
-73 4692 0
-74 4692 0
-75 4692 0
-4693 93 94 95 0
-93 4693 0
-94 4693 0
-95 4693 0
-4694 113 114 115 0
-113 4694 0
-114 4694 0
-115 4694 0
-4695 74 0
-74 4695 0
-4696 94 0
-94 4696 0
-4697 114 0
-114 4697 0
-4695 4698 0
-4696 4699 0
-4698 4699 0
-4696 -4698 0
-4697 -4699 0
-4701 74 75 0
-74 4701 0
-75 4701 0
-4702 94 95 0
-94 4702 0
-95 4702 0
-4703 114 115 0
-114 4703 0
-115 4703 0
-4701 4704 0
-4705 0
-4702 4706 0
-4704 4706 0
-4702 -4704 4707 0
-4705 4707 0
-4702 -4705 0
-4703 -4707 0
-4710 75 0
-75 4710 0
-4711 95 0
-95 4711 0
-4712 115 0
-115 4712 0
-4710 4713 0
-4711 4714 0
-4713 4714 0
-4711 -4713 0
-4712 -4714 0
-4716 4721 0
-4722 0
-4717 4723 0
-4721 4723 0
-4717 -4721 4724 0
-4722 4724 0
-4717 -4722 0
-4718 4725 0
-4723 4725 0
-4718 -4723 4726 0
-4724 4726 0
-4718 -4724 0
-4719 4727 0
-4725 4727 0
-4719 -4725 4728 0
-4726 4728 0
-4719 -4726 0
-4720 -4728 0
4716 4731 0
-4732 0
-4733 0
4717 4734 0
-4731 4734 0
4717 -4731 4735 0
-4732 4735 0
4717 -4732 4736 0
-4733 4736 0
4717 -4733 0
4718 4737 0
-4734 4737 0
4718 -4734 4738 0
-4735 4738 0
4718 -4735 4739 0
-4736 4739 0
4718 -4736 0
4719 4740 0
-4737 4740 0
4719 -4737 4741 0
-4738 4741 0
4719 -4738 4742 0
-4739 4742 0
4719 -4739 0
4720 -4742 0
-71 4746 0
-91 4747 0
-4746 4747 0
-91 -4746 0
-111 4748 0
-4747 4748 0
-111 -4747 0
-4716 -4748 0
71 91 111 4716 0
-72 4750 0
-92 4751 0
-4750 4751 0
-92 -4750 0
-112 4752 0
-4751 4752 0
-112 -4751 0
-4717 -4752 0
72 92 112 4717 0
-73 4754 0
-93 4755 0
-4754 4755 0
-93 -4754 0
-113 4756 0
-4755 4756 0
-113 -4755 0
-4718 -4756 0
73 93 113 4718 0
-74 4758 0
-94 4759 0
-4758 4759 0
-94 -4758 0
-114 4760 0
-4759 4760 0
-114 -4759 0
-4719 -4760 0
74 94 114 4719 0
-75 4762 0
-95 4763 0
-4762 4763 0
-95 -4762 0
-115 4764 0
-4763 4764 0
-115 -4763 0
-4720 -4764 0
75 95 115 4720 0
-4766 96 0
-96 4766 0
-4767 116 0
-116 4767 0
-4766 4768 0
-4767 -4768 0
-4770 96 97 0
-96 4770 0
-97 4770 0
-4771 116 117 0
-116 4771 0
-117 4771 0
-4772 97 0
-97 4772 0
-4773 117 0
-117 4773 0
-4772 4774 0
-4773 -4774 0
-4776 97 98 0
-97 4776 0
-98 4776 0
-4777 117 118 0
-117 4777 0
-118 4777 0
-4778 98 0
-98 4778 0
-4779 118 0
-118 4779 0
-4778 4780 0
-4779 -4780 0
-4782 98 99 0
-98 4782 0
-99 4782 0
-4783 118 119 0
-118 4783 0
-119 4783 0
-4784 99 0
-99 4784 0
-4785 119 0
-119 4785 0
-4784 4786 0
-4785 -4786 0
-4788 99 100 0
-99 4788 0
-100 4788 0
-4789 119 120 0
-119 4789 0
-120 4789 0
-4790 100 0
-100 4790 0
-4791 120 0
-120 4791 0
-4790 4792 0
-4791 -4792 0
-4794 4799 0
-4800 0
-4801 0
-4795 4802 0
-4799 4802 0
-4795 -4799 4803 0
-4800 4803 0
-4795 -4800 4804 0
-4801 4804 0
-4795 -4801 0
-4796 4805 0
-4802 4805 0
-4796 -4802 4806 0
-4803 4806 0
-4796 -4803 4807 0
-4804 4807 0
-4796 -4804 0
-4797 4808 0
-4805 4808 0
-4797 -4805 4809 0
-4806 4809 0
-4797 -4806 4810 0
-4807 4810 0
-4797 -4807 0
-4798 -4810 0
4794 4814 0
-4815 0
4795 4816 0
-4814 4816 0
4795 -4814 4817 0
-4815 4817 0
4795 -4815 0
4796 4818 0
-4816 4818 0
4796 -4816 4819 0
-4817 4819 0
4796 -4817 0
4797 4820 0
-4818 4820 0
4797 -4818 4821 0
-4819 4821 0
4797 -4819 0
4798 -4821 0
-96 4824 0
-116 4825 0
-4824 4825 0
-116 -4824 0
-4794 -4825 0
96 116 4794 0
-97 4827 0
-117 4828 0
-4827 4828 0
-117 -4827 0
-4795 -4828 0
97 117 4795 0
-98 4830 0
-118 4831 0
-4830 4831 0
-118 -4830 0
-4796 -4831 0
98 118 4796 0
-99 4833 0
-119 4834 0
-4833 4834 0
-119 -4833 0
-4797 -4834 0
99 119 4797 0
-100 4836 0
-120 4837 0
-4836 4837 0
-120 -4836 0
-4798 -4837 0
100 120 4798 0
