p cnf 11520 30012
-1 217 0
-2 218 0
-217 218 0
-2 -217 0
-3 219 0
-218 219 0
-3 -218 0
-4 220 0
-219 220 0
-4 -219 0
-5 221 0
-220 221 0
-5 -220 0
-6 -221 0
1 2 3 4 5 6 0
-7 223 0
-8 224 0
-223 224 0
-8 -223 0
-9 225 0
-224 225 0
-9 -224 0
-10 226 0
-225 226 0
-10 -225 0
-11 227 0
-226 227 0
-11 -226 0
-12 -227 0
7 8 9 10 11 12 0
-13 229 0
-14 230 0
-229 230 0
-14 -229 0
-15 231 0
-230 231 0
-15 -230 0
-16 232 0
-231 232 0
-16 -231 0
-17 233 0
-232 233 0
-17 -232 0
-18 -233 0
13 14 15 16 17 18 0
-19 235 0
-20 236 0
-235 236 0
-20 -235 0
-21 237 0
-236 237 0
-21 -236 0
-22 238 0
-237 238 0
-22 -237 0
-23 239 0
-238 239 0
-23 -238 0
-24 -239 0
19 20 21 22 23 24 0
-25 241 0
-26 242 0
-241 242 0
-26 -241 0
-27 243 0
-242 243 0
-27 -242 0
-28 244 0
-243 244 0
-28 -243 0
-29 245 0
-244 245 0
-29 -244 0
-30 -245 0
25 26 27 28 29 30 0
-31 247 0
-32 248 0
-247 248 0
-32 -247 0
-33 249 0
-248 249 0
-33 -248 0
-34 250 0
-249 250 0
-34 -249 0
-35 251 0
-250 251 0
-35 -250 0
-36 -251 0
31 32 33 34 35 36 0
-37 253 0
-38 254 0
-253 254 0
-38 -253 0
-39 255 0
-254 255 0
-39 -254 0
-40 256 0
-255 256 0
-40 -255 0
-41 257 0
-256 257 0
-41 -256 0
-42 -257 0
37 38 39 40 41 42 0
-43 259 0
-44 260 0
-259 260 0
-44 -259 0
-45 261 0
-260 261 0
-45 -260 0
-46 262 0
-261 262 0
-46 -261 0
-47 263 0
-262 263 0
-47 -262 0
-48 -263 0
43 44 45 46 47 48 0
-49 265 0
-50 266 0
-265 266 0
-50 -265 0
-51 267 0
-266 267 0
-51 -266 0
-52 268 0
-267 268 0
-52 -267 0
-53 269 0
-268 269 0
-53 -268 0
-54 -269 0
49 50 51 52 53 54 0
-55 271 0
-56 272 0
-271 272 0
-56 -271 0
-57 273 0
-272 273 0
-57 -272 0
-58 274 0
-273 274 0
-58 -273 0
-59 275 0
-274 275 0
-59 -274 0
-60 -275 0
55 56 57 58 59 60 0
-61 277 0
-62 278 0
-277 278 0
-62 -277 0
-63 279 0
-278 279 0
-63 -278 0
-64 280 0
-279 280 0
-64 -279 0
-65 281 0
-280 281 0
-65 -280 0
-66 -281 0
61 62 63 64 65 66 0
-67 283 0
-68 284 0
-283 284 0
-68 -283 0
-69 285 0
-284 285 0
-69 -284 0
-70 286 0
-285 286 0
-70 -285 0
-71 287 0
-286 287 0
-71 -286 0
-72 -287 0
67 68 69 70 71 72 0
-73 289 0
-74 290 0
-289 290 0
-74 -289 0
-75 291 0
-290 291 0
-75 -290 0
-76 292 0
-291 292 0
-76 -291 0
-77 293 0
-292 293 0
-77 -292 0
-78 -293 0
73 74 75 76 77 78 0
-79 295 0
-80 296 0
-295 296 0
-80 -295 0
-81 297 0
-296 297 0
-81 -296 0
-82 298 0
-297 298 0
-82 -297 0
-83 299 0
-298 299 0
-83 -298 0
-84 -299 0
79 80 81 82 83 84 0
-85 301 0
-86 302 0
-301 302 0
-86 -301 0
-87 303 0
-302 303 0
-87 -302 0
-88 304 0
-303 304 0
-88 -303 0
-89 305 0
-304 305 0
-89 -304 0
-90 -305 0
85 86 87 88 89 90 0
-91 307 0
-92 308 0
-307 308 0
-92 -307 0
-93 309 0
-308 309 0
-93 -308 0
-94 310 0
-309 310 0
-94 -309 0
-95 311 0
-310 311 0
-95 -310 0
-96 -311 0
91 92 93 94 95 96 0
-97 313 0
-98 314 0
-313 314 0
-98 -313 0
-99 315 0
-314 315 0
-99 -314 0
-100 316 0
-315 316 0
-100 -315 0
-101 317 0
-316 317 0
-101 -316 0
-102 -317 0
97 98 99 100 101 102 0
-103 319 0
-104 320 0
-319 320 0
-104 -319 0
-105 321 0
-320 321 0
-105 -320 0
-106 322 0
-321 322 0
-106 -321 0
-107 323 0
-322 323 0
-107 -322 0
-108 -323 0
103 104 105 106 107 108 0
-109 325 0
-110 326 0
-325 326 0
-110 -325 0
-111 327 0
-326 327 0
-111 -326 0
-112 328 0
-327 328 0
-112 -327 0
-113 329 0
-328 329 0
-113 -328 0
-114 -329 0
109 110 111 112 113 114 0
-115 331 0
-116 332 0
-331 332 0
-116 -331 0
-117 333 0
-332 333 0
-117 -332 0
-118 334 0
-333 334 0
-118 -333 0
-119 335 0
-334 335 0
-119 -334 0
-120 -335 0
115 116 117 118 119 120 0
-121 337 0
-122 338 0
-337 338 0
-122 -337 0
-123 339 0
-338 339 0
-123 -338 0
-124 340 0
-339 340 0
-124 -339 0
-125 341 0
-340 341 0
-125 -340 0
-126 -341 0
121 122 123 124 125 126 0
-127 343 0
-128 344 0
-343 344 0
-128 -343 0
-129 345 0
-344 345 0
-129 -344 0
-130 346 0
-345 346 0
-130 -345 0
-131 347 0
-346 347 0
-131 -346 0
-132 -347 0
127 128 129 130 131 132 0
-133 349 0
-134 350 0
-349 350 0
-134 -349 0
-135 351 0
-350 351 0
-135 -350 0
-136 352 0
-351 352 0
-136 -351 0
-137 353 0
-352 353 0
-137 -352 0
-138 -353 0
133 134 135 136 137 138 0
-139 355 0
-140 356 0
-355 356 0
-140 -355 0
-141 357 0
-356 357 0
-141 -356 0
-142 358 0
-357 358 0
-142 -357 0
-143 359 0
-358 359 0
-143 -358 0
-144 -359 0
139 140 141 142 143 144 0
-145 361 0
-146 362 0
-361 362 0
-146 -361 0
-147 363 0
-362 363 0
-147 -362 0
-148 364 0
-363 364 0
-148 -363 0
-149 365 0
-364 365 0
-149 -364 0
-150 -365 0
145 146 147 148 149 150 0
-151 367 0
-152 368 0
-367 368 0
-152 -367 0
-153 369 0
-368 369 0
-153 -368 0
-154 370 0
-369 370 0
-154 -369 0
-155 371 0
-370 371 0
-155 -370 0
-156 -371 0
151 152 153 154 155 156 0
-157 373 0
-158 374 0
-373 374 0
-158 -373 0
-159 375 0
-374 375 0
-159 -374 0
-160 376 0
-375 376 0
-160 -375 0
-161 377 0
-376 377 0
-161 -376 0
-162 -377 0
157 158 159 160 161 162 0
-163 379 0
-164 380 0
-379 380 0
-164 -379 0
-165 381 0
-380 381 0
-165 -380 0
-166 382 0
-381 382 0
-166 -381 0
-167 383 0
-382 383 0
-167 -382 0
-168 -383 0
163 164 165 166 167 168 0
-169 385 0
-170 386 0
-385 386 0
-170 -385 0
-171 387 0
-386 387 0
-171 -386 0
-172 388 0
-387 388 0
-172 -387 0
-173 389 0
-388 389 0
-173 -388 0
-174 -389 0
169 170 171 172 173 174 0
-175 391 0
-176 392 0
-391 392 0
-176 -391 0
-177 393 0
-392 393 0
-177 -392 0
-178 394 0
-393 394 0
-178 -393 0
-179 395 0
-394 395 0
-179 -394 0
-180 -395 0
175 176 177 178 179 180 0
-181 397 0
-182 398 0
-397 398 0
-182 -397 0
-183 399 0
-398 399 0
-183 -398 0
-184 400 0
-399 400 0
-184 -399 0
-185 401 0
-400 401 0
-185 -400 0
-186 -401 0
181 182 183 184 185 186 0
-187 403 0
-188 404 0
-403 404 0
-188 -403 0
-189 405 0
-404 405 0
-189 -404 0
-190 406 0
-405 406 0
-190 -405 0
-191 407 0
-406 407 0
-191 -406 0
-192 -407 0
187 188 189 190 191 192 0
-193 409 0
-194 410 0
-409 410 0
-194 -409 0
-195 411 0
-410 411 0
-195 -410 0
-196 412 0
-411 412 0
-196 -411 0
-197 413 0
-412 413 0
-197 -412 0
-198 -413 0
193 194 195 196 197 198 0
-199 415 0
-200 416 0
-415 416 0
-200 -415 0
-201 417 0
-416 417 0
-201 -416 0
-202 418 0
-417 418 0
-202 -417 0
-203 419 0
-418 419 0
-203 -418 0
-204 -419 0
199 200 201 202 203 204 0
-205 421 0
-206 422 0
-421 422 0
-206 -421 0
-207 423 0
-422 423 0
-207 -422 0
-208 424 0
-423 424 0
-208 -423 0
-209 425 0
-424 425 0
-209 -424 0
-210 -425 0
205 206 207 208 209 210 0
-211 427 0
-212 428 0
-427 428 0
-212 -427 0
-213 429 0
-428 429 0
-213 -428 0
-214 430 0
-429 430 0
-214 -429 0
-215 431 0
-430 431 0
-215 -430 0
-216 -431 0
211 212 213 214 215 216 0
-433 1 0
-1 433 0
433 2 3 4 5 6 0
-434 7 0
-7 434 0
434 8 9 10 11 12 0
-435 13 0
-13 435 0
435 14 15 16 17 18 0
-436 19 0
-19 436 0
436 20 21 22 23 24 0
-437 25 0
-25 437 0
437 26 27 28 29 30 0
-438 31 0
-31 438 0
438 32 33 34 35 36 0
-433 439 0
-434 440 0
-439 440 0
-434 -439 0
-435 441 0
-440 441 0
-435 -440 0
-436 442 0
-441 442 0
-436 -441 0
-437 443 0
-442 443 0
-437 -442 0
-438 -443 0
-445 1 2 0
-1 445 0
-2 445 0
445 3 4 5 6 0
-446 7 8 0
-7 446 0
-8 446 0
446 9 10 11 12 0
-447 13 14 0
-13 447 0
-14 447 0
447 15 16 17 18 0
-448 19 20 0
-19 448 0
-20 448 0
448 21 22 23 24 0
-449 25 26 0
-25 449 0
-26 449 0
449 27 28 29 30 0
-450 31 32 0
-31 450 0
-32 450 0
450 33 34 35 36 0
-445 451 0
-452 0
-446 453 0
-451 453 0
-446 -451 454 0
-452 454 0
-446 -452 0
-447 455 0
-453 455 0
-447 -453 456 0
-454 456 0
-447 -454 0
-448 457 0
-455 457 0
-448 -455 458 0
-456 458 0
-448 -456 0
-449 459 0
-457 459 0
-449 -457 460 0
-458 460 0
-449 -458 0
-450 -460 0
-463 1 2 3 0
-1 463 0
-2 463 0
-3 463 0
463 4 5 6 0
-464 7 8 9 0
-7 464 0
-8 464 0
-9 464 0
464 10 11 12 0
-465 13 14 15 0
-13 465 0
-14 465 0
-15 465 0
465 16 17 18 0
-466 19 20 21 0
-19 466 0
-20 466 0
-21 466 0
466 22 23 24 0
-467 25 26 27 0
-25 467 0
-26 467 0
-27 467 0
467 28 29 30 0
-468 31 32 33 0
-31 468 0
-32 468 0
-33 468 0
468 34 35 36 0
-463 469 0
-470 0
-471 0
-464 472 0
-469 472 0
-464 -469 473 0
-470 473 0
-464 -470 474 0
-471 474 0
-464 -471 0
-465 475 0
-472 475 0
-465 -472 476 0
-473 476 0
-465 -473 477 0
-474 477 0
-465 -474 0
-466 478 0
-475 478 0
-466 -475 479 0
-476 479 0
-466 -476 480 0
-477 480 0
-466 -477 0
-467 481 0
-478 481 0
-467 -478 482 0
-479 482 0
-467 -479 483 0
-480 483 0
-467 -480 0
-468 -483 0
-487 1 2 3 4 0
-1 487 0
-2 487 0
-3 487 0
-4 487 0
487 5 6 0
-488 7 8 9 10 0
-7 488 0
-8 488 0
-9 488 0
-10 488 0
488 11 12 0
-489 13 14 15 16 0
-13 489 0
-14 489 0
-15 489 0
-16 489 0
489 17 18 0
-490 19 20 21 22 0
-19 490 0
-20 490 0
-21 490 0
-22 490 0
490 23 24 0
-491 25 26 27 28 0
-25 491 0
-26 491 0
-27 491 0
-28 491 0
491 29 30 0
-492 31 32 33 34 0
-31 492 0
-32 492 0
-33 492 0
-34 492 0
492 35 36 0
-487 493 0
-494 0
-495 0
-496 0
-488 497 0
-493 497 0
-488 -493 498 0
-494 498 0
-488 -494 499 0
-495 499 0
-488 -495 500 0
-496 500 0
-488 -496 0
-489 501 0
-497 501 0
-489 -497 502 0
-498 502 0
-489 -498 503 0
-499 503 0
-489 -499 504 0
-500 504 0
-489 -500 0
-490 505 0
-501 505 0
-490 -501 506 0
-502 506 0
-490 -502 507 0
-503 507 0
-490 -503 508 0
-504 508 0
-490 -504 0
-491 509 0
-505 509 0
-491 -505 510 0
-506 510 0
-491 -506 511 0
-507 511 0
-491 -507 512 0
-508 512 0
-491 -508 0
-492 -512 0
-517 1 2 3 4 5 0
-1 517 0
-2 517 0
-3 517 0
-4 517 0
-5 517 0
517 6 0
-518 7 8 9 10 11 0
-7 518 0
-8 518 0
-9 518 0
-10 518 0
-11 518 0
518 12 0
-519 13 14 15 16 17 0
-13 519 0
-14 519 0
-15 519 0
-16 519 0
-17 519 0
519 18 0
-520 19 20 21 22 23 0
-19 520 0
-20 520 0
-21 520 0
-22 520 0
-23 520 0
520 24 0
-521 25 26 27 28 29 0
-25 521 0
-26 521 0
-27 521 0
-28 521 0
-29 521 0
521 30 0
-522 31 32 33 34 35 0
-31 522 0
-32 522 0
-33 522 0
-34 522 0
-35 522 0
522 36 0
-517 523 0
-524 0
-525 0
-526 0
-527 0
-518 528 0
-523 528 0
-518 -523 529 0
-524 529 0
-518 -524 530 0
-525 530 0
-518 -525 531 0
-526 531 0
-518 -526 532 0
-527 532 0
-518 -527 0
-519 533 0
-528 533 0
-519 -528 534 0
-529 534 0
-519 -529 535 0
-530 535 0
-519 -530 536 0
-531 536 0
-519 -531 537 0
-532 537 0
-519 -532 0
-520 538 0
-533 538 0
-520 -533 539 0
-534 539 0
-520 -534 540 0
-535 540 0
-520 -535 541 0
-536 541 0
-520 -536 542 0
-537 542 0
-520 -537 0
-521 543 0
-538 543 0
-521 -538 544 0
-539 544 0
-521 -539 545 0
-540 545 0
-521 -540 546 0
-541 546 0
-521 -541 547 0
-542 547 0
-521 -542 0
-522 -547 0
-553 1 2 3 4 5 6 0
-1 553 0
-2 553 0
-3 553 0
-4 553 0
-5 553 0
-6 553 0
553 0
-554 7 8 9 10 11 12 0
-7 554 0
-8 554 0
-9 554 0
-10 554 0
-11 554 0
-12 554 0
554 0
-555 13 14 15 16 17 18 0
-13 555 0
-14 555 0
-15 555 0
-16 555 0
-17 555 0
-18 555 0
555 0
-556 19 20 21 22 23 24 0
-19 556 0
-20 556 0
-21 556 0
-22 556 0
-23 556 0
-24 556 0
556 0
-557 25 26 27 28 29 30 0
-25 557 0
-26 557 0
-27 557 0
-28 557 0
-29 557 0
-30 557 0
557 0
-558 31 32 33 34 35 36 0
-31 558 0
-32 558 0
-33 558 0
-34 558 0
-35 558 0
-36 558 0
558 0
-559 2 0
-2 559 0
559 1 3 4 5 6 0
-560 8 0
-8 560 0
560 7 9 10 11 12 0
-561 14 0
-14 561 0
561 13 15 16 17 18 0
-562 20 0
-20 562 0
562 19 21 22 23 24 0
-563 26 0
-26 563 0
563 25 27 28 29 30 0
-564 32 0
-32 564 0
564 31 33 34 35 36 0
-559 565 0
-560 566 0
-565 566 0
-560 -565 0
-561 567 0
-566 567 0
-561 -566 0
-562 568 0
-567 568 0
-562 -567 0
-563 569 0
-568 569 0
-563 -568 0
-564 -569 0
-571 2 3 0
-2 571 0
-3 571 0
571 1 4 5 6 0
-572 8 9 0
-8 572 0
-9 572 0
572 7 10 11 12 0
-573 14 15 0
-14 573 0
-15 573 0
573 13 16 17 18 0
-574 20 21 0
-20 574 0
-21 574 0
574 19 22 23 24 0
-575 26 27 0
-26 575 0
-27 575 0
575 25 28 29 30 0
-576 32 33 0
-32 576 0
-33 576 0
576 31 34 35 36 0
-571 577 0
-578 0
-572 579 0
-577 579 0
-572 -577 580 0
-578 580 0
-572 -578 0
-573 581 0
-579 581 0
-573 -579 582 0
-580 582 0
-573 -580 0
-574 583 0
-581 583 0
-574 -581 584 0
-582 584 0
-574 -582 0
-575 585 0
-583 585 0
-575 -583 586 0
-584 586 0
-575 -584 0
-576 -586 0
-589 2 3 4 0
-2 589 0
-3 589 0
-4 589 0
589 1 5 6 0
-590 8 9 10 0
-8 590 0
-9 590 0
-10 590 0
590 7 11 12 0
-591 14 15 16 0
-14 591 0
-15 591 0
-16 591 0
591 13 17 18 0
-592 20 21 22 0
-20 592 0
-21 592 0
-22 592 0
592 19 23 24 0
-593 26 27 28 0
-26 593 0
-27 593 0
-28 593 0
593 25 29 30 0
-594 32 33 34 0
-32 594 0
-33 594 0
-34 594 0
594 31 35 36 0
-589 595 0
-596 0
-597 0
-590 598 0
-595 598 0
-590 -595 599 0
-596 599 0
-590 -596 600 0
-597 600 0
-590 -597 0
-591 601 0
-598 601 0
-591 -598 602 0
-599 602 0
-591 -599 603 0
-600 603 0
-591 -600 0
-592 604 0
-601 604 0
-592 -601 605 0
-602 605 0
-592 -602 606 0
-603 606 0
-592 -603 0
-593 607 0
-604 607 0
-593 -604 608 0
-605 608 0
-593 -605 609 0
-606 609 0
-593 -606 0
-594 -609 0
-613 2 3 4 5 0
-2 613 0
-3 613 0
-4 613 0
-5 613 0
613 1 6 0
-614 8 9 10 11 0
-8 614 0
-9 614 0
-10 614 0
-11 614 0
614 7 12 0
-615 14 15 16 17 0
-14 615 0
-15 615 0
-16 615 0
-17 615 0
615 13 18 0
-616 20 21 22 23 0
-20 616 0
-21 616 0
-22 616 0
-23 616 0
616 19 24 0
-617 26 27 28 29 0
-26 617 0
-27 617 0
-28 617 0
-29 617 0
617 25 30 0
-618 32 33 34 35 0
-32 618 0
-33 618 0
-34 618 0
-35 618 0
618 31 36 0
-613 619 0
-620 0
-621 0
-622 0
-614 623 0
-619 623 0
-614 -619 624 0
-620 624 0
-614 -620 625 0
-621 625 0
-614 -621 626 0
-622 626 0
-614 -622 0
-615 627 0
-623 627 0
-615 -623 628 0
-624 628 0
-615 -624 629 0
-625 629 0
-615 -625 630 0
-626 630 0
-615 -626 0
-616 631 0
-627 631 0
-616 -627 632 0
-628 632 0
-616 -628 633 0
-629 633 0
-616 -629 634 0
-630 634 0
-616 -630 0
-617 635 0
-631 635 0
-617 -631 636 0
-632 636 0
-617 -632 637 0
-633 637 0
-617 -633 638 0
-634 638 0
-617 -634 0
-618 -638 0
-643 2 3 4 5 6 0
-2 643 0
-3 643 0
-4 643 0
-5 643 0
-6 643 0
643 1 0
-644 8 9 10 11 12 0
-8 644 0
-9 644 0
-10 644 0
-11 644 0
-12 644 0
644 7 0
-645 14 15 16 17 18 0
-14 645 0
-15 645 0
-16 645 0
-17 645 0
-18 645 0
645 13 0
-646 20 21 22 23 24 0
-20 646 0
-21 646 0
-22 646 0
-23 646 0
-24 646 0
646 19 0
-647 26 27 28 29 30 0
-26 647 0
-27 647 0
-28 647 0
-29 647 0
-30 647 0
647 25 0
-648 32 33 34 35 36 0
-32 648 0
-33 648 0
-34 648 0
-35 648 0
-36 648 0
648 31 0
-643 649 0
-650 0
-651 0
-652 0
-653 0
-644 654 0
-649 654 0
-644 -649 655 0
-650 655 0
-644 -650 656 0
-651 656 0
-644 -651 657 0
-652 657 0
-644 -652 658 0
-653 658 0
-644 -653 0
-645 659 0
-654 659 0
-645 -654 660 0
-655 660 0
-645 -655 661 0
-656 661 0
-645 -656 662 0
-657 662 0
-645 -657 663 0
-658 663 0
-645 -658 0
-646 664 0
-659 664 0
-646 -659 665 0
-660 665 0
-646 -660 666 0
-661 666 0
-646 -661 667 0
-662 667 0
-646 -662 668 0
-663 668 0
-646 -663 0
-647 669 0
-664 669 0
-647 -664 670 0
-665 670 0
-647 -665 671 0
-666 671 0
-647 -666 672 0
-667 672 0
-647 -667 673 0
-668 673 0
-647 -668 0
-648 -673 0
-679 3 0
-3 679 0
679 1 2 4 5 6 0
-680 9 0
-9 680 0
680 7 8 10 11 12 0
-681 15 0
-15 681 0
681 13 14 16 17 18 0
-682 21 0
-21 682 0
682 19 20 22 23 24 0
-683 27 0
-27 683 0
683 25 26 28 29 30 0
-684 33 0
-33 684 0
684 31 32 34 35 36 0
-679 685 0
-680 686 0
-685 686 0
-680 -685 0
-681 687 0
-686 687 0
-681 -686 0
-682 688 0
-687 688 0
-682 -687 0
-683 689 0
-688 689 0
-683 -688 0
-684 -689 0
-691 3 4 0
-3 691 0
-4 691 0
691 1 2 5 6 0
-692 9 10 0
-9 692 0
-10 692 0
692 7 8 11 12 0
-693 15 16 0
-15 693 0
-16 693 0
693 13 14 17 18 0
-694 21 22 0
-21 694 0
-22 694 0
694 19 20 23 24 0
-695 27 28 0
-27 695 0
-28 695 0
695 25 26 29 30 0
-696 33 34 0
-33 696 0
-34 696 0
696 31 32 35 36 0
-691 697 0
-698 0
-692 699 0
-697 699 0
-692 -697 700 0
-698 700 0
-692 -698 0
-693 701 0
-699 701 0
-693 -699 702 0
-700 702 0
-693 -700 0
-694 703 0
-701 703 0
-694 -701 704 0
-702 704 0
-694 -702 0
-695 705 0
-703 705 0
-695 -703 706 0
-704 706 0
-695 -704 0
-696 -706 0
-709 3 4 5 0
-3 709 0
-4 709 0
-5 709 0
709 1 2 6 0
-710 9 10 11 0
-9 710 0
-10 710 0
-11 710 0
710 7 8 12 0
-711 15 16 17 0
-15 711 0
-16 711 0
-17 711 0
711 13 14 18 0
-712 21 22 23 0
-21 712 0
-22 712 0
-23 712 0
712 19 20 24 0
-713 27 28 29 0
-27 713 0
-28 713 0
-29 713 0
713 25 26 30 0
-714 33 34 35 0
-33 714 0
-34 714 0
-35 714 0
714 31 32 36 0
-709 715 0
-716 0
-717 0
-710 718 0
-715 718 0
-710 -715 719 0
-716 719 0
-710 -716 720 0
-717 720 0
-710 -717 0
-711 721 0
-718 721 0
-711 -718 722 0
-719 722 0
-711 -719 723 0
-720 723 0
-711 -720 0
-712 724 0
-721 724 0
-712 -721 725 0
-722 725 0
-712 -722 726 0
-723 726 0
-712 -723 0
-713 727 0
-724 727 0
-713 -724 728 0
-725 728 0
-713 -725 729 0
-726 729 0
-713 -726 0
-714 -729 0
-733 3 4 5 6 0
-3 733 0
-4 733 0
-5 733 0
-6 733 0
733 1 2 0
-734 9 10 11 12 0
-9 734 0
-10 734 0
-11 734 0
-12 734 0
734 7 8 0
-735 15 16 17 18 0
-15 735 0
-16 735 0
-17 735 0
-18 735 0
735 13 14 0
-736 21 22 23 24 0
-21 736 0
-22 736 0
-23 736 0
-24 736 0
736 19 20 0
-737 27 28 29 30 0
-27 737 0
-28 737 0
-29 737 0
-30 737 0
737 25 26 0
-738 33 34 35 36 0
-33 738 0
-34 738 0
-35 738 0
-36 738 0
738 31 32 0
-733 739 0
-740 0
-741 0
-742 0
-734 743 0
-739 743 0
-734 -739 744 0
-740 744 0
-734 -740 745 0
-741 745 0
-734 -741 746 0
-742 746 0
-734 -742 0
-735 747 0
-743 747 0
-735 -743 748 0
-744 748 0
-735 -744 749 0
-745 749 0
-735 -745 750 0
-746 750 0
-735 -746 0
-736 751 0
-747 751 0
-736 -747 752 0
-748 752 0
-736 -748 753 0
-749 753 0
-736 -749 754 0
-750 754 0
-736 -750 0
-737 755 0
-751 755 0
-737 -751 756 0
-752 756 0
-737 -752 757 0
-753 757 0
-737 -753 758 0
-754 758 0
-737 -754 0
-738 -758 0
-763 4 0
-4 763 0
763 1 2 3 5 6 0
-764 10 0
-10 764 0
764 7 8 9 11 12 0
-765 16 0
-16 765 0
765 13 14 15 17 18 0
-766 22 0
-22 766 0
766 19 20 21 23 24 0
-767 28 0
-28 767 0
767 25 26 27 29 30 0
-768 34 0
-34 768 0
768 31 32 33 35 36 0
-763 769 0
-764 770 0
-769 770 0
-764 -769 0
-765 771 0
-770 771 0
-765 -770 0
-766 772 0
-771 772 0
-766 -771 0
-767 773 0
-772 773 0
-767 -772 0
-768 -773 0
-775 4 5 0
-4 775 0
-5 775 0
775 1 2 3 6 0
-776 10 11 0
-10 776 0
-11 776 0
776 7 8 9 12 0
-777 16 17 0
-16 777 0
-17 777 0
777 13 14 15 18 0
-778 22 23 0
-22 778 0
-23 778 0
778 19 20 21 24 0
-779 28 29 0
-28 779 0
-29 779 0
779 25 26 27 30 0
-780 34 35 0
-34 780 0
-35 780 0
780 31 32 33 36 0
-775 781 0
-782 0
-776 783 0
-781 783 0
-776 -781 784 0
-782 784 0
-776 -782 0
-777 785 0
-783 785 0
-777 -783 786 0
-784 786 0
-777 -784 0
-778 787 0
-785 787 0
-778 -785 788 0
-786 788 0
-778 -786 0
-779 789 0
-787 789 0
-779 -787 790 0
-788 790 0
-779 -788 0
-780 -790 0
-793 4 5 6 0
-4 793 0
-5 793 0
-6 793 0
793 1 2 3 0
-794 10 11 12 0
-10 794 0
-11 794 0
-12 794 0
794 7 8 9 0
-795 16 17 18 0
-16 795 0
-17 795 0
-18 795 0
795 13 14 15 0
-796 22 23 24 0
-22 796 0
-23 796 0
-24 796 0
796 19 20 21 0
-797 28 29 30 0
-28 797 0
-29 797 0
-30 797 0
797 25 26 27 0
-798 34 35 36 0
-34 798 0
-35 798 0
-36 798 0
798 31 32 33 0
-793 799 0
-800 0
-801 0
-794 802 0
-799 802 0
-794 -799 803 0
-800 803 0
-794 -800 804 0
-801 804 0
-794 -801 0
-795 805 0
-802 805 0
-795 -802 806 0
-803 806 0
-795 -803 807 0
-804 807 0
-795 -804 0
-796 808 0
-805 808 0
-796 -805 809 0
-806 809 0
-796 -806 810 0
-807 810 0
-796 -807 0
-797 811 0
-808 811 0
-797 -808 812 0
-809 812 0
-797 -809 813 0
-810 813 0
-797 -810 0
-798 -813 0
-817 5 0
-5 817 0
817 1 2 3 4 6 0
-818 11 0
-11 818 0
818 7 8 9 10 12 0
-819 17 0
-17 819 0
819 13 14 15 16 18 0
-820 23 0
-23 820 0
820 19 20 21 22 24 0
-821 29 0
-29 821 0
821 25 26 27 28 30 0
-822 35 0
-35 822 0
822 31 32 33 34 36 0
-817 823 0
-818 824 0
-823 824 0
-818 -823 0
-819 825 0
-824 825 0
-819 -824 0
-820 826 0
-825 826 0
-820 -825 0
-821 827 0
-826 827 0
-821 -826 0
-822 -827 0
-829 5 6 0
-5 829 0
-6 829 0
829 1 2 3 4 0
-830 11 12 0
-11 830 0
-12 830 0
830 7 8 9 10 0
-831 17 18 0
-17 831 0
-18 831 0
831 13 14 15 16 0
-832 23 24 0
-23 832 0
-24 832 0
832 19 20 21 22 0
-833 29 30 0
-29 833 0
-30 833 0
833 25 26 27 28 0
-834 35 36 0
-35 834 0
-36 834 0
834 31 32 33 34 0
-829 835 0
-836 0
-830 837 0
-835 837 0
-830 -835 838 0
-836 838 0
-830 -836 0
-831 839 0
-837 839 0
-831 -837 840 0
-838 840 0
-831 -838 0
-832 841 0
-839 841 0
-832 -839 842 0
-840 842 0
-832 -840 0
-833 843 0
-841 843 0
-833 -841 844 0
-842 844 0
-833 -842 0
-834 -844 0
-847 6 0
-6 847 0
847 1 2 3 4 5 0
-848 12 0
-12 848 0
848 7 8 9 10 11 0
-849 18 0
-18 849 0
849 13 14 15 16 17 0
-850 24 0
-24 850 0
850 19 20 21 22 23 0
-851 30 0
-30 851 0
851 25 26 27 28 29 0
-852 36 0
-36 852 0
852 31 32 33 34 35 0
-847 853 0
-848 854 0
-853 854 0
-848 -853 0
-849 855 0
-854 855 0
-849 -854 0
-850 856 0
-855 856 0
-850 -855 0
-851 857 0
-856 857 0
-851 -856 0
-852 -857 0
-1 859 0
-7 860 0
-859 860 0
-7 -859 0
-13 861 0
-860 861 0
-13 -860 0
-19 862 0
-861 862 0
-19 -861 0
-25 863 0
-862 863 0
-25 -862 0
-31 -863 0
1 7 13 19 25 31 0
-2 865 0
-8 866 0
-865 866 0
-8 -865 0
-14 867 0
-866 867 0
-14 -866 0
-20 868 0
-867 868 0
-20 -867 0
-26 869 0
-868 869 0
-26 -868 0
-32 -869 0
2 8 14 20 26 32 0
-3 871 0
-9 872 0
-871 872 0
-9 -871 0
-15 873 0
-872 873 0
-15 -872 0
-21 874 0
-873 874 0
-21 -873 0
-27 875 0
-874 875 0
-27 -874 0
-33 -875 0
3 9 15 21 27 33 0
-4 877 0
-10 878 0
-877 878 0
-10 -877 0
-16 879 0
-878 879 0
-16 -878 0
-22 880 0
-879 880 0
-22 -879 0
-28 881 0
-880 881 0
-28 -880 0
-34 -881 0
4 10 16 22 28 34 0
-5 883 0
-11 884 0
-883 884 0
-11 -883 0
-17 885 0
-884 885 0
-17 -884 0
-23 886 0
-885 886 0
-23 -885 0
-29 887 0
-886 887 0
-29 -886 0
-35 -887 0
5 11 17 23 29 35 0
-6 889 0
-12 890 0
-889 890 0
-12 -889 0
-18 891 0
-890 891 0
-18 -890 0
-24 892 0
-891 892 0
-24 -891 0
-30 893 0
-892 893 0
-30 -892 0
-36 -893 0
6 12 18 24 30 36 0
-895 37 0
-37 895 0
895 38 39 40 41 42 0
-896 43 0
-43 896 0
896 44 45 46 47 48 0
-897 49 0
-49 897 0
897 50 51 52 53 54 0
-898 55 0
-55 898 0
898 56 57 58 59 60 0
-899 61 0
-61 899 0
899 62 63 64 65 66 0
-900 67 0
-67 900 0
900 68 69 70 71 72 0
-895 901 0
-896 902 0
-901 902 0
-896 -901 0
-897 903 0
-902 903 0
-897 -902 0
-898 904 0
-903 904 0
-898 -903 0
-899 905 0
-904 905 0
-899 -904 0
-900 -905 0
-907 37 38 0
-37 907 0
-38 907 0
907 39 40 41 42 0
-908 43 44 0
-43 908 0
-44 908 0
908 45 46 47 48 0
-909 49 50 0
-49 909 0
-50 909 0
909 51 52 53 54 0
-910 55 56 0
-55 910 0
-56 910 0
910 57 58 59 60 0
-911 61 62 0
-61 911 0
-62 911 0
911 63 64 65 66 0
-912 67 68 0
-67 912 0
-68 912 0
912 69 70 71 72 0
-907 913 0
-914 0
-908 915 0
-913 915 0
-908 -913 916 0
-914 916 0
-908 -914 0
-909 917 0
-915 917 0
-909 -915 918 0
-916 918 0
-909 -916 0
-910 919 0
-917 919 0
-910 -917 920 0
-918 920 0
-910 -918 0
-911 921 0
-919 921 0
-911 -919 922 0
-920 922 0
-911 -920 0
-912 -922 0
-925 37 38 39 0
-37 925 0
-38 925 0
-39 925 0
925 40 41 42 0
-926 43 44 45 0
-43 926 0
-44 926 0
-45 926 0
926 46 47 48 0
-927 49 50 51 0
-49 927 0
-50 927 0
-51 927 0
927 52 53 54 0
-928 55 56 57 0
-55 928 0
-56 928 0
-57 928 0
928 58 59 60 0
-929 61 62 63 0
-61 929 0
-62 929 0
-63 929 0
929 64 65 66 0
-930 67 68 69 0
-67 930 0
-68 930 0
-69 930 0
930 70 71 72 0
-925 931 0
-932 0
-933 0
-926 934 0
-931 934 0
-926 -931 935 0
-932 935 0
-926 -932 936 0
-933 936 0
-926 -933 0
-927 937 0
-934 937 0
-927 -934 938 0
-935 938 0
-927 -935 939 0
-936 939 0
-927 -936 0
-928 940 0
-937 940 0
-928 -937 941 0
-938 941 0
-928 -938 942 0
-939 942 0
-928 -939 0
-929 943 0
-940 943 0
-929 -940 944 0
-941 944 0
-929 -941 945 0
-942 945 0
-929 -942 0
-930 -945 0
-949 37 38 39 40 0
-37 949 0
-38 949 0
-39 949 0
-40 949 0
949 41 42 0
-950 43 44 45 46 0
-43 950 0
-44 950 0
-45 950 0
-46 950 0
950 47 48 0
-951 49 50 51 52 0
-49 951 0
-50 951 0
-51 951 0
-52 951 0
951 53 54 0
-952 55 56 57 58 0
-55 952 0
-56 952 0
-57 952 0
-58 952 0
952 59 60 0
-953 61 62 63 64 0
-61 953 0
-62 953 0
-63 953 0
-64 953 0
953 65 66 0
-954 67 68 69 70 0
-67 954 0
-68 954 0
-69 954 0
-70 954 0
954 71 72 0
-949 955 0
-956 0
-957 0
-958 0
-950 959 0
-955 959 0
-950 -955 960 0
-956 960 0
-950 -956 961 0
-957 961 0
-950 -957 962 0
-958 962 0
-950 -958 0
-951 963 0
-959 963 0
-951 -959 964 0
-960 964 0
-951 -960 965 0
-961 965 0
-951 -961 966 0
-962 966 0
-951 -962 0
-952 967 0
-963 967 0
-952 -963 968 0
-964 968 0
-952 -964 969 0
-965 969 0
-952 -965 970 0
-966 970 0
-952 -966 0
-953 971 0
-967 971 0
-953 -967 972 0
-968 972 0
-953 -968 973 0
-969 973 0
-953 -969 974 0
-970 974 0
-953 -970 0
-954 -974 0
-979 37 38 39 40 41 0
-37 979 0
-38 979 0
-39 979 0
-40 979 0
-41 979 0
979 42 0
-980 43 44 45 46 47 0
-43 980 0
-44 980 0
-45 980 0
-46 980 0
-47 980 0
980 48 0
-981 49 50 51 52 53 0
-49 981 0
-50 981 0
-51 981 0
-52 981 0
-53 981 0
981 54 0
-982 55 56 57 58 59 0
-55 982 0
-56 982 0
-57 982 0
-58 982 0
-59 982 0
982 60 0
-983 61 62 63 64 65 0
-61 983 0
-62 983 0
-63 983 0
-64 983 0
-65 983 0
983 66 0
-984 67 68 69 70 71 0
-67 984 0
-68 984 0
-69 984 0
-70 984 0
-71 984 0
984 72 0
-979 985 0
-986 0
-987 0
-988 0
-989 0
-980 990 0
-985 990 0
-980 -985 991 0
-986 991 0
-980 -986 992 0
-987 992 0
-980 -987 993 0
-988 993 0
-980 -988 994 0
-989 994 0
-980 -989 0
-981 995 0
-990 995 0
-981 -990 996 0
-991 996 0
-981 -991 997 0
-992 997 0
-981 -992 998 0
-993 998 0
-981 -993 999 0
-994 999 0
-981 -994 0
-982 1000 0
-995 1000 0
-982 -995 1001 0
-996 1001 0
-982 -996 1002 0
-997 1002 0
-982 -997 1003 0
-998 1003 0
-982 -998 1004 0
-999 1004 0
-982 -999 0
-983 1005 0
-1000 1005 0
-983 -1000 1006 0
-1001 1006 0
-983 -1001 1007 0
-1002 1007 0
-983 -1002 1008 0
-1003 1008 0
-983 -1003 1009 0
-1004 1009 0
-983 -1004 0
-984 -1009 0
-1015 37 38 39 40 41 42 0
-37 1015 0
-38 1015 0
-39 1015 0
-40 1015 0
-41 1015 0
-42 1015 0
1015 0
-1016 43 44 45 46 47 48 0
-43 1016 0
-44 1016 0
-45 1016 0
-46 1016 0
-47 1016 0
-48 1016 0
1016 0
-1017 49 50 51 52 53 54 0
-49 1017 0
-50 1017 0
-51 1017 0
-52 1017 0
-53 1017 0
-54 1017 0
1017 0
-1018 55 56 57 58 59 60 0
-55 1018 0
-56 1018 0
-57 1018 0
-58 1018 0
-59 1018 0
-60 1018 0
1018 0
-1019 61 62 63 64 65 66 0
-61 1019 0
-62 1019 0
-63 1019 0
-64 1019 0
-65 1019 0
-66 1019 0
1019 0
-1020 67 68 69 70 71 72 0
-67 1020 0
-68 1020 0
-69 1020 0
-70 1020 0
-71 1020 0
-72 1020 0
1020 0
-1021 38 0
-38 1021 0
1021 37 39 40 41 42 0
-1022 44 0
-44 1022 0
1022 43 45 46 47 48 0
-1023 50 0
-50 1023 0
1023 49 51 52 53 54 0
-1024 56 0
-56 1024 0
1024 55 57 58 59 60 0
-1025 62 0
-62 1025 0
1025 61 63 64 65 66 0
-1026 68 0
-68 1026 0
1026 67 69 70 71 72 0
-1021 1027 0
-1022 1028 0
-1027 1028 0
-1022 -1027 0
-1023 1029 0
-1028 1029 0
-1023 -1028 0
-1024 1030 0
-1029 1030 0
-1024 -1029 0
-1025 1031 0
-1030 1031 0
-1025 -1030 0
-1026 -1031 0
-1033 38 39 0
-38 1033 0
-39 1033 0
1033 37 40 41 42 0
-1034 44 45 0
-44 1034 0
-45 1034 0
1034 43 46 47 48 0
-1035 50 51 0
-50 1035 0
-51 1035 0
1035 49 52 53 54 0
-1036 56 57 0
-56 1036 0
-57 1036 0
1036 55 58 59 60 0
-1037 62 63 0
-62 1037 0
-63 1037 0
1037 61 64 65 66 0
-1038 68 69 0
-68 1038 0
-69 1038 0
1038 67 70 71 72 0
-1033 1039 0
-1040 0
-1034 1041 0
-1039 1041 0
-1034 -1039 1042 0
-1040 1042 0
-1034 -1040 0
-1035 1043 0
-1041 1043 0
-1035 -1041 1044 0
-1042 1044 0
-1035 -1042 0
-1036 1045 0
-1043 1045 0
-1036 -1043 1046 0
-1044 1046 0
-1036 -1044 0
-1037 1047 0
-1045 1047 0
-1037 -1045 1048 0
-1046 1048 0
-1037 -1046 0
-1038 -1048 0
-1051 38 39 40 0
-38 1051 0
-39 1051 0
-40 1051 0
1051 37 41 42 0
-1052 44 45 46 0
-44 1052 0
-45 1052 0
-46 1052 0
1052 43 47 48 0
-1053 50 51 52 0
-50 1053 0
-51 1053 0
-52 1053 0
1053 49 53 54 0
-1054 56 57 58 0
-56 1054 0
-57 1054 0
-58 1054 0
1054 55 59 60 0
-1055 62 63 64 0
-62 1055 0
-63 1055 0
-64 1055 0
1055 61 65 66 0
-1056 68 69 70 0
-68 1056 0
-69 1056 0
-70 1056 0
1056 67 71 72 0
-1051 1057 0
-1058 0
-1059 0
-1052 1060 0
-1057 1060 0
-1052 -1057 1061 0
-1058 1061 0
-1052 -1058 1062 0
-1059 1062 0
-1052 -1059 0
-1053 1063 0
-1060 1063 0
-1053 -1060 1064 0
-1061 1064 0
-1053 -1061 1065 0
-1062 1065 0
-1053 -1062 0
-1054 1066 0
-1063 1066 0
-1054 -1063 1067 0
-1064 1067 0
-1054 -1064 1068 0
-1065 1068 0
-1054 -1065 0
-1055 1069 0
-1066 1069 0
-1055 -1066 1070 0
-1067 1070 0
-1055 -1067 1071 0
-1068 1071 0
-1055 -1068 0
-1056 -1071 0
-1075 38 39 40 41 0
-38 1075 0
-39 1075 0
-40 1075 0
-41 1075 0
1075 37 42 0
-1076 44 45 46 47 0
-44 1076 0
-45 1076 0
-46 1076 0
-47 1076 0
1076 43 48 0
-1077 50 51 52 53 0
-50 1077 0
-51 1077 0
-52 1077 0
-53 1077 0
1077 49 54 0
-1078 56 57 58 59 0
-56 1078 0
-57 1078 0
-58 1078 0
-59 1078 0
1078 55 60 0
-1079 62 63 64 65 0
-62 1079 0
-63 1079 0
-64 1079 0
-65 1079 0
1079 61 66 0
-1080 68 69 70 71 0
-68 1080 0
-69 1080 0
-70 1080 0
-71 1080 0
1080 67 72 0
-1075 1081 0
-1082 0
-1083 0
-1084 0
-1076 1085 0
-1081 1085 0
-1076 -1081 1086 0
-1082 1086 0
-1076 -1082 1087 0
-1083 1087 0
-1076 -1083 1088 0
-1084 1088 0
-1076 -1084 0
-1077 1089 0
-1085 1089 0
-1077 -1085 1090 0
-1086 1090 0
-1077 -1086 1091 0
-1087 1091 0
-1077 -1087 1092 0
-1088 1092 0
-1077 -1088 0
-1078 1093 0
-1089 1093 0
-1078 -1089 1094 0
-1090 1094 0
-1078 -1090 1095 0
-1091 1095 0
-1078 -1091 1096 0
-1092 1096 0
-1078 -1092 0
-1079 1097 0
-1093 1097 0
-1079 -1093 1098 0
-1094 1098 0
-1079 -1094 1099 0
-1095 1099 0
-1079 -1095 1100 0
-1096 1100 0
-1079 -1096 0
-1080 -1100 0
-1105 38 39 40 41 42 0
-38 1105 0
-39 1105 0
-40 1105 0
-41 1105 0
-42 1105 0
1105 37 0
-1106 44 45 46 47 48 0
-44 1106 0
-45 1106 0
-46 1106 0
-47 1106 0
-48 1106 0
1106 43 0
-1107 50 51 52 53 54 0
-50 1107 0
-51 1107 0
-52 1107 0
-53 1107 0
-54 1107 0
1107 49 0
-1108 56 57 58 59 60 0
-56 1108 0
-57 1108 0
-58 1108 0
-59 1108 0
-60 1108 0
1108 55 0
-1109 62 63 64 65 66 0
-62 1109 0
-63 1109 0
-64 1109 0
-65 1109 0
-66 1109 0
1109 61 0
-1110 68 69 70 71 72 0
-68 1110 0
-69 1110 0
-70 1110 0
-71 1110 0
-72 1110 0
1110 67 0
-1105 1111 0
-1112 0
-1113 0
-1114 0
-1115 0
-1106 1116 0
-1111 1116 0
-1106 -1111 1117 0
-1112 1117 0
-1106 -1112 1118 0
-1113 1118 0
-1106 -1113 1119 0
-1114 1119 0
-1106 -1114 1120 0
-1115 1120 0
-1106 -1115 0
-1107 1121 0
-1116 1121 0
-1107 -1116 1122 0
-1117 1122 0
-1107 -1117 1123 0
-1118 1123 0
-1107 -1118 1124 0
-1119 1124 0
-1107 -1119 1125 0
-1120 1125 0
-1107 -1120 0
-1108 1126 0
-1121 1126 0
-1108 -1121 1127 0
-1122 1127 0
-1108 -1122 1128 0
-1123 1128 0
-1108 -1123 1129 0
-1124 1129 0
-1108 -1124 1130 0
-1125 1130 0
-1108 -1125 0
-1109 1131 0
-1126 1131 0
-1109 -1126 1132 0
-1127 1132 0
-1109 -1127 1133 0
-1128 1133 0
-1109 -1128 1134 0
-1129 1134 0
-1109 -1129 1135 0
-1130 1135 0
-1109 -1130 0
-1110 -1135 0
-1141 39 0
-39 1141 0
1141 37 38 40 41 42 0
-1142 45 0
-45 1142 0
1142 43 44 46 47 48 0
-1143 51 0
-51 1143 0
1143 49 50 52 53 54 0
-1144 57 0
-57 1144 0
1144 55 56 58 59 60 0
-1145 63 0
-63 1145 0
1145 61 62 64 65 66 0
-1146 69 0
-69 1146 0
1146 67 68 70 71 72 0
-1141 1147 0
-1142 1148 0
-1147 1148 0
-1142 -1147 0
-1143 1149 0
-1148 1149 0
-1143 -1148 0
-1144 1150 0
-1149 1150 0
-1144 -1149 0
-1145 1151 0
-1150 1151 0
-1145 -1150 0
-1146 -1151 0
-1153 39 40 0
-39 1153 0
-40 1153 0
1153 37 38 41 42 0
-1154 45 46 0
-45 1154 0
-46 1154 0
1154 43 44 47 48 0
-1155 51 52 0
-51 1155 0
-52 1155 0
1155 49 50 53 54 0
-1156 57 58 0
-57 1156 0
-58 1156 0
1156 55 56 59 60 0
-1157 63 64 0
-63 1157 0
-64 1157 0
1157 61 62 65 66 0
-1158 69 70 0
-69 1158 0
-70 1158 0
1158 67 68 71 72 0
-1153 1159 0
-1160 0
-1154 1161 0
-1159 1161 0
-1154 -1159 1162 0
-1160 1162 0
-1154 -1160 0
-1155 1163 0
-1161 1163 0
-1155 -1161 1164 0
-1162 1164 0
-1155 -1162 0
-1156 1165 0
-1163 1165 0
-1156 -1163 1166 0
-1164 1166 0
-1156 -1164 0
-1157 1167 0
-1165 1167 0
-1157 -1165 1168 0
-1166 1168 0
-1157 -1166 0
-1158 -1168 0
-1171 39 40 41 0
-39 1171 0
-40 1171 0
-41 1171 0
1171 37 38 42 0
-1172 45 46 47 0
-45 1172 0
-46 1172 0
-47 1172 0
1172 43 44 48 0
-1173 51 52 53 0
-51 1173 0
-52 1173 0
-53 1173 0
1173 49 50 54 0
-1174 57 58 59 0
-57 1174 0
-58 1174 0
-59 1174 0
1174 55 56 60 0
-1175 63 64 65 0
-63 1175 0
-64 1175 0
-65 1175 0
1175 61 62 66 0
-1176 69 70 71 0
-69 1176 0
-70 1176 0
-71 1176 0
1176 67 68 72 0
-1171 1177 0
-1178 0
-1179 0
-1172 1180 0
-1177 1180 0
-1172 -1177 1181 0
-1178 1181 0
-1172 -1178 1182 0
-1179 1182 0
-1172 -1179 0
-1173 1183 0
-1180 1183 0
-1173 -1180 1184 0
-1181 1184 0
-1173 -1181 1185 0
-1182 1185 0
-1173 -1182 0
-1174 1186 0
-1183 1186 0
-1174 -1183 1187 0
-1184 1187 0
-1174 -1184 1188 0
-1185 1188 0
-1174 -1185 0
-1175 1189 0
-1186 1189 0
-1175 -1186 1190 0
-1187 1190 0
-1175 -1187 1191 0
-1188 1191 0
-1175 -1188 0
-1176 -1191 0
-1195 39 40 41 42 0
-39 1195 0
-40 1195 0
-41 1195 0
-42 1195 0
1195 37 38 0
-1196 45 46 47 48 0
-45 1196 0
-46 1196 0
-47 1196 0
-48 1196 0
1196 43 44 0
-1197 51 52 53 54 0
-51 1197 0
-52 1197 0
-53 1197 0
-54 1197 0
1197 49 50 0
-1198 57 58 59 60 0
-57 1198 0
-58 1198 0
-59 1198 0
-60 1198 0
1198 55 56 0
-1199 63 64 65 66 0
-63 1199 0
-64 1199 0
-65 1199 0
-66 1199 0
1199 61 62 0
-1200 69 70 71 72 0
-69 1200 0
-70 1200 0
-71 1200 0
-72 1200 0
1200 67 68 0
-1195 1201 0
-1202 0
-1203 0
-1204 0
-1196 1205 0
-1201 1205 0
-1196 -1201 1206 0
-1202 1206 0
-1196 -1202 1207 0
-1203 1207 0
-1196 -1203 1208 0
-1204 1208 0
-1196 -1204 0
-1197 1209 0
-1205 1209 0
-1197 -1205 1210 0
-1206 1210 0
-1197 -1206 1211 0
-1207 1211 0
-1197 -1207 1212 0
-1208 1212 0
-1197 -1208 0
-1198 1213 0
-1209 1213 0
-1198 -1209 1214 0
-1210 1214 0
-1198 -1210 1215 0
-1211 1215 0
-1198 -1211 1216 0
-1212 1216 0
-1198 -1212 0
-1199 1217 0
-1213 1217 0
-1199 -1213 1218 0
-1214 1218 0
-1199 -1214 1219 0
-1215 1219 0
-1199 -1215 1220 0
-1216 1220 0
-1199 -1216 0
-1200 -1220 0
-1225 40 0
-40 1225 0
1225 37 38 39 41 42 0
-1226 46 0
-46 1226 0
1226 43 44 45 47 48 0
-1227 52 0
-52 1227 0
1227 49 50 51 53 54 0
-1228 58 0
-58 1228 0
1228 55 56 57 59 60 0
-1229 64 0
-64 1229 0
1229 61 62 63 65 66 0
-1230 70 0
-70 1230 0
1230 67 68 69 71 72 0
-1225 1231 0
-1226 1232 0
-1231 1232 0
-1226 -1231 0
-1227 1233 0
-1232 1233 0
-1227 -1232 0
-1228 1234 0
-1233 1234 0
-1228 -1233 0
-1229 1235 0
-1234 1235 0
-1229 -1234 0
-1230 -1235 0
-1237 40 41 0
-40 1237 0
-41 1237 0
1237 37 38 39 42 0
-1238 46 47 0
-46 1238 0
-47 1238 0
1238 43 44 45 48 0
-1239 52 53 0
-52 1239 0
-53 1239 0
1239 49 50 51 54 0
-1240 58 59 0
-58 1240 0
-59 1240 0
1240 55 56 57 60 0
-1241 64 65 0
-64 1241 0
-65 1241 0
1241 61 62 63 66 0
-1242 70 71 0
-70 1242 0
-71 1242 0
1242 67 68 69 72 0
-1237 1243 0
-1244 0
-1238 1245 0
-1243 1245 0
-1238 -1243 1246 0
-1244 1246 0
-1238 -1244 0
-1239 1247 0
-1245 1247 0
-1239 -1245 1248 0
-1246 1248 0
-1239 -1246 0
-1240 1249 0
-1247 1249 0
-1240 -1247 1250 0
-1248 1250 0
-1240 -1248 0
-1241 1251 0
-1249 1251 0
-1241 -1249 1252 0
-1250 1252 0
-1241 -1250 0
-1242 -1252 0
-1255 40 41 42 0
-40 1255 0
-41 1255 0
-42 1255 0
1255 37 38 39 0
-1256 46 47 48 0
-46 1256 0
-47 1256 0
-48 1256 0
1256 43 44 45 0
-1257 52 53 54 0
-52 1257 0
-53 1257 0
-54 1257 0
1257 49 50 51 0
-1258 58 59 60 0
-58 1258 0
-59 1258 0
-60 1258 0
1258 55 56 57 0
-1259 64 65 66 0
-64 1259 0
-65 1259 0
-66 1259 0
1259 61 62 63 0
-1260 70 71 72 0
-70 1260 0
-71 1260 0
-72 1260 0
1260 67 68 69 0
-1255 1261 0
-1262 0
-1263 0
-1256 1264 0
-1261 1264 0
-1256 -1261 1265 0
-1262 1265 0
-1256 -1262 1266 0
-1263 1266 0
-1256 -1263 0
-1257 1267 0
-1264 1267 0
-1257 -1264 1268 0
-1265 1268 0
-1257 -1265 1269 0
-1266 1269 0
-1257 -1266 0
-1258 1270 0
-1267 1270 0
-1258 -1267 1271 0
-1268 1271 0
-1258 -1268 1272 0
-1269 1272 0
-1258 -1269 0
-1259 1273 0
-1270 1273 0
-1259 -1270 1274 0
-1271 1274 0
-1259 -1271 1275 0
-1272 1275 0
-1259 -1272 0
-1260 -1275 0
-1279 41 0
-41 1279 0
1279 37 38 39 40 42 0
-1280 47 0
-47 1280 0
1280 43 44 45 46 48 0
-1281 53 0
-53 1281 0
1281 49 50 51 52 54 0
-1282 59 0
-59 1282 0
1282 55 56 57 58 60 0
-1283 65 0
-65 1283 0
1283 61 62 63 64 66 0
-1284 71 0
-71 1284 0
1284 67 68 69 70 72 0
-1279 1285 0
-1280 1286 0
-1285 1286 0
-1280 -1285 0
-1281 1287 0
-1286 1287 0
-1281 -1286 0
-1282 1288 0
-1287 1288 0
-1282 -1287 0
-1283 1289 0
-1288 1289 0
-1283 -1288 0
-1284 -1289 0
-1291 41 42 0
-41 1291 0
-42 1291 0
1291 37 38 39 40 0
-1292 47 48 0
-47 1292 0
-48 1292 0
1292 43 44 45 46 0
-1293 53 54 0
-53 1293 0
-54 1293 0
1293 49 50 51 52 0
-1294 59 60 0
-59 1294 0
-60 1294 0
1294 55 56 57 58 0
-1295 65 66 0
-65 1295 0
-66 1295 0
1295 61 62 63 64 0
-1296 71 72 0
-71 1296 0
-72 1296 0
1296 67 68 69 70 0
-1291 1297 0
-1298 0
-1292 1299 0
-1297 1299 0
-1292 -1297 1300 0
-1298 1300 0
-1292 -1298 0
-1293 1301 0
-1299 1301 0
-1293 -1299 1302 0
-1300 1302 0
-1293 -1300 0
-1294 1303 0
-1301 1303 0
-1294 -1301 1304 0
-1302 1304 0
-1294 -1302 0
-1295 1305 0
-1303 1305 0
-1295 -1303 1306 0
-1304 1306 0
-1295 -1304 0
-1296 -1306 0
-1309 42 0
-42 1309 0
1309 37 38 39 40 41 0
-1310 48 0
-48 1310 0
1310 43 44 45 46 47 0
-1311 54 0
-54 1311 0
1311 49 50 51 52 53 0
-1312 60 0
-60 1312 0
1312 55 56 57 58 59 0
-1313 66 0
-66 1313 0
1313 61 62 63 64 65 0
-1314 72 0
-72 1314 0
1314 67 68 69 70 71 0
-1309 1315 0
-1310 1316 0
-1315 1316 0
-1310 -1315 0
-1311 1317 0
-1316 1317 0
-1311 -1316 0
-1312 1318 0
-1317 1318 0
-1312 -1317 0
-1313 1319 0
-1318 1319 0
-1313 -1318 0
-1314 -1319 0
-37 1321 0
-43 1322 0
-1321 1322 0
-43 -1321 0
-49 1323 0
-1322 1323 0
-49 -1322 0
-55 1324 0
-1323 1324 0
-55 -1323 0
-61 1325 0
-1324 1325 0
-61 -1324 0
-67 -1325 0
37 43 49 55 61 67 0
-38 1327 0
-44 1328 0
-1327 1328 0
-44 -1327 0
-50 1329 0
-1328 1329 0
-50 -1328 0
-56 1330 0
-1329 1330 0
-56 -1329 0
-62 1331 0
-1330 1331 0
-62 -1330 0
-68 -1331 0
38 44 50 56 62 68 0
-39 1333 0
-45 1334 0
-1333 1334 0
-45 -1333 0
-51 1335 0
-1334 1335 0
-51 -1334 0
-57 1336 0
-1335 1336 0
-57 -1335 0
-63 1337 0
-1336 1337 0
-63 -1336 0
-69 -1337 0
39 45 51 57 63 69 0
-40 1339 0
-46 1340 0
-1339 1340 0
-46 -1339 0
-52 1341 0
-1340 1341 0
-52 -1340 0
-58 1342 0
-1341 1342 0
-58 -1341 0
-64 1343 0
-1342 1343 0
-64 -1342 0
-70 -1343 0
40 46 52 58 64 70 0
-41 1345 0
-47 1346 0
-1345 1346 0
-47 -1345 0
-53 1347 0
-1346 1347 0
-53 -1346 0
-59 1348 0
-1347 1348 0
-59 -1347 0
-65 1349 0
-1348 1349 0
-65 -1348 0
-71 -1349 0
41 47 53 59 65 71 0
-42 1351 0
-48 1352 0
-1351 1352 0
-48 -1351 0
-54 1353 0
-1352 1353 0
-54 -1352 0
-60 1354 0
-1353 1354 0
-60 -1353 0
-66 1355 0
-1354 1355 0
-66 -1354 0
-72 -1355 0
42 48 54 60 66 72 0
-1357 73 0
-73 1357 0
1357 74 75 76 77 78 0
-1358 79 0
-79 1358 0
1358 80 81 82 83 84 0
-1359 85 0
-85 1359 0
1359 86 87 88 89 90 0
-1360 91 0
-91 1360 0
1360 92 93 94 95 96 0
-1361 97 0
-97 1361 0
1361 98 99 100 101 102 0
-1362 103 0
-103 1362 0
1362 104 105 106 107 108 0
-1357 1363 0
-1358 1364 0
-1363 1364 0
-1358 -1363 0
-1359 1365 0
-1364 1365 0
-1359 -1364 0
-1360 1366 0
-1365 1366 0
-1360 -1365 0
-1361 1367 0
-1366 1367 0
-1361 -1366 0
-1362 -1367 0
-1369 73 74 0
-73 1369 0
-74 1369 0
1369 75 76 77 78 0
-1370 79 80 0
-79 1370 0
-80 1370 0
1370 81 82 83 84 0
-1371 85 86 0
-85 1371 0
-86 1371 0
1371 87 88 89 90 0
-1372 91 92 0
-91 1372 0
-92 1372 0
1372 93 94 95 96 0
-1373 97 98 0
-97 1373 0
-98 1373 0
1373 99 100 101 102 0
-1374 103 104 0
-103 1374 0
-104 1374 0
1374 105 106 107 108 0
-1369 1375 0
-1376 0
-1370 1377 0
-1375 1377 0
-1370 -1375 1378 0
-1376 1378 0
-1370 -1376 0
-1371 1379 0
-1377 1379 0
-1371 -1377 1380 0
-1378 1380 0
-1371 -1378 0
-1372 1381 0
-1379 1381 0
-1372 -1379 1382 0
-1380 1382 0
-1372 -1380 0
-1373 1383 0
-1381 1383 0
-1373 -1381 1384 0
-1382 1384 0
-1373 -1382 0
-1374 -1384 0
-1387 73 74 75 0
-73 1387 0
-74 1387 0
-75 1387 0
1387 76 77 78 0
-1388 79 80 81 0
-79 1388 0
-80 1388 0
-81 1388 0
1388 82 83 84 0
-1389 85 86 87 0
-85 1389 0
-86 1389 0
-87 1389 0
1389 88 89 90 0
-1390 91 92 93 0
-91 1390 0
-92 1390 0
-93 1390 0
1390 94 95 96 0
-1391 97 98 99 0
-97 1391 0
-98 1391 0
-99 1391 0
1391 100 101 102 0
-1392 103 104 105 0
-103 1392 0
-104 1392 0
-105 1392 0
1392 106 107 108 0
-1387 1393 0
-1394 0
-1395 0
-1388 1396 0
-1393 1396 0
-1388 -1393 1397 0
-1394 1397 0
-1388 -1394 1398 0
-1395 1398 0
-1388 -1395 0
-1389 1399 0
-1396 1399 0
-1389 -1396 1400 0
-1397 1400 0
-1389 -1397 1401 0
-1398 1401 0
-1389 -1398 0
-1390 1402 0
-1399 1402 0
-1390 -1399 1403 0
-1400 1403 0
-1390 -1400 1404 0
-1401 1404 0
-1390 -1401 0
-1391 1405 0
-1402 1405 0
-1391 -1402 1406 0
-1403 1406 0
-1391 -1403 1407 0
-1404 1407 0
-1391 -1404 0
-1392 -1407 0
-1411 73 74 75 76 0
-73 1411 0
-74 1411 0
-75 1411 0
-76 1411 0
1411 77 78 0
-1412 79 80 81 82 0
-79 1412 0
-80 1412 0
-81 1412 0
-82 1412 0
1412 83 84 0
-1413 85 86 87 88 0
-85 1413 0
-86 1413 0
-87 1413 0
-88 1413 0
1413 89 90 0
-1414 91 92 93 94 0
-91 1414 0
-92 1414 0
-93 1414 0
-94 1414 0
1414 95 96 0
-1415 97 98 99 100 0
-97 1415 0
-98 1415 0
-99 1415 0
-100 1415 0
1415 101 102 0
-1416 103 104 105 106 0
-103 1416 0
-104 1416 0
-105 1416 0
-106 1416 0
1416 107 108 0
-1411 1417 0
-1418 0
-1419 0
-1420 0
-1412 1421 0
-1417 1421 0
-1412 -1417 1422 0
-1418 1422 0
-1412 -1418 1423 0
-1419 1423 0
-1412 -1419 1424 0
-1420 1424 0
-1412 -1420 0
-1413 1425 0
-1421 1425 0
-1413 -1421 1426 0
-1422 1426 0
-1413 -1422 1427 0
-1423 1427 0
-1413 -1423 1428 0
-1424 1428 0
-1413 -1424 0
-1414 1429 0
-1425 1429 0
-1414 -1425 1430 0
-1426 1430 0
-1414 -1426 1431 0
-1427 1431 0
-1414 -1427 1432 0
-1428 1432 0
-1414 -1428 0
-1415 1433 0
-1429 1433 0
-1415 -1429 1434 0
-1430 1434 0
-1415 -1430 1435 0
-1431 1435 0
-1415 -1431 1436 0
-1432 1436 0
-1415 -1432 0
-1416 -1436 0
-1441 73 74 75 76 77 0
-73 1441 0
-74 1441 0
-75 1441 0
-76 1441 0
-77 1441 0
1441 78 0
-1442 79 80 81 82 83 0
-79 1442 0
-80 1442 0
-81 1442 0
-82 1442 0
-83 1442 0
1442 84 0
-1443 85 86 87 88 89 0
-85 1443 0
-86 1443 0
-87 1443 0
-88 1443 0
-89 1443 0
1443 90 0
-1444 91 92 93 94 95 0
-91 1444 0
-92 1444 0
-93 1444 0
-94 1444 0
-95 1444 0
1444 96 0
-1445 97 98 99 100 101 0
-97 1445 0
-98 1445 0
-99 1445 0
-100 1445 0
-101 1445 0
1445 102 0
-1446 103 104 105 106 107 0
-103 1446 0
-104 1446 0
-105 1446 0
-106 1446 0
-107 1446 0
1446 108 0
-1441 1447 0
-1448 0
-1449 0
-1450 0
-1451 0
-1442 1452 0
-1447 1452 0
-1442 -1447 1453 0
-1448 1453 0
-1442 -1448 1454 0
-1449 1454 0
-1442 -1449 1455 0
-1450 1455 0
-1442 -1450 1456 0
-1451 1456 0
-1442 -1451 0
-1443 1457 0
-1452 1457 0
-1443 -1452 1458 0
-1453 1458 0
-1443 -1453 1459 0
-1454 1459 0
-1443 -1454 1460 0
-1455 1460 0
-1443 -1455 1461 0
-1456 1461 0
-1443 -1456 0
-1444 1462 0
-1457 1462 0
-1444 -1457 1463 0
-1458 1463 0
-1444 -1458 1464 0
-1459 1464 0
-1444 -1459 1465 0
-1460 1465 0
-1444 -1460 1466 0
-1461 1466 0
-1444 -1461 0
-1445 1467 0
-1462 1467 0
-1445 -1462 1468 0
-1463 1468 0
-1445 -1463 1469 0
-1464 1469 0
-1445 -1464 1470 0
-1465 1470 0
-1445 -1465 1471 0
-1466 1471 0
-1445 -1466 0
-1446 -1471 0
-1477 73 74 75 76 77 78 0
-73 1477 0
-74 1477 0
-75 1477 0
-76 1477 0
-77 1477 0
-78 1477 0
1477 0
-1478 79 80 81 82 83 84 0
-79 1478 0
-80 1478 0
-81 1478 0
-82 1478 0
-83 1478 0
-84 1478 0
1478 0
-1479 85 86 87 88 89 90 0
-85 1479 0
-86 1479 0
-87 1479 0
-88 1479 0
-89 1479 0
-90 1479 0
1479 0
-1480 91 92 93 94 95 96 0
-91 1480 0
-92 1480 0
-93 1480 0
-94 1480 0
-95 1480 0
-96 1480 0
1480 0
-1481 97 98 99 100 101 102 0
-97 1481 0
-98 1481 0
-99 1481 0
-100 1481 0
-101 1481 0
-102 1481 0
1481 0
-1482 103 104 105 106 107 108 0
-103 1482 0
-104 1482 0
-105 1482 0
-106 1482 0
-107 1482 0
-108 1482 0
1482 0
-1483 74 0
-74 1483 0
1483 73 75 76 77 78 0
-1484 80 0
-80 1484 0
1484 79 81 82 83 84 0
-1485 86 0
-86 1485 0
1485 85 87 88 89 90 0
-1486 92 0
-92 1486 0
1486 91 93 94 95 96 0
-1487 98 0
-98 1487 0
1487 97 99 100 101 102 0
-1488 104 0
-104 1488 0
1488 103 105 106 107 108 0
-1483 1489 0
-1484 1490 0
-1489 1490 0
-1484 -1489 0
-1485 1491 0
-1490 1491 0
-1485 -1490 0
-1486 1492 0
-1491 1492 0
-1486 -1491 0
-1487 1493 0
-1492 1493 0
-1487 -1492 0
-1488 -1493 0
-1495 74 75 0
-74 1495 0
-75 1495 0
1495 73 76 77 78 0
-1496 80 81 0
-80 1496 0
-81 1496 0
1496 79 82 83 84 0
-1497 86 87 0
-86 1497 0
-87 1497 0
1497 85 88 89 90 0
-1498 92 93 0
-92 1498 0
-93 1498 0
1498 91 94 95 96 0
-1499 98 99 0
-98 1499 0
-99 1499 0
1499 97 100 101 102 0
-1500 104 105 0
-104 1500 0
-105 1500 0
1500 103 106 107 108 0
-1495 1501 0
-1502 0
-1496 1503 0
-1501 1503 0
-1496 -1501 1504 0
-1502 1504 0
-1496 -1502 0
-1497 1505 0
-1503 1505 0
-1497 -1503 1506 0
-1504 1506 0
-1497 -1504 0
-1498 1507 0
-1505 1507 0
-1498 -1505 1508 0
-1506 1508 0
-1498 -1506 0
-1499 1509 0
-1507 1509 0
-1499 -1507 1510 0
-1508 1510 0
-1499 -1508 0
-1500 -1510 0
-1513 74 75 76 0
-74 1513 0
-75 1513 0
-76 1513 0
1513 73 77 78 0
-1514 80 81 82 0
-80 1514 0
-81 1514 0
-82 1514 0
1514 79 83 84 0
-1515 86 87 88 0
-86 1515 0
-87 1515 0
-88 1515 0
1515 85 89 90 0
-1516 92 93 94 0
-92 1516 0
-93 1516 0
-94 1516 0
1516 91 95 96 0
-1517 98 99 100 0
-98 1517 0
-99 1517 0
-100 1517 0
1517 97 101 102 0
-1518 104 105 106 0
-104 1518 0
-105 1518 0
-106 1518 0
1518 103 107 108 0
-1513 1519 0
-1520 0
-1521 0
-1514 1522 0
-1519 1522 0
-1514 -1519 1523 0
-1520 1523 0
-1514 -1520 1524 0
-1521 1524 0
-1514 -1521 0
-1515 1525 0
-1522 1525 0
-1515 -1522 1526 0
-1523 1526 0
-1515 -1523 1527 0
-1524 1527 0
-1515 -1524 0
-1516 1528 0
-1525 1528 0
-1516 -1525 1529 0
-1526 1529 0
-1516 -1526 1530 0
-1527 1530 0
-1516 -1527 0
-1517 1531 0
-1528 1531 0
-1517 -1528 1532 0
-1529 1532 0
-1517 -1529 1533 0
-1530 1533 0
-1517 -1530 0
-1518 -1533 0
-1537 74 75 76 77 0
-74 1537 0
-75 1537 0
-76 1537 0
-77 1537 0
1537 73 78 0
-1538 80 81 82 83 0
-80 1538 0
-81 1538 0
-82 1538 0
-83 1538 0
1538 79 84 0
-1539 86 87 88 89 0
-86 1539 0
-87 1539 0
-88 1539 0
-89 1539 0
1539 85 90 0
-1540 92 93 94 95 0
-92 1540 0
-93 1540 0
-94 1540 0
-95 1540 0
1540 91 96 0
-1541 98 99 100 101 0
-98 1541 0
-99 1541 0
-100 1541 0
-101 1541 0
1541 97 102 0
-1542 104 105 106 107 0
-104 1542 0
-105 1542 0
-106 1542 0
-107 1542 0
1542 103 108 0
-1537 1543 0
-1544 0
-1545 0
-1546 0
-1538 1547 0
-1543 1547 0
-1538 -1543 1548 0
-1544 1548 0
-1538 -1544 1549 0
-1545 1549 0
-1538 -1545 1550 0
-1546 1550 0
-1538 -1546 0
-1539 1551 0
-1547 1551 0
-1539 -1547 1552 0
-1548 1552 0
-1539 -1548 1553 0
-1549 1553 0
-1539 -1549 1554 0
-1550 1554 0
-1539 -1550 0
-1540 1555 0
-1551 1555 0
-1540 -1551 1556 0
-1552 1556 0
-1540 -1552 1557 0
-1553 1557 0
-1540 -1553 1558 0
-1554 1558 0
-1540 -1554 0
-1541 1559 0
-1555 1559 0
-1541 -1555 1560 0
-1556 1560 0
-1541 -1556 1561 0
-1557 1561 0
-1541 -1557 1562 0
-1558 1562 0
-1541 -1558 0
-1542 -1562 0
-1567 74 75 76 77 78 0
-74 1567 0
-75 1567 0
-76 1567 0
-77 1567 0
-78 1567 0
1567 73 0
-1568 80 81 82 83 84 0
-80 1568 0
-81 1568 0
-82 1568 0
-83 1568 0
-84 1568 0
1568 79 0
-1569 86 87 88 89 90 0
-86 1569 0
-87 1569 0
-88 1569 0
-89 1569 0
-90 1569 0
1569 85 0
-1570 92 93 94 95 96 0
-92 1570 0
-93 1570 0
-94 1570 0
-95 1570 0
-96 1570 0
1570 91 0
-1571 98 99 100 101 102 0
-98 1571 0
-99 1571 0
-100 1571 0
-101 1571 0
-102 1571 0
1571 97 0
-1572 104 105 106 107 108 0
-104 1572 0
-105 1572 0
-106 1572 0
-107 1572 0
-108 1572 0
1572 103 0
-1567 1573 0
-1574 0
-1575 0
-1576 0
-1577 0
-1568 1578 0
-1573 1578 0
-1568 -1573 1579 0
-1574 1579 0
-1568 -1574 1580 0
-1575 1580 0
-1568 -1575 1581 0
-1576 1581 0
-1568 -1576 1582 0
-1577 1582 0
-1568 -1577 0
-1569 1583 0
-1578 1583 0
-1569 -1578 1584 0
-1579 1584 0
-1569 -1579 1585 0
-1580 1585 0
-1569 -1580 1586 0
-1581 1586 0
-1569 -1581 1587 0
-1582 1587 0
-1569 -1582 0
-1570 1588 0
-1583 1588 0
-1570 -1583 1589 0
-1584 1589 0
-1570 -1584 1590 0
-1585 1590 0
-1570 -1585 1591 0
-1586 1591 0
-1570 -1586 1592 0
-1587 1592 0
-1570 -1587 0
-1571 1593 0
-1588 1593 0
-1571 -1588 1594 0
-1589 1594 0
-1571 -1589 1595 0
-1590 1595 0
-1571 -1590 1596 0
-1591 1596 0
-1571 -1591 1597 0
-1592 1597 0
-1571 -1592 0
-1572 -1597 0
-1603 75 0
-75 1603 0
1603 73 74 76 77 78 0
-1604 81 0
-81 1604 0
1604 79 80 82 83 84 0
-1605 87 0
-87 1605 0
1605 85 86 88 89 90 0
-1606 93 0
-93 1606 0
1606 91 92 94 95 96 0
-1607 99 0
-99 1607 0
1607 97 98 100 101 102 0
-1608 105 0
-105 1608 0
1608 103 104 106 107 108 0
-1603 1609 0
-1604 1610 0
-1609 1610 0
-1604 -1609 0
-1605 1611 0
-1610 1611 0
-1605 -1610 0
-1606 1612 0
-1611 1612 0
-1606 -1611 0
-1607 1613 0
-1612 1613 0
-1607 -1612 0
-1608 -1613 0
-1615 75 76 0
-75 1615 0
-76 1615 0
1615 73 74 77 78 0
-1616 81 82 0
-81 1616 0
-82 1616 0
1616 79 80 83 84 0
-1617 87 88 0
-87 1617 0
-88 1617 0
1617 85 86 89 90 0
-1618 93 94 0
-93 1618 0
-94 1618 0
1618 91 92 95 96 0
-1619 99 100 0
-99 1619 0
-100 1619 0
1619 97 98 101 102 0
-1620 105 106 0
-105 1620 0
-106 1620 0
1620 103 104 107 108 0
-1615 1621 0
-1622 0
-1616 1623 0
-1621 1623 0
-1616 -1621 1624 0
-1622 1624 0
-1616 -1622 0
-1617 1625 0
-1623 1625 0
-1617 -1623 1626 0
-1624 1626 0
-1617 -1624 0
-1618 1627 0
-1625 1627 0
-1618 -1625 1628 0
-1626 1628 0
-1618 -1626 0
-1619 1629 0
-1627 1629 0
-1619 -1627 1630 0
-1628 1630 0
-1619 -1628 0
-1620 -1630 0
-1633 75 76 77 0
-75 1633 0
-76 1633 0
-77 1633 0
1633 73 74 78 0
-1634 81 82 83 0
-81 1634 0
-82 1634 0
-83 1634 0
1634 79 80 84 0
-1635 87 88 89 0
-87 1635 0
-88 1635 0
-89 1635 0
1635 85 86 90 0
-1636 93 94 95 0
-93 1636 0
-94 1636 0
-95 1636 0
1636 91 92 96 0
-1637 99 100 101 0
-99 1637 0
-100 1637 0
-101 1637 0
1637 97 98 102 0
-1638 105 106 107 0
-105 1638 0
-106 1638 0
-107 1638 0
1638 103 104 108 0
-1633 1639 0
-1640 0
-1641 0
-1634 1642 0
-1639 1642 0
-1634 -1639 1643 0
-1640 1643 0
-1634 -1640 1644 0
-1641 1644 0
-1634 -1641 0
-1635 1645 0
-1642 1645 0
-1635 -1642 1646 0
-1643 1646 0
-1635 -1643 1647 0
-1644 1647 0
-1635 -1644 0
-1636 1648 0
-1645 1648 0
-1636 -1645 1649 0
-1646 1649 0
-1636 -1646 1650 0
-1647 1650 0
-1636 -1647 0
-1637 1651 0
-1648 1651 0
-1637 -1648 1652 0
-1649 1652 0
-1637 -1649 1653 0
-1650 1653 0
-1637 -1650 0
-1638 -1653 0
-1657 75 76 77 78 0
-75 1657 0
-76 1657 0
-77 1657 0
-78 1657 0
1657 73 74 0
-1658 81 82 83 84 0
-81 1658 0
-82 1658 0
-83 1658 0
-84 1658 0
1658 79 80 0
-1659 87 88 89 90 0
-87 1659 0
-88 1659 0
-89 1659 0
-90 1659 0
1659 85 86 0
-1660 93 94 95 96 0
-93 1660 0
-94 1660 0
-95 1660 0
-96 1660 0
1660 91 92 0
-1661 99 100 101 102 0
-99 1661 0
-100 1661 0
-101 1661 0
-102 1661 0
1661 97 98 0
-1662 105 106 107 108 0
-105 1662 0
-106 1662 0
-107 1662 0
-108 1662 0
1662 103 104 0
-1657 1663 0
-1664 0
-1665 0
-1666 0
-1658 1667 0
-1663 1667 0
-1658 -1663 1668 0
-1664 1668 0
-1658 -1664 1669 0
-1665 1669 0
-1658 -1665 1670 0
-1666 1670 0
-1658 -1666 0
-1659 1671 0
-1667 1671 0
-1659 -1667 1672 0
-1668 1672 0
-1659 -1668 1673 0
-1669 1673 0
-1659 -1669 1674 0
-1670 1674 0
-1659 -1670 0
-1660 1675 0
-1671 1675 0
-1660 -1671 1676 0
-1672 1676 0
-1660 -1672 1677 0
-1673 1677 0
-1660 -1673 1678 0
-1674 1678 0
-1660 -1674 0
-1661 1679 0
-1675 1679 0
-1661 -1675 1680 0
-1676 1680 0
-1661 -1676 1681 0
-1677 1681 0
-1661 -1677 1682 0
-1678 1682 0
-1661 -1678 0
-1662 -1682 0
-1687 76 0
-76 1687 0
1687 73 74 75 77 78 0
-1688 82 0
-82 1688 0
1688 79 80 81 83 84 0
-1689 88 0
-88 1689 0
1689 85 86 87 89 90 0
-1690 94 0
-94 1690 0
1690 91 92 93 95 96 0
-1691 100 0
-100 1691 0
1691 97 98 99 101 102 0
-1692 106 0
-106 1692 0
1692 103 104 105 107 108 0
-1687 1693 0
-1688 1694 0
-1693 1694 0
-1688 -1693 0
-1689 1695 0
-1694 1695 0
-1689 -1694 0
-1690 1696 0
-1695 1696 0
-1690 -1695 0
-1691 1697 0
-1696 1697 0
-1691 -1696 0
-1692 -1697 0
-1699 76 77 0
-76 1699 0
-77 1699 0
1699 73 74 75 78 0
-1700 82 83 0
-82 1700 0
-83 1700 0
1700 79 80 81 84 0
-1701 88 89 0
-88 1701 0
-89 1701 0
1701 85 86 87 90 0
-1702 94 95 0
-94 1702 0
-95 1702 0
1702 91 92 93 96 0
-1703 100 101 0
-100 1703 0
-101 1703 0
1703 97 98 99 102 0
-1704 106 107 0
-106 1704 0
-107 1704 0
1704 103 104 105 108 0
-1699 1705 0
-1706 0
-1700 1707 0
-1705 1707 0
-1700 -1705 1708 0
-1706 1708 0
-1700 -1706 0
-1701 1709 0
-1707 1709 0
-1701 -1707 1710 0
-1708 1710 0
-1701 -1708 0
-1702 1711 0
-1709 1711 0
-1702 -1709 1712 0
-1710 1712 0
-1702 -1710 0
-1703 1713 0
-1711 1713 0
-1703 -1711 1714 0
-1712 1714 0
-1703 -1712 0
-1704 -1714 0
-1717 76 77 78 0
-76 1717 0
-77 1717 0
-78 1717 0
1717 73 74 75 0
-1718 82 83 84 0
-82 1718 0
-83 1718 0
-84 1718 0
1718 79 80 81 0
-1719 88 89 90 0
-88 1719 0
-89 1719 0
-90 1719 0
1719 85 86 87 0
-1720 94 95 96 0
-94 1720 0
-95 1720 0
-96 1720 0
1720 91 92 93 0
-1721 100 101 102 0
-100 1721 0
-101 1721 0
-102 1721 0
1721 97 98 99 0
-1722 106 107 108 0
-106 1722 0
-107 1722 0
-108 1722 0
1722 103 104 105 0
-1717 1723 0
-1724 0
-1725 0
-1718 1726 0
-1723 1726 0
-1718 -1723 1727 0
-1724 1727 0
-1718 -1724 1728 0
-1725 1728 0
-1718 -1725 0
-1719 1729 0
-1726 1729 0
-1719 -1726 1730 0
-1727 1730 0
-1719 -1727 1731 0
-1728 1731 0
-1719 -1728 0
-1720 1732 0
-1729 1732 0
-1720 -1729 1733 0
-1730 1733 0
-1720 -1730 1734 0
-1731 1734 0
-1720 -1731 0
-1721 1735 0
-1732 1735 0
-1721 -1732 1736 0
-1733 1736 0
-1721 -1733 1737 0
-1734 1737 0
-1721 -1734 0
-1722 -1737 0
-1741 77 0
-77 1741 0
1741 73 74 75 76 78 0
-1742 83 0
-83 1742 0
1742 79 80 81 82 84 0
-1743 89 0
-89 1743 0
1743 85 86 87 88 90 0
-1744 95 0
-95 1744 0
1744 91 92 93 94 96 0
-1745 101 0
-101 1745 0
1745 97 98 99 100 102 0
-1746 107 0
-107 1746 0
1746 103 104 105 106 108 0
-1741 1747 0
-1742 1748 0
-1747 1748 0
-1742 -1747 0
-1743 1749 0
-1748 1749 0
-1743 -1748 0
-1744 1750 0
-1749 1750 0
-1744 -1749 0
-1745 1751 0
-1750 1751 0
-1745 -1750 0
-1746 -1751 0
-1753 77 78 0
-77 1753 0
-78 1753 0
1753 73 74 75 76 0
-1754 83 84 0
-83 1754 0
-84 1754 0
1754 79 80 81 82 0
-1755 89 90 0
-89 1755 0
-90 1755 0
1755 85 86 87 88 0
-1756 95 96 0
-95 1756 0
-96 1756 0
1756 91 92 93 94 0
-1757 101 102 0
-101 1757 0
-102 1757 0
1757 97 98 99 100 0
-1758 107 108 0
-107 1758 0
-108 1758 0
1758 103 104 105 106 0
-1753 1759 0
-1760 0
-1754 1761 0
-1759 1761 0
-1754 -1759 1762 0
-1760 1762 0
-1754 -1760 0
-1755 1763 0
-1761 1763 0
-1755 -1761 1764 0
-1762 1764 0
-1755 -1762 0
-1756 1765 0
-1763 1765 0
-1756 -1763 1766 0
-1764 1766 0
-1756 -1764 0
-1757 1767 0
-1765 1767 0
-1757 -1765 1768 0
-1766 1768 0
-1757 -1766 0
-1758 -1768 0
-1771 78 0
-78 1771 0
1771 73 74 75 76 77 0
-1772 84 0
-84 1772 0
1772 79 80 81 82 83 0
-1773 90 0
-90 1773 0
1773 85 86 87 88 89 0
-1774 96 0
-96 1774 0
1774 91 92 93 94 95 0
-1775 102 0
-102 1775 0
1775 97 98 99 100 101 0
-1776 108 0
-108 1776 0
1776 103 104 105 106 107 0
-1771 1777 0
-1772 1778 0
-1777 1778 0
-1772 -1777 0
-1773 1779 0
-1778 1779 0
-1773 -1778 0
-1774 1780 0
-1779 1780 0
-1774 -1779 0
-1775 1781 0
-1780 1781 0
-1775 -1780 0
-1776 -1781 0
-73 1783 0
-79 1784 0
-1783 1784 0
-79 -1783 0
-85 1785 0
-1784 1785 0
-85 -1784 0
-91 1786 0
-1785 1786 0
-91 -1785 0
-97 1787 0
-1786 1787 0
-97 -1786 0
-103 -1787 0
73 79 85 91 97 103 0
-74 1789 0
-80 1790 0
-1789 1790 0
-80 -1789 0
-86 1791 0
-1790 1791 0
-86 -1790 0
-92 1792 0
-1791 1792 0
-92 -1791 0
-98 1793 0
-1792 1793 0
-98 -1792 0
-104 -1793 0
74 80 86 92 98 104 0
-75 1795 0
-81 1796 0
-1795 1796 0
-81 -1795 0
-87 1797 0
-1796 1797 0
-87 -1796 0
-93 1798 0
-1797 1798 0
-93 -1797 0
-99 1799 0
-1798 1799 0
-99 -1798 0
-105 -1799 0
75 81 87 93 99 105 0
-76 1801 0
-82 1802 0
-1801 1802 0
-82 -1801 0
-88 1803 0
-1802 1803 0
-88 -1802 0
-94 1804 0
-1803 1804 0
-94 -1803 0
-100 1805 0
-1804 1805 0
-100 -1804 0
-106 -1805 0
76 82 88 94 100 106 0
-77 1807 0
-83 1808 0
-1807 1808 0
-83 -1807 0
-89 1809 0
-1808 1809 0
-89 -1808 0
-95 1810 0
-1809 1810 0
-95 -1809 0
-101 1811 0
-1810 1811 0
-101 -1810 0
-107 -1811 0
77 83 89 95 101 107 0
-78 1813 0
-84 1814 0
-1813 1814 0
-84 -1813 0
-90 1815 0
-1814 1815 0
-90 -1814 0
-96 1816 0
-1815 1816 0
-96 -1815 0
-102 1817 0
-1816 1817 0
-102 -1816 0
-108 -1817 0
78 84 90 96 102 108 0
-1819 109 0
-109 1819 0
1819 110 111 112 113 114 0
-1820 115 0
-115 1820 0
1820 116 117 118 119 120 0
-1821 121 0
-121 1821 0
1821 122 123 124 125 126 0
-1822 127 0
-127 1822 0
1822 128 129 130 131 132 0
-1823 133 0
-133 1823 0
1823 134 135 136 137 138 0
-1824 139 0
-139 1824 0
1824 140 141 142 143 144 0
-1819 1825 0
-1820 1826 0
-1825 1826 0
-1820 -1825 0
-1821 1827 0
-1826 1827 0
-1821 -1826 0
-1822 1828 0
-1827 1828 0
-1822 -1827 0
-1823 1829 0
-1828 1829 0
-1823 -1828 0
-1824 -1829 0
-1831 109 110 0
-109 1831 0
-110 1831 0
1831 111 112 113 114 0
-1832 115 116 0
-115 1832 0
-116 1832 0
1832 117 118 119 120 0
-1833 121 122 0
-121 1833 0
-122 1833 0
1833 123 124 125 126 0
-1834 127 128 0
-127 1834 0
-128 1834 0
1834 129 130 131 132 0
-1835 133 134 0
-133 1835 0
-134 1835 0
1835 135 136 137 138 0
-1836 139 140 0
-139 1836 0
-140 1836 0
1836 141 142 143 144 0
-1831 1837 0
-1838 0
-1832 1839 0
-1837 1839 0
-1832 -1837 1840 0
-1838 1840 0
-1832 -1838 0
-1833 1841 0
-1839 1841 0
-1833 -1839 1842 0
-1840 1842 0
-1833 -1840 0
-1834 1843 0
-1841 1843 0
-1834 -1841 1844 0
-1842 1844 0
-1834 -1842 0
-1835 1845 0
-1843 1845 0
-1835 -1843 1846 0
-1844 1846 0
-1835 -1844 0
-1836 -1846 0
-1849 109 110 111 0
-109 1849 0
-110 1849 0
-111 1849 0
1849 112 113 114 0
-1850 115 116 117 0
-115 1850 0
-116 1850 0
-117 1850 0
1850 118 119 120 0
-1851 121 122 123 0
-121 1851 0
-122 1851 0
-123 1851 0
1851 124 125 126 0
-1852 127 128 129 0
-127 1852 0
-128 1852 0
-129 1852 0
1852 130 131 132 0
-1853 133 134 135 0
-133 1853 0
-134 1853 0
-135 1853 0
1853 136 137 138 0
-1854 139 140 141 0
-139 1854 0
-140 1854 0
-141 1854 0
1854 142 143 144 0
-1849 1855 0
-1856 0
-1857 0
-1850 1858 0
-1855 1858 0
-1850 -1855 1859 0
-1856 1859 0
-1850 -1856 1860 0
-1857 1860 0
-1850 -1857 0
-1851 1861 0
-1858 1861 0
-1851 -1858 1862 0
-1859 1862 0
-1851 -1859 1863 0
-1860 1863 0
-1851 -1860 0
-1852 1864 0
-1861 1864 0
-1852 -1861 1865 0
-1862 1865 0
-1852 -1862 1866 0
-1863 1866 0
-1852 -1863 0
-1853 1867 0
-1864 1867 0
-1853 -1864 1868 0
-1865 1868 0
-1853 -1865 1869 0
-1866 1869 0
-1853 -1866 0
-1854 -1869 0
-1873 109 110 111 112 0
-109 1873 0
-110 1873 0
-111 1873 0
-112 1873 0
1873 113 114 0
-1874 115 116 117 118 0
-115 1874 0
-116 1874 0
-117 1874 0
-118 1874 0
1874 119 120 0
-1875 121 122 123 124 0
-121 1875 0
-122 1875 0
-123 1875 0
-124 1875 0
1875 125 126 0
-1876 127 128 129 130 0
-127 1876 0
-128 1876 0
-129 1876 0
-130 1876 0
1876 131 132 0
-1877 133 134 135 136 0
-133 1877 0
-134 1877 0
-135 1877 0
-136 1877 0
1877 137 138 0
-1878 139 140 141 142 0
-139 1878 0
-140 1878 0
-141 1878 0
-142 1878 0
1878 143 144 0
-1873 1879 0
-1880 0
-1881 0
-1882 0
-1874 1883 0
-1879 1883 0
-1874 -1879 1884 0
-1880 1884 0
-1874 -1880 1885 0
-1881 1885 0
-1874 -1881 1886 0
-1882 1886 0
-1874 -1882 0
-1875 1887 0
-1883 1887 0
-1875 -1883 1888 0
-1884 1888 0
-1875 -1884 1889 0
-1885 1889 0
-1875 -1885 1890 0
-1886 1890 0
-1875 -1886 0
-1876 1891 0
-1887 1891 0
-1876 -1887 1892 0
-1888 1892 0
-1876 -1888 1893 0
-1889 1893 0
-1876 -1889 1894 0
-1890 1894 0
-1876 -1890 0
-1877 1895 0
-1891 1895 0
-1877 -1891 1896 0
-1892 1896 0
-1877 -1892 1897 0
-1893 1897 0
-1877 -1893 1898 0
-1894 1898 0
-1877 -1894 0
-1878 -1898 0
-1903 109 110 111 112 113 0
-109 1903 0
-110 1903 0
-111 1903 0
-112 1903 0
-113 1903 0
1903 114 0
-1904 115 116 117 118 119 0
-115 1904 0
-116 1904 0
-117 1904 0
-118 1904 0
-119 1904 0
1904 120 0
-1905 121 122 123 124 125 0
-121 1905 0
-122 1905 0
-123 1905 0
-124 1905 0
-125 1905 0
1905 126 0
-1906 127 128 129 130 131 0
-127 1906 0
-128 1906 0
-129 1906 0
-130 1906 0
-131 1906 0
1906 132 0
-1907 133 134 135 136 137 0
-133 1907 0
-134 1907 0
-135 1907 0
-136 1907 0
-137 1907 0
1907 138 0
-1908 139 140 141 142 143 0
-139 1908 0
-140 1908 0
-141 1908 0
-142 1908 0
-143 1908 0
1908 144 0
-1903 1909 0
-1910 0
-1911 0
-1912 0
-1913 0
-1904 1914 0
-1909 1914 0
-1904 -1909 1915 0
-1910 1915 0
-1904 -1910 1916 0
-1911 1916 0
-1904 -1911 1917 0
-1912 1917 0
-1904 -1912 1918 0
-1913 1918 0
-1904 -1913 0
-1905 1919 0
-1914 1919 0
-1905 -1914 1920 0
-1915 1920 0
-1905 -1915 1921 0
-1916 1921 0
-1905 -1916 1922 0
-1917 1922 0
-1905 -1917 1923 0
-1918 1923 0
-1905 -1918 0
-1906 1924 0
-1919 1924 0
-1906 -1919 1925 0
-1920 1925 0
-1906 -1920 1926 0
-1921 1926 0
-1906 -1921 1927 0
-1922 1927 0
-1906 -1922 1928 0
-1923 1928 0
-1906 -1923 0
-1907 1929 0
-1924 1929 0
-1907 -1924 1930 0
-1925 1930 0
-1907 -1925 1931 0
-1926 1931 0
-1907 -1926 1932 0
-1927 1932 0
-1907 -1927 1933 0
-1928 1933 0
-1907 -1928 0
-1908 -1933 0
-1939 109 110 111 112 113 114 0
-109 1939 0
-110 1939 0
-111 1939 0
-112 1939 0
-113 1939 0
-114 1939 0
1939 0
-1940 115 116 117 118 119 120 0
-115 1940 0
-116 1940 0
-117 1940 0
-118 1940 0
-119 1940 0
-120 1940 0
1940 0
-1941 121 122 123 124 125 126 0
-121 1941 0
-122 1941 0
-123 1941 0
-124 1941 0
-125 1941 0
-126 1941 0
1941 0
-1942 127 128 129 130 131 132 0
-127 1942 0
-128 1942 0
-129 1942 0
-130 1942 0
-131 1942 0
-132 1942 0
1942 0
-1943 133 134 135 136 137 138 0
-133 1943 0
-134 1943 0
-135 1943 0
-136 1943 0
-137 1943 0
-138 1943 0
1943 0
-1944 139 140 141 142 143 144 0
-139 1944 0
-140 1944 0
-141 1944 0
-142 1944 0
-143 1944 0
-144 1944 0
1944 0
-1945 110 0
-110 1945 0
1945 109 111 112 113 114 0
-1946 116 0
-116 1946 0
1946 115 117 118 119 120 0
-1947 122 0
-122 1947 0
1947 121 123 124 125 126 0
-1948 128 0
-128 1948 0
1948 127 129 130 131 132 0
-1949 134 0
-134 1949 0
1949 133 135 136 137 138 0
-1950 140 0
-140 1950 0
1950 139 141 142 143 144 0
-1945 1951 0
-1946 1952 0
-1951 1952 0
-1946 -1951 0
-1947 1953 0
-1952 1953 0
-1947 -1952 0
-1948 1954 0
-1953 1954 0
-1948 -1953 0
-1949 1955 0
-1954 1955 0
-1949 -1954 0
-1950 -1955 0
-1957 110 111 0
-110 1957 0
-111 1957 0
1957 109 112 113 114 0
-1958 116 117 0
-116 1958 0
-117 1958 0
1958 115 118 119 120 0
-1959 122 123 0
-122 1959 0
-123 1959 0
1959 121 124 125 126 0
-1960 128 129 0
-128 1960 0
-129 1960 0
1960 127 130 131 132 0
-1961 134 135 0
-134 1961 0
-135 1961 0
1961 133 136 137 138 0
-1962 140 141 0
-140 1962 0
-141 1962 0
1962 139 142 143 144 0
-1957 1963 0
-1964 0
-1958 1965 0
-1963 1965 0
-1958 -1963 1966 0
-1964 1966 0
-1958 -1964 0
-1959 1967 0
-1965 1967 0
-1959 -1965 1968 0
-1966 1968 0
-1959 -1966 0
-1960 1969 0
-1967 1969 0
-1960 -1967 1970 0
-1968 1970 0
-1960 -1968 0
-1961 1971 0
-1969 1971 0
-1961 -1969 1972 0
-1970 1972 0
-1961 -1970 0
-1962 -1972 0
-1975 110 111 112 0
-110 1975 0
-111 1975 0
-112 1975 0
1975 109 113 114 0
-1976 116 117 118 0
-116 1976 0
-117 1976 0
-118 1976 0
1976 115 119 120 0
-1977 122 123 124 0
-122 1977 0
-123 1977 0
-124 1977 0
1977 121 125 126 0
-1978 128 129 130 0
-128 1978 0
-129 1978 0
-130 1978 0
1978 127 131 132 0
-1979 134 135 136 0
-134 1979 0
-135 1979 0
-136 1979 0
1979 133 137 138 0
-1980 140 141 142 0
-140 1980 0
-141 1980 0
-142 1980 0
1980 139 143 144 0
-1975 1981 0
-1982 0
-1983 0
-1976 1984 0
-1981 1984 0
-1976 -1981 1985 0
-1982 1985 0
-1976 -1982 1986 0
-1983 1986 0
-1976 -1983 0
-1977 1987 0
-1984 1987 0
-1977 -1984 1988 0
-1985 1988 0
-1977 -1985 1989 0
-1986 1989 0
-1977 -1986 0
-1978 1990 0
-1987 1990 0
-1978 -1987 1991 0
-1988 1991 0
-1978 -1988 1992 0
-1989 1992 0
-1978 -1989 0
-1979 1993 0
-1990 1993 0
-1979 -1990 1994 0
-1991 1994 0
-1979 -1991 1995 0
-1992 1995 0
-1979 -1992 0
-1980 -1995 0
-1999 110 111 112 113 0
-110 1999 0
-111 1999 0
-112 1999 0
-113 1999 0
1999 109 114 0
-2000 116 117 118 119 0
-116 2000 0
-117 2000 0
-118 2000 0
-119 2000 0
2000 115 120 0
-2001 122 123 124 125 0
-122 2001 0
-123 2001 0
-124 2001 0
-125 2001 0
2001 121 126 0
-2002 128 129 130 131 0
-128 2002 0
-129 2002 0
-130 2002 0
-131 2002 0
2002 127 132 0
-2003 134 135 136 137 0
-134 2003 0
-135 2003 0
-136 2003 0
-137 2003 0
2003 133 138 0
-2004 140 141 142 143 0
-140 2004 0
-141 2004 0
-142 2004 0
-143 2004 0
2004 139 144 0
-1999 2005 0
-2006 0
-2007 0
-2008 0
-2000 2009 0
-2005 2009 0
-2000 -2005 2010 0
-2006 2010 0
-2000 -2006 2011 0
-2007 2011 0
-2000 -2007 2012 0
-2008 2012 0
-2000 -2008 0
-2001 2013 0
-2009 2013 0
-2001 -2009 2014 0
-2010 2014 0
-2001 -2010 2015 0
-2011 2015 0
-2001 -2011 2016 0
-2012 2016 0
-2001 -2012 0
-2002 2017 0
-2013 2017 0
-2002 -2013 2018 0
-2014 2018 0
-2002 -2014 2019 0
-2015 2019 0
-2002 -2015 2020 0
-2016 2020 0
-2002 -2016 0
-2003 2021 0
-2017 2021 0
-2003 -2017 2022 0
-2018 2022 0
-2003 -2018 2023 0
-2019 2023 0
-2003 -2019 2024 0
-2020 2024 0
-2003 -2020 0
-2004 -2024 0
-2029 110 111 112 113 114 0
-110 2029 0
-111 2029 0
-112 2029 0
-113 2029 0
-114 2029 0
2029 109 0
-2030 116 117 118 119 120 0
-116 2030 0
-117 2030 0
-118 2030 0
-119 2030 0
-120 2030 0
2030 115 0
-2031 122 123 124 125 126 0
-122 2031 0
-123 2031 0
-124 2031 0
-125 2031 0
-126 2031 0
2031 121 0
-2032 128 129 130 131 132 0
-128 2032 0
-129 2032 0
-130 2032 0
-131 2032 0
-132 2032 0
2032 127 0
-2033 134 135 136 137 138 0
-134 2033 0
-135 2033 0
-136 2033 0
-137 2033 0
-138 2033 0
2033 133 0
-2034 140 141 142 143 144 0
-140 2034 0
-141 2034 0
-142 2034 0
-143 2034 0
-144 2034 0
2034 139 0
-2029 2035 0
-2036 0
-2037 0
-2038 0
-2039 0
-2030 2040 0
-2035 2040 0
-2030 -2035 2041 0
-2036 2041 0
-2030 -2036 2042 0
-2037 2042 0
-2030 -2037 2043 0
-2038 2043 0
-2030 -2038 2044 0
-2039 2044 0
-2030 -2039 0
-2031 2045 0
-2040 2045 0
-2031 -2040 2046 0
-2041 2046 0
-2031 -2041 2047 0
-2042 2047 0
-2031 -2042 2048 0
-2043 2048 0
-2031 -2043 2049 0
-2044 2049 0
-2031 -2044 0
-2032 2050 0
-2045 2050 0
-2032 -2045 2051 0
-2046 2051 0
-2032 -2046 2052 0
-2047 2052 0
-2032 -2047 2053 0
-2048 2053 0
-2032 -2048 2054 0
-2049 2054 0
-2032 -2049 0
-2033 2055 0
-2050 2055 0
-2033 -2050 2056 0
-2051 2056 0
-2033 -2051 2057 0
-2052 2057 0
-2033 -2052 2058 0
-2053 2058 0
-2033 -2053 2059 0
-2054 2059 0
-2033 -2054 0
-2034 -2059 0
-2065 111 0
-111 2065 0
2065 109 110 112 113 114 0
-2066 117 0
-117 2066 0
2066 115 116 118 119 120 0
-2067 123 0
-123 2067 0
2067 121 122 124 125 126 0
-2068 129 0
-129 2068 0
2068 127 128 130 131 132 0
-2069 135 0
-135 2069 0
2069 133 134 136 137 138 0
-2070 141 0
-141 2070 0
2070 139 140 142 143 144 0
-2065 2071 0
-2066 2072 0
-2071 2072 0
-2066 -2071 0
-2067 2073 0
-2072 2073 0
-2067 -2072 0
-2068 2074 0
-2073 2074 0
-2068 -2073 0
-2069 2075 0
-2074 2075 0
-2069 -2074 0
-2070 -2075 0
-2077 111 112 0
-111 2077 0
-112 2077 0
2077 109 110 113 114 0
-2078 117 118 0
-117 2078 0
-118 2078 0
2078 115 116 119 120 0
-2079 123 124 0
-123 2079 0
-124 2079 0
2079 121 122 125 126 0
-2080 129 130 0
-129 2080 0
-130 2080 0
2080 127 128 131 132 0
-2081 135 136 0
-135 2081 0
-136 2081 0
2081 133 134 137 138 0
-2082 141 142 0
-141 2082 0
-142 2082 0
2082 139 140 143 144 0
-2077 2083 0
-2084 0
-2078 2085 0
-2083 2085 0
-2078 -2083 2086 0
-2084 2086 0
-2078 -2084 0
-2079 2087 0
-2085 2087 0
-2079 -2085 2088 0
-2086 2088 0
-2079 -2086 0
-2080 2089 0
-2087 2089 0
-2080 -2087 2090 0
-2088 2090 0
-2080 -2088 0
-2081 2091 0
-2089 2091 0
-2081 -2089 2092 0
-2090 2092 0
-2081 -2090 0
-2082 -2092 0
-2095 111 112 113 0
-111 2095 0
-112 2095 0
-113 2095 0
2095 109 110 114 0
-2096 117 118 119 0
-117 2096 0
-118 2096 0
-119 2096 0
2096 115 116 120 0
-2097 123 124 125 0
-123 2097 0
-124 2097 0
-125 2097 0
2097 121 122 126 0
-2098 129 130 131 0
-129 2098 0
-130 2098 0
-131 2098 0
2098 127 128 132 0
-2099 135 136 137 0
-135 2099 0
-136 2099 0
-137 2099 0
2099 133 134 138 0
-2100 141 142 143 0
-141 2100 0
-142 2100 0
-143 2100 0
2100 139 140 144 0
-2095 2101 0
-2102 0
-2103 0
-2096 2104 0
-2101 2104 0
-2096 -2101 2105 0
-2102 2105 0
-2096 -2102 2106 0
-2103 2106 0
-2096 -2103 0
-2097 2107 0
-2104 2107 0
-2097 -2104 2108 0
-2105 2108 0
-2097 -2105 2109 0
-2106 2109 0
-2097 -2106 0
-2098 2110 0
-2107 2110 0
-2098 -2107 2111 0
-2108 2111 0
-2098 -2108 2112 0
-2109 2112 0
-2098 -2109 0
-2099 2113 0
-2110 2113 0
-2099 -2110 2114 0
-2111 2114 0
-2099 -2111 2115 0
-2112 2115 0
-2099 -2112 0
-2100 -2115 0
-2119 111 112 113 114 0
-111 2119 0
-112 2119 0
-113 2119 0
-114 2119 0
2119 109 110 0
-2120 117 118 119 120 0
-117 2120 0
-118 2120 0
-119 2120 0
-120 2120 0
2120 115 116 0
-2121 123 124 125 126 0
-123 2121 0
-124 2121 0
-125 2121 0
-126 2121 0
2121 121 122 0
-2122 129 130 131 132 0
-129 2122 0
-130 2122 0
-131 2122 0
-132 2122 0
2122 127 128 0
-2123 135 136 137 138 0
-135 2123 0
-136 2123 0
-137 2123 0
-138 2123 0
2123 133 134 0
-2124 141 142 143 144 0
-141 2124 0
-142 2124 0
-143 2124 0
-144 2124 0
2124 139 140 0
-2119 2125 0
-2126 0
-2127 0
-2128 0
-2120 2129 0
-2125 2129 0
-2120 -2125 2130 0
-2126 2130 0
-2120 -2126 2131 0
-2127 2131 0
-2120 -2127 2132 0
-2128 2132 0
-2120 -2128 0
-2121 2133 0
-2129 2133 0
-2121 -2129 2134 0
-2130 2134 0
-2121 -2130 2135 0
-2131 2135 0
-2121 -2131 2136 0
-2132 2136 0
-2121 -2132 0
-2122 2137 0
-2133 2137 0
-2122 -2133 2138 0
-2134 2138 0
-2122 -2134 2139 0
-2135 2139 0
-2122 -2135 2140 0
-2136 2140 0
-2122 -2136 0
-2123 2141 0
-2137 2141 0
-2123 -2137 2142 0
-2138 2142 0
-2123 -2138 2143 0
-2139 2143 0
-2123 -2139 2144 0
-2140 2144 0
-2123 -2140 0
-2124 -2144 0
-2149 112 0
-112 2149 0
2149 109 110 111 113 114 0
-2150 118 0
-118 2150 0
2150 115 116 117 119 120 0
-2151 124 0
-124 2151 0
2151 121 122 123 125 126 0
-2152 130 0
-130 2152 0
2152 127 128 129 131 132 0
-2153 136 0
-136 2153 0
2153 133 134 135 137 138 0
-2154 142 0
-142 2154 0
2154 139 140 141 143 144 0
-2149 2155 0
-2150 2156 0
-2155 2156 0
-2150 -2155 0
-2151 2157 0
-2156 2157 0
-2151 -2156 0
-2152 2158 0
-2157 2158 0
-2152 -2157 0
-2153 2159 0
-2158 2159 0
-2153 -2158 0
-2154 -2159 0
-2161 112 113 0
-112 2161 0
-113 2161 0
2161 109 110 111 114 0
-2162 118 119 0
-118 2162 0
-119 2162 0
2162 115 116 117 120 0
-2163 124 125 0
-124 2163 0
-125 2163 0
2163 121 122 123 126 0
-2164 130 131 0
-130 2164 0
-131 2164 0
2164 127 128 129 132 0
-2165 136 137 0
-136 2165 0
-137 2165 0
2165 133 134 135 138 0
-2166 142 143 0
-142 2166 0
-143 2166 0
2166 139 140 141 144 0
-2161 2167 0
-2168 0
-2162 2169 0
-2167 2169 0
-2162 -2167 2170 0
-2168 2170 0
-2162 -2168 0
-2163 2171 0
-2169 2171 0
-2163 -2169 2172 0
-2170 2172 0
-2163 -2170 0
-2164 2173 0
-2171 2173 0
-2164 -2171 2174 0
-2172 2174 0
-2164 -2172 0
-2165 2175 0
-2173 2175 0
-2165 -2173 2176 0
-2174 2176 0
-2165 -2174 0
-2166 -2176 0
-2179 112 113 114 0
-112 2179 0
-113 2179 0
-114 2179 0
2179 109 110 111 0
-2180 118 119 120 0
-118 2180 0
-119 2180 0
-120 2180 0
2180 115 116 117 0
-2181 124 125 126 0
-124 2181 0
-125 2181 0
-126 2181 0
2181 121 122 123 0
-2182 130 131 132 0
-130 2182 0
-131 2182 0
-132 2182 0
2182 127 128 129 0
-2183 136 137 138 0
-136 2183 0
-137 2183 0
-138 2183 0
2183 133 134 135 0
-2184 142 143 144 0
-142 2184 0
-143 2184 0
-144 2184 0
2184 139 140 141 0
-2179 2185 0
-2186 0
-2187 0
-2180 2188 0
-2185 2188 0
-2180 -2185 2189 0
-2186 2189 0
-2180 -2186 2190 0
-2187 2190 0
-2180 -2187 0
-2181 2191 0
-2188 2191 0
-2181 -2188 2192 0
-2189 2192 0
-2181 -2189 2193 0
-2190 2193 0
-2181 -2190 0
-2182 2194 0
-2191 2194 0
-2182 -2191 2195 0
-2192 2195 0
-2182 -2192 2196 0
-2193 2196 0
-2182 -2193 0
-2183 2197 0
-2194 2197 0
-2183 -2194 2198 0
-2195 2198 0
-2183 -2195 2199 0
-2196 2199 0
-2183 -2196 0
-2184 -2199 0
-2203 113 0
-113 2203 0
2203 109 110 111 112 114 0
-2204 119 0
-119 2204 0
2204 115 116 117 118 120 0
-2205 125 0
-125 2205 0
2205 121 122 123 124 126 0
-2206 131 0
-131 2206 0
2206 127 128 129 130 132 0
-2207 137 0
-137 2207 0
2207 133 134 135 136 138 0
-2208 143 0
-143 2208 0
2208 139 140 141 142 144 0
-2203 2209 0
-2204 2210 0
-2209 2210 0
-2204 -2209 0
-2205 2211 0
-2210 2211 0
-2205 -2210 0
-2206 2212 0
-2211 2212 0
-2206 -2211 0
-2207 2213 0
-2212 2213 0
-2207 -2212 0
-2208 -2213 0
-2215 113 114 0
-113 2215 0
-114 2215 0
2215 109 110 111 112 0
-2216 119 120 0
-119 2216 0
-120 2216 0
2216 115 116 117 118 0
-2217 125 126 0
-125 2217 0
-126 2217 0
2217 121 122 123 124 0
-2218 131 132 0
-131 2218 0
-132 2218 0
2218 127 128 129 130 0
-2219 137 138 0
-137 2219 0
-138 2219 0
2219 133 134 135 136 0
-2220 143 144 0
-143 2220 0
-144 2220 0
2220 139 140 141 142 0
-2215 2221 0
-2222 0
-2216 2223 0
-2221 2223 0
-2216 -2221 2224 0
-2222 2224 0
-2216 -2222 0
-2217 2225 0
-2223 2225 0
-2217 -2223 2226 0
-2224 2226 0
-2217 -2224 0
-2218 2227 0
-2225 2227 0
-2218 -2225 2228 0
-2226 2228 0
-2218 -2226 0
-2219 2229 0
-2227 2229 0
-2219 -2227 2230 0
-2228 2230 0
-2219 -2228 0
-2220 -2230 0
-2233 114 0
-114 2233 0
2233 109 110 111 112 113 0
-2234 120 0
-120 2234 0
2234 115 116 117 118 119 0
-2235 126 0
-126 2235 0
2235 121 122 123 124 125 0
-2236 132 0
-132 2236 0
2236 127 128 129 130 131 0
-2237 138 0
-138 2237 0
2237 133 134 135 136 137 0
-2238 144 0
-144 2238 0
2238 139 140 141 142 143 0
-2233 2239 0
-2234 2240 0
-2239 2240 0
-2234 -2239 0
-2235 2241 0
-2240 2241 0
-2235 -2240 0
-2236 2242 0
-2241 2242 0
-2236 -2241 0
-2237 2243 0
-2242 2243 0
-2237 -2242 0
-2238 -2243 0
-109 2245 0
-115 2246 0
-2245 2246 0
-115 -2245 0
-121 2247 0
-2246 2247 0
-121 -2246 0
-127 2248 0
-2247 2248 0
-127 -2247 0
-133 2249 0
-2248 2249 0
-133 -2248 0
-139 -2249 0
109 115 121 127 133 139 0
-110 2251 0
-116 2252 0
-2251 2252 0
-116 -2251 0
-122 2253 0
-2252 2253 0
-122 -2252 0
-128 2254 0
-2253 2254 0
-128 -2253 0
-134 2255 0
-2254 2255 0
-134 -2254 0
-140 -2255 0
110 116 122 128 134 140 0
-111 2257 0
-117 2258 0
-2257 2258 0
-117 -2257 0
-123 2259 0
-2258 2259 0
-123 -2258 0
-129 2260 0
-2259 2260 0
-129 -2259 0
-135 2261 0
-2260 2261 0
-135 -2260 0
-141 -2261 0
111 117 123 129 135 141 0
-112 2263 0
-118 2264 0
-2263 2264 0
-118 -2263 0
-124 2265 0
-2264 2265 0
-124 -2264 0
-130 2266 0
-2265 2266 0
-130 -2265 0
-136 2267 0
-2266 2267 0
-136 -2266 0
-142 -2267 0
112 118 124 130 136 142 0
-113 2269 0
-119 2270 0
-2269 2270 0
-119 -2269 0
-125 2271 0
-2270 2271 0
-125 -2270 0
-131 2272 0
-2271 2272 0
-131 -2271 0
-137 2273 0
-2272 2273 0
-137 -2272 0
-143 -2273 0
113 119 125 131 137 143 0
-114 2275 0
-120 2276 0
-2275 2276 0
-120 -2275 0
-126 2277 0
-2276 2277 0
-126 -2276 0
-132 2278 0
-2277 2278 0
-132 -2277 0
-138 2279 0
-2278 2279 0
-138 -2278 0
-144 -2279 0
114 120 126 132 138 144 0
-2281 145 0
-145 2281 0
2281 146 147 148 149 150 0
-2282 151 0
-151 2282 0
2282 152 153 154 155 156 0
-2283 157 0
-157 2283 0
2283 158 159 160 161 162 0
-2284 163 0
-163 2284 0
2284 164 165 166 167 168 0
-2285 169 0
-169 2285 0
2285 170 171 172 173 174 0
-2286 175 0
-175 2286 0
2286 176 177 178 179 180 0
-2281 2287 0
-2282 2288 0
-2287 2288 0
-2282 -2287 0
-2283 2289 0
-2288 2289 0
-2283 -2288 0
-2284 2290 0
-2289 2290 0
-2284 -2289 0
-2285 2291 0
-2290 2291 0
-2285 -2290 0
-2286 -2291 0
-2293 145 146 0
-145 2293 0
-146 2293 0
2293 147 148 149 150 0
-2294 151 152 0
-151 2294 0
-152 2294 0
2294 153 154 155 156 0
-2295 157 158 0
-157 2295 0
-158 2295 0
2295 159 160 161 162 0
-2296 163 164 0
-163 2296 0
-164 2296 0
2296 165 166 167 168 0
-2297 169 170 0
-169 2297 0
-170 2297 0
2297 171 172 173 174 0
-2298 175 176 0
-175 2298 0
-176 2298 0
2298 177 178 179 180 0
-2293 2299 0
-2300 0
-2294 2301 0
-2299 2301 0
-2294 -2299 2302 0
-2300 2302 0
-2294 -2300 0
-2295 2303 0
-2301 2303 0
-2295 -2301 2304 0
-2302 2304 0
-2295 -2302 0
-2296 2305 0
-2303 2305 0
-2296 -2303 2306 0
-2304 2306 0
-2296 -2304 0
-2297 2307 0
-2305 2307 0
-2297 -2305 2308 0
-2306 2308 0
-2297 -2306 0
-2298 -2308 0
-2311 145 146 147 0
-145 2311 0
-146 2311 0
-147 2311 0
2311 148 149 150 0
-2312 151 152 153 0
-151 2312 0
-152 2312 0
-153 2312 0
2312 154 155 156 0
-2313 157 158 159 0
-157 2313 0
-158 2313 0
-159 2313 0
2313 160 161 162 0
-2314 163 164 165 0
-163 2314 0
-164 2314 0
-165 2314 0
2314 166 167 168 0
-2315 169 170 171 0
-169 2315 0
-170 2315 0
-171 2315 0
2315 172 173 174 0
-2316 175 176 177 0
-175 2316 0
-176 2316 0
-177 2316 0
2316 178 179 180 0
-2311 2317 0
-2318 0
-2319 0
-2312 2320 0
-2317 2320 0
-2312 -2317 2321 0
-2318 2321 0
-2312 -2318 2322 0
-2319 2322 0
-2312 -2319 0
-2313 2323 0
-2320 2323 0
-2313 -2320 2324 0
-2321 2324 0
-2313 -2321 2325 0
-2322 2325 0
-2313 -2322 0
-2314 2326 0
-2323 2326 0
-2314 -2323 2327 0
-2324 2327 0
-2314 -2324 2328 0
-2325 2328 0
-2314 -2325 0
-2315 2329 0
-2326 2329 0
-2315 -2326 2330 0
-2327 2330 0
-2315 -2327 2331 0
-2328 2331 0
-2315 -2328 0
-2316 -2331 0
-2335 145 146 147 148 0
-145 2335 0
-146 2335 0
-147 2335 0
-148 2335 0
2335 149 150 0
-2336 151 152 153 154 0
-151 2336 0
-152 2336 0
-153 2336 0
-154 2336 0
2336 155 156 0
-2337 157 158 159 160 0
-157 2337 0
-158 2337 0
-159 2337 0
-160 2337 0
2337 161 162 0
-2338 163 164 165 166 0
-163 2338 0
-164 2338 0
-165 2338 0
-166 2338 0
2338 167 168 0
-2339 169 170 171 172 0
-169 2339 0
-170 2339 0
-171 2339 0
-172 2339 0
2339 173 174 0
-2340 175 176 177 178 0
-175 2340 0
-176 2340 0
-177 2340 0
-178 2340 0
2340 179 180 0
-2335 2341 0
-2342 0
-2343 0
-2344 0
-2336 2345 0
-2341 2345 0
-2336 -2341 2346 0
-2342 2346 0
-2336 -2342 2347 0
-2343 2347 0
-2336 -2343 2348 0
-2344 2348 0
-2336 -2344 0
-2337 2349 0
-2345 2349 0
-2337 -2345 2350 0
-2346 2350 0
-2337 -2346 2351 0
-2347 2351 0
-2337 -2347 2352 0
-2348 2352 0
-2337 -2348 0
-2338 2353 0
-2349 2353 0
-2338 -2349 2354 0
-2350 2354 0
-2338 -2350 2355 0
-2351 2355 0
-2338 -2351 2356 0
-2352 2356 0
-2338 -2352 0
-2339 2357 0
-2353 2357 0
-2339 -2353 2358 0
-2354 2358 0
-2339 -2354 2359 0
-2355 2359 0
-2339 -2355 2360 0
-2356 2360 0
-2339 -2356 0
-2340 -2360 0
-2365 145 146 147 148 149 0
-145 2365 0
-146 2365 0
-147 2365 0
-148 2365 0
-149 2365 0
2365 150 0
-2366 151 152 153 154 155 0
-151 2366 0
-152 2366 0
-153 2366 0
-154 2366 0
-155 2366 0
2366 156 0
-2367 157 158 159 160 161 0
-157 2367 0
-158 2367 0
-159 2367 0
-160 2367 0
-161 2367 0
2367 162 0
-2368 163 164 165 166 167 0
-163 2368 0
-164 2368 0
-165 2368 0
-166 2368 0
-167 2368 0
2368 168 0
-2369 169 170 171 172 173 0
-169 2369 0
-170 2369 0
-171 2369 0
-172 2369 0
-173 2369 0
2369 174 0
-2370 175 176 177 178 179 0
-175 2370 0
-176 2370 0
-177 2370 0
-178 2370 0
-179 2370 0
2370 180 0
-2365 2371 0
-2372 0
-2373 0
-2374 0
-2375 0
-2366 2376 0
-2371 2376 0
-2366 -2371 2377 0
-2372 2377 0
-2366 -2372 2378 0
-2373 2378 0
-2366 -2373 2379 0
-2374 2379 0
-2366 -2374 2380 0
-2375 2380 0
-2366 -2375 0
-2367 2381 0
-2376 2381 0
-2367 -2376 2382 0
-2377 2382 0
-2367 -2377 2383 0
-2378 2383 0
-2367 -2378 2384 0
-2379 2384 0
-2367 -2379 2385 0
-2380 2385 0
-2367 -2380 0
-2368 2386 0
-2381 2386 0
-2368 -2381 2387 0
-2382 2387 0
-2368 -2382 2388 0
-2383 2388 0
-2368 -2383 2389 0
-2384 2389 0
-2368 -2384 2390 0
-2385 2390 0
-2368 -2385 0
-2369 2391 0
-2386 2391 0
-2369 -2386 2392 0
-2387 2392 0
-2369 -2387 2393 0
-2388 2393 0
-2369 -2388 2394 0
-2389 2394 0
-2369 -2389 2395 0
-2390 2395 0
-2369 -2390 0
-2370 -2395 0
-2401 145 146 147 148 149 150 0
-145 2401 0
-146 2401 0
-147 2401 0
-148 2401 0
-149 2401 0
-150 2401 0
2401 0
-2402 151 152 153 154 155 156 0
-151 2402 0
-152 2402 0
-153 2402 0
-154 2402 0
-155 2402 0
-156 2402 0
2402 0
-2403 157 158 159 160 161 162 0
-157 2403 0
-158 2403 0
-159 2403 0
-160 2403 0
-161 2403 0
-162 2403 0
2403 0
-2404 163 164 165 166 167 168 0
-163 2404 0
-164 2404 0
-165 2404 0
-166 2404 0
-167 2404 0
-168 2404 0
2404 0
-2405 169 170 171 172 173 174 0
-169 2405 0
-170 2405 0
-171 2405 0
-172 2405 0
-173 2405 0
-174 2405 0
2405 0
-2406 175 176 177 178 179 180 0
-175 2406 0
-176 2406 0
-177 2406 0
-178 2406 0
-179 2406 0
-180 2406 0
2406 0
-2407 146 0
-146 2407 0
2407 145 147 148 149 150 0
-2408 152 0
-152 2408 0
2408 151 153 154 155 156 0
-2409 158 0
-158 2409 0
2409 157 159 160 161 162 0
-2410 164 0
-164 2410 0
2410 163 165 166 167 168 0
-2411 170 0
-170 2411 0
2411 169 171 172 173 174 0
-2412 176 0
-176 2412 0
2412 175 177 178 179 180 0
-2407 2413 0
-2408 2414 0
-2413 2414 0
-2408 -2413 0
-2409 2415 0
-2414 2415 0
-2409 -2414 0
-2410 2416 0
-2415 2416 0
-2410 -2415 0
-2411 2417 0
-2416 2417 0
-2411 -2416 0
-2412 -2417 0
-2419 146 147 0
-146 2419 0
-147 2419 0
2419 145 148 149 150 0
-2420 152 153 0
-152 2420 0
-153 2420 0
2420 151 154 155 156 0
-2421 158 159 0
-158 2421 0
-159 2421 0
2421 157 160 161 162 0
-2422 164 165 0
-164 2422 0
-165 2422 0
2422 163 166 167 168 0
-2423 170 171 0
-170 2423 0
-171 2423 0
2423 169 172 173 174 0
-2424 176 177 0
-176 2424 0
-177 2424 0
2424 175 178 179 180 0
-2419 2425 0
-2426 0
-2420 2427 0
-2425 2427 0
-2420 -2425 2428 0
-2426 2428 0
-2420 -2426 0
-2421 2429 0
-2427 2429 0
-2421 -2427 2430 0
-2428 2430 0
-2421 -2428 0
-2422 2431 0
-2429 2431 0
-2422 -2429 2432 0
-2430 2432 0
-2422 -2430 0
-2423 2433 0
-2431 2433 0
-2423 -2431 2434 0
-2432 2434 0
-2423 -2432 0
-2424 -2434 0
-2437 146 147 148 0
-146 2437 0
-147 2437 0
-148 2437 0
2437 145 149 150 0
-2438 152 153 154 0
-152 2438 0
-153 2438 0
-154 2438 0
2438 151 155 156 0
-2439 158 159 160 0
-158 2439 0
-159 2439 0
-160 2439 0
2439 157 161 162 0
-2440 164 165 166 0
-164 2440 0
-165 2440 0
-166 2440 0
2440 163 167 168 0
-2441 170 171 172 0
-170 2441 0
-171 2441 0
-172 2441 0
2441 169 173 174 0
-2442 176 177 178 0
-176 2442 0
-177 2442 0
-178 2442 0
2442 175 179 180 0
-2437 2443 0
-2444 0
-2445 0
-2438 2446 0
-2443 2446 0
-2438 -2443 2447 0
-2444 2447 0
-2438 -2444 2448 0
-2445 2448 0
-2438 -2445 0
-2439 2449 0
-2446 2449 0
-2439 -2446 2450 0
-2447 2450 0
-2439 -2447 2451 0
-2448 2451 0
-2439 -2448 0
-2440 2452 0
-2449 2452 0
-2440 -2449 2453 0
-2450 2453 0
-2440 -2450 2454 0
-2451 2454 0
-2440 -2451 0
-2441 2455 0
-2452 2455 0
-2441 -2452 2456 0
-2453 2456 0
-2441 -2453 2457 0
-2454 2457 0
-2441 -2454 0
-2442 -2457 0
-2461 146 147 148 149 0
-146 2461 0
-147 2461 0
-148 2461 0
-149 2461 0
2461 145 150 0
-2462 152 153 154 155 0
-152 2462 0
-153 2462 0
-154 2462 0
-155 2462 0
2462 151 156 0
-2463 158 159 160 161 0
-158 2463 0
-159 2463 0
-160 2463 0
-161 2463 0
2463 157 162 0
-2464 164 165 166 167 0
-164 2464 0
-165 2464 0
-166 2464 0
-167 2464 0
2464 163 168 0
-2465 170 171 172 173 0
-170 2465 0
-171 2465 0
-172 2465 0
-173 2465 0
2465 169 174 0
-2466 176 177 178 179 0
-176 2466 0
-177 2466 0
-178 2466 0
-179 2466 0
2466 175 180 0
-2461 2467 0
-2468 0
-2469 0
-2470 0
-2462 2471 0
-2467 2471 0
-2462 -2467 2472 0
-2468 2472 0
-2462 -2468 2473 0
-2469 2473 0
-2462 -2469 2474 0
-2470 2474 0
-2462 -2470 0
-2463 2475 0
-2471 2475 0
-2463 -2471 2476 0
-2472 2476 0
-2463 -2472 2477 0
-2473 2477 0
-2463 -2473 2478 0
-2474 2478 0
-2463 -2474 0
-2464 2479 0
-2475 2479 0
-2464 -2475 2480 0
-2476 2480 0
-2464 -2476 2481 0
-2477 2481 0
-2464 -2477 2482 0
-2478 2482 0
-2464 -2478 0
-2465 2483 0
-2479 2483 0
-2465 -2479 2484 0
-2480 2484 0
-2465 -2480 2485 0
-2481 2485 0
-2465 -2481 2486 0
-2482 2486 0
-2465 -2482 0
-2466 -2486 0
-2491 146 147 148 149 150 0
-146 2491 0
-147 2491 0
-148 2491 0
-149 2491 0
-150 2491 0
2491 145 0
-2492 152 153 154 155 156 0
-152 2492 0
-153 2492 0
-154 2492 0
-155 2492 0
-156 2492 0
2492 151 0
-2493 158 159 160 161 162 0
-158 2493 0
-159 2493 0
-160 2493 0
-161 2493 0
-162 2493 0
2493 157 0
-2494 164 165 166 167 168 0
-164 2494 0
-165 2494 0
-166 2494 0
-167 2494 0
-168 2494 0
2494 163 0
-2495 170 171 172 173 174 0
-170 2495 0
-171 2495 0
-172 2495 0
-173 2495 0
-174 2495 0
2495 169 0
-2496 176 177 178 179 180 0
-176 2496 0
-177 2496 0
-178 2496 0
-179 2496 0
-180 2496 0
2496 175 0
-2491 2497 0
-2498 0
-2499 0
-2500 0
-2501 0
-2492 2502 0
-2497 2502 0
-2492 -2497 2503 0
-2498 2503 0
-2492 -2498 2504 0
-2499 2504 0
-2492 -2499 2505 0
-2500 2505 0
-2492 -2500 2506 0
-2501 2506 0
-2492 -2501 0
-2493 2507 0
-2502 2507 0
-2493 -2502 2508 0
-2503 2508 0
-2493 -2503 2509 0
-2504 2509 0
-2493 -2504 2510 0
-2505 2510 0
-2493 -2505 2511 0
-2506 2511 0
-2493 -2506 0
-2494 2512 0
-2507 2512 0
-2494 -2507 2513 0
-2508 2513 0
-2494 -2508 2514 0
-2509 2514 0
-2494 -2509 2515 0
-2510 2515 0
-2494 -2510 2516 0
-2511 2516 0
-2494 -2511 0
-2495 2517 0
-2512 2517 0
-2495 -2512 2518 0
-2513 2518 0
-2495 -2513 2519 0
-2514 2519 0
-2495 -2514 2520 0
-2515 2520 0
-2495 -2515 2521 0
-2516 2521 0
-2495 -2516 0
-2496 -2521 0
-2527 147 0
-147 2527 0
2527 145 146 148 149 150 0
-2528 153 0
-153 2528 0
2528 151 152 154 155 156 0
-2529 159 0
-159 2529 0
2529 157 158 160 161 162 0
-2530 165 0
-165 2530 0
2530 163 164 166 167 168 0
-2531 171 0
-171 2531 0
2531 169 170 172 173 174 0
-2532 177 0
-177 2532 0
2532 175 176 178 179 180 0
-2527 2533 0
-2528 2534 0
-2533 2534 0
-2528 -2533 0
-2529 2535 0
-2534 2535 0
-2529 -2534 0
-2530 2536 0
-2535 2536 0
-2530 -2535 0
-2531 2537 0
-2536 2537 0
-2531 -2536 0
-2532 -2537 0
-2539 147 148 0
-147 2539 0
-148 2539 0
2539 145 146 149 150 0
-2540 153 154 0
-153 2540 0
-154 2540 0
2540 151 152 155 156 0
-2541 159 160 0
-159 2541 0
-160 2541 0
2541 157 158 161 162 0
-2542 165 166 0
-165 2542 0
-166 2542 0
2542 163 164 167 168 0
-2543 171 172 0
-171 2543 0
-172 2543 0
2543 169 170 173 174 0
-2544 177 178 0
-177 2544 0
-178 2544 0
2544 175 176 179 180 0
-2539 2545 0
-2546 0
-2540 2547 0
-2545 2547 0
-2540 -2545 2548 0
-2546 2548 0
-2540 -2546 0
-2541 2549 0
-2547 2549 0
-2541 -2547 2550 0
-2548 2550 0
-2541 -2548 0
-2542 2551 0
-2549 2551 0
-2542 -2549 2552 0
-2550 2552 0
-2542 -2550 0
-2543 2553 0
-2551 2553 0
-2543 -2551 2554 0
-2552 2554 0
-2543 -2552 0
-2544 -2554 0
-2557 147 148 149 0
-147 2557 0
-148 2557 0
-149 2557 0
2557 145 146 150 0
-2558 153 154 155 0
-153 2558 0
-154 2558 0
-155 2558 0
2558 151 152 156 0
-2559 159 160 161 0
-159 2559 0
-160 2559 0
-161 2559 0
2559 157 158 162 0
-2560 165 166 167 0
-165 2560 0
-166 2560 0
-167 2560 0
2560 163 164 168 0
-2561 171 172 173 0
-171 2561 0
-172 2561 0
-173 2561 0
2561 169 170 174 0
-2562 177 178 179 0
-177 2562 0
-178 2562 0
-179 2562 0
2562 175 176 180 0
-2557 2563 0
-2564 0
-2565 0
-2558 2566 0
-2563 2566 0
-2558 -2563 2567 0
-2564 2567 0
-2558 -2564 2568 0
-2565 2568 0
-2558 -2565 0
-2559 2569 0
-2566 2569 0
-2559 -2566 2570 0
-2567 2570 0
-2559 -2567 2571 0
-2568 2571 0
-2559 -2568 0
-2560 2572 0
-2569 2572 0
-2560 -2569 2573 0
-2570 2573 0
-2560 -2570 2574 0
-2571 2574 0
-2560 -2571 0
-2561 2575 0
-2572 2575 0
-2561 -2572 2576 0
-2573 2576 0
-2561 -2573 2577 0
-2574 2577 0
-2561 -2574 0
-2562 -2577 0
-2581 147 148 149 150 0
-147 2581 0
-148 2581 0
-149 2581 0
-150 2581 0
2581 145 146 0
-2582 153 154 155 156 0
-153 2582 0
-154 2582 0
-155 2582 0
-156 2582 0
2582 151 152 0
-2583 159 160 161 162 0
-159 2583 0
-160 2583 0
-161 2583 0
-162 2583 0
2583 157 158 0
-2584 165 166 167 168 0
-165 2584 0
-166 2584 0
-167 2584 0
-168 2584 0
2584 163 164 0
-2585 171 172 173 174 0
-171 2585 0
-172 2585 0
-173 2585 0
-174 2585 0
2585 169 170 0
-2586 177 178 179 180 0
-177 2586 0
-178 2586 0
-179 2586 0
-180 2586 0
2586 175 176 0
-2581 2587 0
-2588 0
-2589 0
-2590 0
-2582 2591 0
-2587 2591 0
-2582 -2587 2592 0
-2588 2592 0
-2582 -2588 2593 0
-2589 2593 0
-2582 -2589 2594 0
-2590 2594 0
-2582 -2590 0
-2583 2595 0
-2591 2595 0
-2583 -2591 2596 0
-2592 2596 0
-2583 -2592 2597 0
-2593 2597 0
-2583 -2593 2598 0
-2594 2598 0
-2583 -2594 0
-2584 2599 0
-2595 2599 0
-2584 -2595 2600 0
-2596 2600 0
-2584 -2596 2601 0
-2597 2601 0
-2584 -2597 2602 0
-2598 2602 0
-2584 -2598 0
-2585 2603 0
-2599 2603 0
-2585 -2599 2604 0
-2600 2604 0
-2585 -2600 2605 0
-2601 2605 0
-2585 -2601 2606 0
-2602 2606 0
-2585 -2602 0
-2586 -2606 0
-2611 148 0
-148 2611 0
2611 145 146 147 149 150 0
-2612 154 0
-154 2612 0
2612 151 152 153 155 156 0
-2613 160 0
-160 2613 0
2613 157 158 159 161 162 0
-2614 166 0
-166 2614 0
2614 163 164 165 167 168 0
-2615 172 0
-172 2615 0
2615 169 170 171 173 174 0
-2616 178 0
-178 2616 0
2616 175 176 177 179 180 0
-2611 2617 0
-2612 2618 0
-2617 2618 0
-2612 -2617 0
-2613 2619 0
-2618 2619 0
-2613 -2618 0
-2614 2620 0
-2619 2620 0
-2614 -2619 0
-2615 2621 0
-2620 2621 0
-2615 -2620 0
-2616 -2621 0
-2623 148 149 0
-148 2623 0
-149 2623 0
2623 145 146 147 150 0
-2624 154 155 0
-154 2624 0
-155 2624 0
2624 151 152 153 156 0
-2625 160 161 0
-160 2625 0
-161 2625 0
2625 157 158 159 162 0
-2626 166 167 0
-166 2626 0
-167 2626 0
2626 163 164 165 168 0
-2627 172 173 0
-172 2627 0
-173 2627 0
2627 169 170 171 174 0
-2628 178 179 0
-178 2628 0
-179 2628 0
2628 175 176 177 180 0
-2623 2629 0
-2630 0
-2624 2631 0
-2629 2631 0
-2624 -2629 2632 0
-2630 2632 0
-2624 -2630 0
-2625 2633 0
-2631 2633 0
-2625 -2631 2634 0
-2632 2634 0
-2625 -2632 0
-2626 2635 0
-2633 2635 0
-2626 -2633 2636 0
-2634 2636 0
-2626 -2634 0
-2627 2637 0
-2635 2637 0
-2627 -2635 2638 0
-2636 2638 0
-2627 -2636 0
-2628 -2638 0
-2641 148 149 150 0
-148 2641 0
-149 2641 0
-150 2641 0
2641 145 146 147 0
-2642 154 155 156 0
-154 2642 0
-155 2642 0
-156 2642 0
2642 151 152 153 0
-2643 160 161 162 0
-160 2643 0
-161 2643 0
-162 2643 0
2643 157 158 159 0
-2644 166 167 168 0
-166 2644 0
-167 2644 0
-168 2644 0
2644 163 164 165 0
-2645 172 173 174 0
-172 2645 0
-173 2645 0
-174 2645 0
2645 169 170 171 0
-2646 178 179 180 0
-178 2646 0
-179 2646 0
-180 2646 0
2646 175 176 177 0
-2641 2647 0
-2648 0
-2649 0
-2642 2650 0
-2647 2650 0
-2642 -2647 2651 0
-2648 2651 0
-2642 -2648 2652 0
-2649 2652 0
-2642 -2649 0
-2643 2653 0
-2650 2653 0
-2643 -2650 2654 0
-2651 2654 0
-2643 -2651 2655 0
-2652 2655 0
-2643 -2652 0
-2644 2656 0
-2653 2656 0
-2644 -2653 2657 0
-2654 2657 0
-2644 -2654 2658 0
-2655 2658 0
-2644 -2655 0
-2645 2659 0
-2656 2659 0
-2645 -2656 2660 0
-2657 2660 0
-2645 -2657 2661 0
-2658 2661 0
-2645 -2658 0
-2646 -2661 0
-2665 149 0
-149 2665 0
2665 145 146 147 148 150 0
-2666 155 0
-155 2666 0
2666 151 152 153 154 156 0
-2667 161 0
-161 2667 0
2667 157 158 159 160 162 0
-2668 167 0
-167 2668 0
2668 163 164 165 166 168 0
-2669 173 0
-173 2669 0
2669 169 170 171 172 174 0
-2670 179 0
-179 2670 0
2670 175 176 177 178 180 0
-2665 2671 0
-2666 2672 0
-2671 2672 0
-2666 -2671 0
-2667 2673 0
-2672 2673 0
-2667 -2672 0
-2668 2674 0
-2673 2674 0
-2668 -2673 0
-2669 2675 0
-2674 2675 0
-2669 -2674 0
-2670 -2675 0
-2677 149 150 0
-149 2677 0
-150 2677 0
2677 145 146 147 148 0
-2678 155 156 0
-155 2678 0
-156 2678 0
2678 151 152 153 154 0
-2679 161 162 0
-161 2679 0
-162 2679 0
2679 157 158 159 160 0
-2680 167 168 0
-167 2680 0
-168 2680 0
2680 163 164 165 166 0
-2681 173 174 0
-173 2681 0
-174 2681 0
2681 169 170 171 172 0
-2682 179 180 0
-179 2682 0
-180 2682 0
2682 175 176 177 178 0
-2677 2683 0
-2684 0
-2678 2685 0
-2683 2685 0
-2678 -2683 2686 0
-2684 2686 0
-2678 -2684 0
-2679 2687 0
-2685 2687 0
-2679 -2685 2688 0
-2686 2688 0
-2679 -2686 0
-2680 2689 0
-2687 2689 0
-2680 -2687 2690 0
-2688 2690 0
-2680 -2688 0
-2681 2691 0
-2689 2691 0
-2681 -2689 2692 0
-2690 2692 0
-2681 -2690 0
-2682 -2692 0
-2695 150 0
-150 2695 0
2695 145 146 147 148 149 0
-2696 156 0
-156 2696 0
2696 151 152 153 154 155 0
-2697 162 0
-162 2697 0
2697 157 158 159 160 161 0
-2698 168 0
-168 2698 0
2698 163 164 165 166 167 0
-2699 174 0
-174 2699 0
2699 169 170 171 172 173 0
-2700 180 0
-180 2700 0
2700 175 176 177 178 179 0
-2695 2701 0
-2696 2702 0
-2701 2702 0
-2696 -2701 0
-2697 2703 0
-2702 2703 0
-2697 -2702 0
-2698 2704 0
-2703 2704 0
-2698 -2703 0
-2699 2705 0
-2704 2705 0
-2699 -2704 0
-2700 -2705 0
-145 2707 0
-151 2708 0
-2707 2708 0
-151 -2707 0
-157 2709 0
-2708 2709 0
-157 -2708 0
-163 2710 0
-2709 2710 0
-163 -2709 0
-169 2711 0
-2710 2711 0
-169 -2710 0
-175 -2711 0
145 151 157 163 169 175 0
-146 2713 0
-152 2714 0
-2713 2714 0
-152 -2713 0
-158 2715 0
-2714 2715 0
-158 -2714 0
-164 2716 0
-2715 2716 0
-164 -2715 0
-170 2717 0
-2716 2717 0
-170 -2716 0
-176 -2717 0
146 152 158 164 170 176 0
-147 2719 0
-153 2720 0
-2719 2720 0
-153 -2719 0
-159 2721 0
-2720 2721 0
-159 -2720 0
-165 2722 0
-2721 2722 0
-165 -2721 0
-171 2723 0
-2722 2723 0
-171 -2722 0
-177 -2723 0
147 153 159 165 171 177 0
-148 2725 0
-154 2726 0
-2725 2726 0
-154 -2725 0
-160 2727 0
-2726 2727 0
-160 -2726 0
-166 2728 0
-2727 2728 0
-166 -2727 0
-172 2729 0
-2728 2729 0
-172 -2728 0
-178 -2729 0
148 154 160 166 172 178 0
-149 2731 0
-155 2732 0
-2731 2732 0
-155 -2731 0
-161 2733 0
-2732 2733 0
-161 -2732 0
-167 2734 0
-2733 2734 0
-167 -2733 0
-173 2735 0
-2734 2735 0
-173 -2734 0
-179 -2735 0
149 155 161 167 173 179 0
-150 2737 0
-156 2738 0
-2737 2738 0
-156 -2737 0
-162 2739 0
-2738 2739 0
-162 -2738 0
-168 2740 0
-2739 2740 0
-168 -2739 0
-174 2741 0
-2740 2741 0
-174 -2740 0
-180 -2741 0
150 156 162 168 174 180 0
-2743 181 0
-181 2743 0
2743 182 183 184 185 186 0
-2744 187 0
-187 2744 0
2744 188 189 190 191 192 0
-2745 193 0
-193 2745 0
2745 194 195 196 197 198 0
-2746 199 0
-199 2746 0
2746 200 201 202 203 204 0
-2747 205 0
-205 2747 0
2747 206 207 208 209 210 0
-2748 211 0
-211 2748 0
2748 212 213 214 215 216 0
-2743 2749 0
-2744 2750 0
-2749 2750 0
-2744 -2749 0
-2745 2751 0
-2750 2751 0
-2745 -2750 0
-2746 2752 0
-2751 2752 0
-2746 -2751 0
-2747 2753 0
-2752 2753 0
-2747 -2752 0
-2748 -2753 0
-2755 181 182 0
-181 2755 0
-182 2755 0
2755 183 184 185 186 0
-2756 187 188 0
-187 2756 0
-188 2756 0
2756 189 190 191 192 0
-2757 193 194 0
-193 2757 0
-194 2757 0
2757 195 196 197 198 0
-2758 199 200 0
-199 2758 0
-200 2758 0
2758 201 202 203 204 0
-2759 205 206 0
-205 2759 0
-206 2759 0
2759 207 208 209 210 0
-2760 211 212 0
-211 2760 0
-212 2760 0
2760 213 214 215 216 0
-2755 2761 0
-2762 0
-2756 2763 0
-2761 2763 0
-2756 -2761 2764 0
-2762 2764 0
-2756 -2762 0
-2757 2765 0
-2763 2765 0
-2757 -2763 2766 0
-2764 2766 0
-2757 -2764 0
-2758 2767 0
-2765 2767 0
-2758 -2765 2768 0
-2766 2768 0
-2758 -2766 0
-2759 2769 0
-2767 2769 0
-2759 -2767 2770 0
-2768 2770 0
-2759 -2768 0
-2760 -2770 0
-2773 181 182 183 0
-181 2773 0
-182 2773 0
-183 2773 0
2773 184 185 186 0
-2774 187 188 189 0
-187 2774 0
-188 2774 0
-189 2774 0
2774 190 191 192 0
-2775 193 194 195 0
-193 2775 0
-194 2775 0
-195 2775 0
2775 196 197 198 0
-2776 199 200 201 0
-199 2776 0
-200 2776 0
-201 2776 0
2776 202 203 204 0
-2777 205 206 207 0
-205 2777 0
-206 2777 0
-207 2777 0
2777 208 209 210 0
-2778 211 212 213 0
-211 2778 0
-212 2778 0
-213 2778 0
2778 214 215 216 0
-2773 2779 0
-2780 0
-2781 0
-2774 2782 0
-2779 2782 0
-2774 -2779 2783 0
-2780 2783 0
-2774 -2780 2784 0
-2781 2784 0
-2774 -2781 0
-2775 2785 0
-2782 2785 0
-2775 -2782 2786 0
-2783 2786 0
-2775 -2783 2787 0
-2784 2787 0
-2775 -2784 0
-2776 2788 0
-2785 2788 0
-2776 -2785 2789 0
-2786 2789 0
-2776 -2786 2790 0
-2787 2790 0
-2776 -2787 0
-2777 2791 0
-2788 2791 0
-2777 -2788 2792 0
-2789 2792 0
-2777 -2789 2793 0
-2790 2793 0
-2777 -2790 0
-2778 -2793 0
-2797 181 182 183 184 0
-181 2797 0
-182 2797 0
-183 2797 0
-184 2797 0
2797 185 186 0
-2798 187 188 189 190 0
-187 2798 0
-188 2798 0
-189 2798 0
-190 2798 0
2798 191 192 0
-2799 193 194 195 196 0
-193 2799 0
-194 2799 0
-195 2799 0
-196 2799 0
2799 197 198 0
-2800 199 200 201 202 0
-199 2800 0
-200 2800 0
-201 2800 0
-202 2800 0
2800 203 204 0
-2801 205 206 207 208 0
-205 2801 0
-206 2801 0
-207 2801 0
-208 2801 0
2801 209 210 0
-2802 211 212 213 214 0
-211 2802 0
-212 2802 0
-213 2802 0
-214 2802 0
2802 215 216 0
-2797 2803 0
-2804 0
-2805 0
-2806 0
-2798 2807 0
-2803 2807 0
-2798 -2803 2808 0
-2804 2808 0
-2798 -2804 2809 0
-2805 2809 0
-2798 -2805 2810 0
-2806 2810 0
-2798 -2806 0
-2799 2811 0
-2807 2811 0
-2799 -2807 2812 0
-2808 2812 0
-2799 -2808 2813 0
-2809 2813 0
-2799 -2809 2814 0
-2810 2814 0
-2799 -2810 0
-2800 2815 0
-2811 2815 0
-2800 -2811 2816 0
-2812 2816 0
-2800 -2812 2817 0
-2813 2817 0
-2800 -2813 2818 0
-2814 2818 0
-2800 -2814 0
-2801 2819 0
-2815 2819 0
-2801 -2815 2820 0
-2816 2820 0
-2801 -2816 2821 0
-2817 2821 0
-2801 -2817 2822 0
-2818 2822 0
-2801 -2818 0
-2802 -2822 0
-2827 181 182 183 184 185 0
-181 2827 0
-182 2827 0
-183 2827 0
-184 2827 0
-185 2827 0
2827 186 0
-2828 187 188 189 190 191 0
-187 2828 0
-188 2828 0
-189 2828 0
-190 2828 0
-191 2828 0
2828 192 0
-2829 193 194 195 196 197 0
-193 2829 0
-194 2829 0
-195 2829 0
-196 2829 0
-197 2829 0
2829 198 0
-2830 199 200 201 202 203 0
-199 2830 0
-200 2830 0
-201 2830 0
-202 2830 0
-203 2830 0
2830 204 0
-2831 205 206 207 208 209 0
-205 2831 0
-206 2831 0
-207 2831 0
-208 2831 0
-209 2831 0
2831 210 0
-2832 211 212 213 214 215 0
-211 2832 0
-212 2832 0
-213 2832 0
-214 2832 0
-215 2832 0
2832 216 0
-2827 2833 0
-2834 0
-2835 0
-2836 0
-2837 0
-2828 2838 0
-2833 2838 0
-2828 -2833 2839 0
-2834 2839 0
-2828 -2834 2840 0
-2835 2840 0
-2828 -2835 2841 0
-2836 2841 0
-2828 -2836 2842 0
-2837 2842 0
-2828 -2837 0
-2829 2843 0
-2838 2843 0
-2829 -2838 2844 0
-2839 2844 0
-2829 -2839 2845 0
-2840 2845 0
-2829 -2840 2846 0
-2841 2846 0
-2829 -2841 2847 0
-2842 2847 0
-2829 -2842 0
-2830 2848 0
-2843 2848 0
-2830 -2843 2849 0
-2844 2849 0
-2830 -2844 2850 0
-2845 2850 0
-2830 -2845 2851 0
-2846 2851 0
-2830 -2846 2852 0
-2847 2852 0
-2830 -2847 0
-2831 2853 0
-2848 2853 0
-2831 -2848 2854 0
-2849 2854 0
-2831 -2849 2855 0
-2850 2855 0
-2831 -2850 2856 0
-2851 2856 0
-2831 -2851 2857 0
-2852 2857 0
-2831 -2852 0
-2832 -2857 0
-2863 181 182 183 184 185 186 0
-181 2863 0
-182 2863 0
-183 2863 0
-184 2863 0
-185 2863 0
-186 2863 0
2863 0
-2864 187 188 189 190 191 192 0
-187 2864 0
-188 2864 0
-189 2864 0
-190 2864 0
-191 2864 0
-192 2864 0
2864 0
-2865 193 194 195 196 197 198 0
-193 2865 0
-194 2865 0
-195 2865 0
-196 2865 0
-197 2865 0
-198 2865 0
2865 0
-2866 199 200 201 202 203 204 0
-199 2866 0
-200 2866 0
-201 2866 0
-202 2866 0
-203 2866 0
-204 2866 0
2866 0
-2867 205 206 207 208 209 210 0
-205 2867 0
-206 2867 0
-207 2867 0
-208 2867 0
-209 2867 0
-210 2867 0
2867 0
-2868 211 212 213 214 215 216 0
-211 2868 0
-212 2868 0
-213 2868 0
-214 2868 0
-215 2868 0
-216 2868 0
2868 0
-2869 182 0
-182 2869 0
2869 181 183 184 185 186 0
-2870 188 0
-188 2870 0
2870 187 189 190 191 192 0
-2871 194 0
-194 2871 0
2871 193 195 196 197 198 0
-2872 200 0
-200 2872 0
2872 199 201 202 203 204 0
-2873 206 0
-206 2873 0
2873 205 207 208 209 210 0
-2874 212 0
-212 2874 0
2874 211 213 214 215 216 0
-2869 2875 0
-2870 2876 0
-2875 2876 0
-2870 -2875 0
-2871 2877 0
-2876 2877 0
-2871 -2876 0
-2872 2878 0
-2877 2878 0
-2872 -2877 0
-2873 2879 0
-2878 2879 0
-2873 -2878 0
-2874 -2879 0
-2881 182 183 0
-182 2881 0
-183 2881 0
2881 181 184 185 186 0
-2882 188 189 0
-188 2882 0
-189 2882 0
2882 187 190 191 192 0
-2883 194 195 0
-194 2883 0
-195 2883 0
2883 193 196 197 198 0
-2884 200 201 0
-200 2884 0
-201 2884 0
2884 199 202 203 204 0
-2885 206 207 0
-206 2885 0
-207 2885 0
2885 205 208 209 210 0
-2886 212 213 0
-212 2886 0
-213 2886 0
2886 211 214 215 216 0
-2881 2887 0
-2888 0
-2882 2889 0
-2887 2889 0
-2882 -2887 2890 0
-2888 2890 0
-2882 -2888 0
-2883 2891 0
-2889 2891 0
-2883 -2889 2892 0
-2890 2892 0
-2883 -2890 0
-2884 2893 0
-2891 2893 0
-2884 -2891 2894 0
-2892 2894 0
-2884 -2892 0
-2885 2895 0
-2893 2895 0
-2885 -2893 2896 0
-2894 2896 0
-2885 -2894 0
-2886 -2896 0
-2899 182 183 184 0
-182 2899 0
-183 2899 0
-184 2899 0
2899 181 185 186 0
-2900 188 189 190 0
-188 2900 0
-189 2900 0
-190 2900 0
2900 187 191 192 0
-2901 194 195 196 0
-194 2901 0
-195 2901 0
-196 2901 0
2901 193 197 198 0
-2902 200 201 202 0
-200 2902 0
-201 2902 0
-202 2902 0
2902 199 203 204 0
-2903 206 207 208 0
-206 2903 0
-207 2903 0
-208 2903 0
2903 205 209 210 0
-2904 212 213 214 0
-212 2904 0
-213 2904 0
-214 2904 0
2904 211 215 216 0
-2899 2905 0
-2906 0
-2907 0
-2900 2908 0
-2905 2908 0
-2900 -2905 2909 0
-2906 2909 0
-2900 -2906 2910 0
-2907 2910 0
-2900 -2907 0
-2901 2911 0
-2908 2911 0
-2901 -2908 2912 0
-2909 2912 0
-2901 -2909 2913 0
-2910 2913 0
-2901 -2910 0
-2902 2914 0
-2911 2914 0
-2902 -2911 2915 0
-2912 2915 0
-2902 -2912 2916 0
-2913 2916 0
-2902 -2913 0
-2903 2917 0
-2914 2917 0
-2903 -2914 2918 0
-2915 2918 0
-2903 -2915 2919 0
-2916 2919 0
-2903 -2916 0
-2904 -2919 0
-2923 182 183 184 185 0
-182 2923 0
-183 2923 0
-184 2923 0
-185 2923 0
2923 181 186 0
-2924 188 189 190 191 0
-188 2924 0
-189 2924 0
-190 2924 0
-191 2924 0
2924 187 192 0
-2925 194 195 196 197 0
-194 2925 0
-195 2925 0
-196 2925 0
-197 2925 0
2925 193 198 0
-2926 200 201 202 203 0
-200 2926 0
-201 2926 0
-202 2926 0
-203 2926 0
2926 199 204 0
-2927 206 207 208 209 0
-206 2927 0
-207 2927 0
-208 2927 0
-209 2927 0
2927 205 210 0
-2928 212 213 214 215 0
-212 2928 0
-213 2928 0
-214 2928 0
-215 2928 0
2928 211 216 0
-2923 2929 0
-2930 0
-2931 0
-2932 0
-2924 2933 0
-2929 2933 0
-2924 -2929 2934 0
-2930 2934 0
-2924 -2930 2935 0
-2931 2935 0
-2924 -2931 2936 0
-2932 2936 0
-2924 -2932 0
-2925 2937 0
-2933 2937 0
-2925 -2933 2938 0
-2934 2938 0
-2925 -2934 2939 0
-2935 2939 0
-2925 -2935 2940 0
-2936 2940 0
-2925 -2936 0
-2926 2941 0
-2937 2941 0
-2926 -2937 2942 0
-2938 2942 0
-2926 -2938 2943 0
-2939 2943 0
-2926 -2939 2944 0
-2940 2944 0
-2926 -2940 0
-2927 2945 0
-2941 2945 0
-2927 -2941 2946 0
-2942 2946 0
-2927 -2942 2947 0
-2943 2947 0
-2927 -2943 2948 0
-2944 2948 0
-2927 -2944 0
-2928 -2948 0
-2953 182 183 184 185 186 0
-182 2953 0
-183 2953 0
-184 2953 0
-185 2953 0
-186 2953 0
2953 181 0
-2954 188 189 190 191 192 0
-188 2954 0
-189 2954 0
-190 2954 0
-191 2954 0
-192 2954 0
2954 187 0
-2955 194 195 196 197 198 0
-194 2955 0
-195 2955 0
-196 2955 0
-197 2955 0
-198 2955 0
2955 193 0
-2956 200 201 202 203 204 0
-200 2956 0
-201 2956 0
-202 2956 0
-203 2956 0
-204 2956 0
2956 199 0
-2957 206 207 208 209 210 0
-206 2957 0
-207 2957 0
-208 2957 0
-209 2957 0
-210 2957 0
2957 205 0
-2958 212 213 214 215 216 0
-212 2958 0
-213 2958 0
-214 2958 0
-215 2958 0
-216 2958 0
2958 211 0
-2953 2959 0
-2960 0
-2961 0
-2962 0
-2963 0
-2954 2964 0
-2959 2964 0
-2954 -2959 2965 0
-2960 2965 0
-2954 -2960 2966 0
-2961 2966 0
-2954 -2961 2967 0
-2962 2967 0
-2954 -2962 2968 0
-2963 2968 0
-2954 -2963 0
-2955 2969 0
-2964 2969 0
-2955 -2964 2970 0
-2965 2970 0
-2955 -2965 2971 0
-2966 2971 0
-2955 -2966 2972 0
-2967 2972 0
-2955 -2967 2973 0
-2968 2973 0
-2955 -2968 0
-2956 2974 0
-2969 2974 0
-2956 -2969 2975 0
-2970 2975 0
-2956 -2970 2976 0
-2971 2976 0
-2956 -2971 2977 0
-2972 2977 0
-2956 -2972 2978 0
-2973 2978 0
-2956 -2973 0
-2957 2979 0
-2974 2979 0
-2957 -2974 2980 0
-2975 2980 0
-2957 -2975 2981 0
-2976 2981 0
-2957 -2976 2982 0
-2977 2982 0
-2957 -2977 2983 0
-2978 2983 0
-2957 -2978 0
-2958 -2983 0
-2989 183 0
-183 2989 0
2989 181 182 184 185 186 0
-2990 189 0
-189 2990 0
2990 187 188 190 191 192 0
-2991 195 0
-195 2991 0
2991 193 194 196 197 198 0
-2992 201 0
-201 2992 0
2992 199 200 202 203 204 0
-2993 207 0
-207 2993 0
2993 205 206 208 209 210 0
-2994 213 0
-213 2994 0
2994 211 212 214 215 216 0
-2989 2995 0
-2990 2996 0
-2995 2996 0
-2990 -2995 0
-2991 2997 0
-2996 2997 0
-2991 -2996 0
-2992 2998 0
-2997 2998 0
-2992 -2997 0
-2993 2999 0
-2998 2999 0
-2993 -2998 0
-2994 -2999 0
-3001 183 184 0
-183 3001 0
-184 3001 0
3001 181 182 185 186 0
-3002 189 190 0
-189 3002 0
-190 3002 0
3002 187 188 191 192 0
-3003 195 196 0
-195 3003 0
-196 3003 0
3003 193 194 197 198 0
-3004 201 202 0
-201 3004 0
-202 3004 0
3004 199 200 203 204 0
-3005 207 208 0
-207 3005 0
-208 3005 0
3005 205 206 209 210 0
-3006 213 214 0
-213 3006 0
-214 3006 0
3006 211 212 215 216 0
-3001 3007 0
-3008 0
-3002 3009 0
-3007 3009 0
-3002 -3007 3010 0
-3008 3010 0
-3002 -3008 0
-3003 3011 0
-3009 3011 0
-3003 -3009 3012 0
-3010 3012 0
-3003 -3010 0
-3004 3013 0
-3011 3013 0
-3004 -3011 3014 0
-3012 3014 0
-3004 -3012 0
-3005 3015 0
-3013 3015 0
-3005 -3013 3016 0
-3014 3016 0
-3005 -3014 0
-3006 -3016 0
-3019 183 184 185 0
-183 3019 0
-184 3019 0
-185 3019 0
3019 181 182 186 0
-3020 189 190 191 0
-189 3020 0
-190 3020 0
-191 3020 0
3020 187 188 192 0
-3021 195 196 197 0
-195 3021 0
-196 3021 0
-197 3021 0
3021 193 194 198 0
-3022 201 202 203 0
-201 3022 0
-202 3022 0
-203 3022 0
3022 199 200 204 0
-3023 207 208 209 0
-207 3023 0
-208 3023 0
-209 3023 0
3023 205 206 210 0
-3024 213 214 215 0
-213 3024 0
-214 3024 0
-215 3024 0
3024 211 212 216 0
-3019 3025 0
-3026 0
-3027 0
-3020 3028 0
-3025 3028 0
-3020 -3025 3029 0
-3026 3029 0
-3020 -3026 3030 0
-3027 3030 0
-3020 -3027 0
-3021 3031 0
-3028 3031 0
-3021 -3028 3032 0
-3029 3032 0
-3021 -3029 3033 0
-3030 3033 0
-3021 -3030 0
-3022 3034 0
-3031 3034 0
-3022 -3031 3035 0
-3032 3035 0
-3022 -3032 3036 0
-3033 3036 0
-3022 -3033 0
-3023 3037 0
-3034 3037 0
-3023 -3034 3038 0
-3035 3038 0
-3023 -3035 3039 0
-3036 3039 0
-3023 -3036 0
-3024 -3039 0
-3043 183 184 185 186 0
-183 3043 0
-184 3043 0
-185 3043 0
-186 3043 0
3043 181 182 0
-3044 189 190 191 192 0
-189 3044 0
-190 3044 0
-191 3044 0
-192 3044 0
3044 187 188 0
-3045 195 196 197 198 0
-195 3045 0
-196 3045 0
-197 3045 0
-198 3045 0
3045 193 194 0
-3046 201 202 203 204 0
-201 3046 0
-202 3046 0
-203 3046 0
-204 3046 0
3046 199 200 0
-3047 207 208 209 210 0
-207 3047 0
-208 3047 0
-209 3047 0
-210 3047 0
3047 205 206 0
-3048 213 214 215 216 0
-213 3048 0
-214 3048 0
-215 3048 0
-216 3048 0
3048 211 212 0
-3043 3049 0
-3050 0
-3051 0
-3052 0
-3044 3053 0
-3049 3053 0
-3044 -3049 3054 0
-3050 3054 0
-3044 -3050 3055 0
-3051 3055 0
-3044 -3051 3056 0
-3052 3056 0
-3044 -3052 0
-3045 3057 0
-3053 3057 0
-3045 -3053 3058 0
-3054 3058 0
-3045 -3054 3059 0
-3055 3059 0
-3045 -3055 3060 0
-3056 3060 0
-3045 -3056 0
-3046 3061 0
-3057 3061 0
-3046 -3057 3062 0
-3058 3062 0
-3046 -3058 3063 0
-3059 3063 0
-3046 -3059 3064 0
-3060 3064 0
-3046 -3060 0
-3047 3065 0
-3061 3065 0
-3047 -3061 3066 0
-3062 3066 0
-3047 -3062 3067 0
-3063 3067 0
-3047 -3063 3068 0
-3064 3068 0
-3047 -3064 0
-3048 -3068 0
-3073 184 0
-184 3073 0
3073 181 182 183 185 186 0
-3074 190 0
-190 3074 0
3074 187 188 189 191 192 0
-3075 196 0
-196 3075 0
3075 193 194 195 197 198 0
-3076 202 0
-202 3076 0
3076 199 200 201 203 204 0
-3077 208 0
-208 3077 0
3077 205 206 207 209 210 0
-3078 214 0
-214 3078 0
3078 211 212 213 215 216 0
-3073 3079 0
-3074 3080 0
-3079 3080 0
-3074 -3079 0
-3075 3081 0
-3080 3081 0
-3075 -3080 0
-3076 3082 0
-3081 3082 0
-3076 -3081 0
-3077 3083 0
-3082 3083 0
-3077 -3082 0
-3078 -3083 0
-3085 184 185 0
-184 3085 0
-185 3085 0
3085 181 182 183 186 0
-3086 190 191 0
-190 3086 0
-191 3086 0
3086 187 188 189 192 0
-3087 196 197 0
-196 3087 0
-197 3087 0
3087 193 194 195 198 0
-3088 202 203 0
-202 3088 0
-203 3088 0
3088 199 200 201 204 0
-3089 208 209 0
-208 3089 0
-209 3089 0
3089 205 206 207 210 0
-3090 214 215 0
-214 3090 0
-215 3090 0
3090 211 212 213 216 0
-3085 3091 0
-3092 0
-3086 3093 0
-3091 3093 0
-3086 -3091 3094 0
-3092 3094 0
-3086 -3092 0
-3087 3095 0
-3093 3095 0
-3087 -3093 3096 0
-3094 3096 0
-3087 -3094 0
-3088 3097 0
-3095 3097 0
-3088 -3095 3098 0
-3096 3098 0
-3088 -3096 0
-3089 3099 0
-3097 3099 0
-3089 -3097 3100 0
-3098 3100 0
-3089 -3098 0
-3090 -3100 0
-3103 184 185 186 0
-184 3103 0
-185 3103 0
-186 3103 0
3103 181 182 183 0
-3104 190 191 192 0
-190 3104 0
-191 3104 0
-192 3104 0
3104 187 188 189 0
-3105 196 197 198 0
-196 3105 0
-197 3105 0
-198 3105 0
3105 193 194 195 0
-3106 202 203 204 0
-202 3106 0
-203 3106 0
-204 3106 0
3106 199 200 201 0
-3107 208 209 210 0
-208 3107 0
-209 3107 0
-210 3107 0
3107 205 206 207 0
-3108 214 215 216 0
-214 3108 0
-215 3108 0
-216 3108 0
3108 211 212 213 0
-3103 3109 0
-3110 0
-3111 0
-3104 3112 0
-3109 3112 0
-3104 -3109 3113 0
-3110 3113 0
-3104 -3110 3114 0
-3111 3114 0
-3104 -3111 0
-3105 3115 0
-3112 3115 0
-3105 -3112 3116 0
-3113 3116 0
-3105 -3113 3117 0
-3114 3117 0
-3105 -3114 0
-3106 3118 0
-3115 3118 0
-3106 -3115 3119 0
-3116 3119 0
-3106 -3116 3120 0
-3117 3120 0
-3106 -3117 0
-3107 3121 0
-3118 3121 0
-3107 -3118 3122 0
-3119 3122 0
-3107 -3119 3123 0
-3120 3123 0
-3107 -3120 0
-3108 -3123 0
-3127 185 0
-185 3127 0
3127 181 182 183 184 186 0
-3128 191 0
-191 3128 0
3128 187 188 189 190 192 0
-3129 197 0
-197 3129 0
3129 193 194 195 196 198 0
-3130 203 0
-203 3130 0
3130 199 200 201 202 204 0
-3131 209 0
-209 3131 0
3131 205 206 207 208 210 0
-3132 215 0
-215 3132 0
3132 211 212 213 214 216 0
-3127 3133 0
-3128 3134 0
-3133 3134 0
-3128 -3133 0
-3129 3135 0
-3134 3135 0
-3129 -3134 0
-3130 3136 0
-3135 3136 0
-3130 -3135 0
-3131 3137 0
-3136 3137 0
-3131 -3136 0
-3132 -3137 0
-3139 185 186 0
-185 3139 0
-186 3139 0
3139 181 182 183 184 0
-3140 191 192 0
-191 3140 0
-192 3140 0
3140 187 188 189 190 0
-3141 197 198 0
-197 3141 0
-198 3141 0
3141 193 194 195 196 0
-3142 203 204 0
-203 3142 0
-204 3142 0
3142 199 200 201 202 0
-3143 209 210 0
-209 3143 0
-210 3143 0
3143 205 206 207 208 0
-3144 215 216 0
-215 3144 0
-216 3144 0
3144 211 212 213 214 0
-3139 3145 0
-3146 0
-3140 3147 0
-3145 3147 0
-3140 -3145 3148 0
-3146 3148 0
-3140 -3146 0
-3141 3149 0
-3147 3149 0
-3141 -3147 3150 0
-3148 3150 0
-3141 -3148 0
-3142 3151 0
-3149 3151 0
-3142 -3149 3152 0
-3150 3152 0
-3142 -3150 0
-3143 3153 0
-3151 3153 0
-3143 -3151 3154 0
-3152 3154 0
-3143 -3152 0
-3144 -3154 0
-3157 186 0
-186 3157 0
3157 181 182 183 184 185 0
-3158 192 0
-192 3158 0
3158 187 188 189 190 191 0
-3159 198 0
-198 3159 0
3159 193 194 195 196 197 0
-3160 204 0
-204 3160 0
3160 199 200 201 202 203 0
-3161 210 0
-210 3161 0
3161 205 206 207 208 209 0
-3162 216 0
-216 3162 0
3162 211 212 213 214 215 0
-3157 3163 0
-3158 3164 0
-3163 3164 0
-3158 -3163 0
-3159 3165 0
-3164 3165 0
-3159 -3164 0
-3160 3166 0
-3165 3166 0
-3160 -3165 0
-3161 3167 0
-3166 3167 0
-3161 -3166 0
-3162 -3167 0
-181 3169 0
-187 3170 0
-3169 3170 0
-187 -3169 0
-193 3171 0
-3170 3171 0
-193 -3170 0
-199 3172 0
-3171 3172 0
-199 -3171 0
-205 3173 0
-3172 3173 0
-205 -3172 0
-211 -3173 0
181 187 193 199 205 211 0
-182 3175 0
-188 3176 0
-3175 3176 0
-188 -3175 0
-194 3177 0
-3176 3177 0
-194 -3176 0
-200 3178 0
-3177 3178 0
-200 -3177 0
-206 3179 0
-3178 3179 0
-206 -3178 0
-212 -3179 0
182 188 194 200 206 212 0
-183 3181 0
-189 3182 0
-3181 3182 0
-189 -3181 0
-195 3183 0
-3182 3183 0
-195 -3182 0
-201 3184 0
-3183 3184 0
-201 -3183 0
-207 3185 0
-3184 3185 0
-207 -3184 0
-213 -3185 0
183 189 195 201 207 213 0
-184 3187 0
-190 3188 0
-3187 3188 0
-190 -3187 0
-196 3189 0
-3188 3189 0
-196 -3188 0
-202 3190 0
-3189 3190 0
-202 -3189 0
-208 3191 0
-3190 3191 0
-208 -3190 0
-214 -3191 0
184 190 196 202 208 214 0
-185 3193 0
-191 3194 0
-3193 3194 0
-191 -3193 0
-197 3195 0
-3194 3195 0
-197 -3194 0
-203 3196 0
-3195 3196 0
-203 -3195 0
-209 3197 0
-3196 3197 0
-209 -3196 0
-215 -3197 0
185 191 197 203 209 215 0
-186 3199 0
-192 3200 0
-3199 3200 0
-192 -3199 0
-198 3201 0
-3200 3201 0
-198 -3200 0
-204 3202 0
-3201 3202 0
-204 -3201 0
-210 3203 0
-3202 3203 0
-210 -3202 0
-216 -3203 0
186 192 198 204 210 216 0
-3205 1 0
-1 3205 0
3205 2 3 4 5 6 0
-3206 37 0
-37 3206 0
3206 38 39 40 41 42 0
-3207 73 0
-73 3207 0
3207 74 75 76 77 78 0
-3208 109 0
-109 3208 0
3208 110 111 112 113 114 0
-3209 145 0
-145 3209 0
3209 146 147 148 149 150 0
-3210 181 0
-181 3210 0
3210 182 183 184 185 186 0
-3205 3211 0
-3206 3212 0
-3211 3212 0
-3206 -3211 0
-3207 3213 0
-3212 3213 0
-3207 -3212 0
-3208 3214 0
-3213 3214 0
-3208 -3213 0
-3209 3215 0
-3214 3215 0
-3209 -3214 0
-3210 -3215 0
-3217 1 2 0
-1 3217 0
-2 3217 0
3217 3 4 5 6 0
-3218 37 38 0
-37 3218 0
-38 3218 0
3218 39 40 41 42 0
-3219 73 74 0
-73 3219 0
-74 3219 0
3219 75 76 77 78 0
-3220 109 110 0
-109 3220 0
-110 3220 0
3220 111 112 113 114 0
-3221 145 146 0
-145 3221 0
-146 3221 0
3221 147 148 149 150 0
-3222 181 182 0
-181 3222 0
-182 3222 0
3222 183 184 185 186 0
-3217 3223 0
-3224 0
-3218 3225 0
-3223 3225 0
-3218 -3223 3226 0
-3224 3226 0
-3218 -3224 0
-3219 3227 0
-3225 3227 0
-3219 -3225 3228 0
-3226 3228 0
-3219 -3226 0
-3220 3229 0
-3227 3229 0
-3220 -3227 3230 0
-3228 3230 0
-3220 -3228 0
-3221 3231 0
-3229 3231 0
-3221 -3229 3232 0
-3230 3232 0
-3221 -3230 0
-3222 -3232 0
-3235 1 2 3 0
-1 3235 0
-2 3235 0
-3 3235 0
3235 4 5 6 0
-3236 37 38 39 0
-37 3236 0
-38 3236 0
-39 3236 0
3236 40 41 42 0
-3237 73 74 75 0
-73 3237 0
-74 3237 0
-75 3237 0
3237 76 77 78 0
-3238 109 110 111 0
-109 3238 0
-110 3238 0
-111 3238 0
3238 112 113 114 0
-3239 145 146 147 0
-145 3239 0
-146 3239 0
-147 3239 0
3239 148 149 150 0
-3240 181 182 183 0
-181 3240 0
-182 3240 0
-183 3240 0
3240 184 185 186 0
-3235 3241 0
-3242 0
-3243 0
-3236 3244 0
-3241 3244 0
-3236 -3241 3245 0
-3242 3245 0
-3236 -3242 3246 0
-3243 3246 0
-3236 -3243 0
-3237 3247 0
-3244 3247 0
-3237 -3244 3248 0
-3245 3248 0
-3237 -3245 3249 0
-3246 3249 0
-3237 -3246 0
-3238 3250 0
-3247 3250 0
-3238 -3247 3251 0
-3248 3251 0
-3238 -3248 3252 0
-3249 3252 0
-3238 -3249 0
-3239 3253 0
-3250 3253 0
-3239 -3250 3254 0
-3251 3254 0
-3239 -3251 3255 0
-3252 3255 0
-3239 -3252 0
-3240 -3255 0
-3259 1 2 3 4 0
-1 3259 0
-2 3259 0
-3 3259 0
-4 3259 0
3259 5 6 0
-3260 37 38 39 40 0
-37 3260 0
-38 3260 0
-39 3260 0
-40 3260 0
3260 41 42 0
-3261 73 74 75 76 0
-73 3261 0
-74 3261 0
-75 3261 0
-76 3261 0
3261 77 78 0
-3262 109 110 111 112 0
-109 3262 0
-110 3262 0
-111 3262 0
-112 3262 0
3262 113 114 0
-3263 145 146 147 148 0
-145 3263 0
-146 3263 0
-147 3263 0
-148 3263 0
3263 149 150 0
-3264 181 182 183 184 0
-181 3264 0
-182 3264 0
-183 3264 0
-184 3264 0
3264 185 186 0
-3259 3265 0
-3266 0
-3267 0
-3268 0
-3260 3269 0
-3265 3269 0
-3260 -3265 3270 0
-3266 3270 0
-3260 -3266 3271 0
-3267 3271 0
-3260 -3267 3272 0
-3268 3272 0
-3260 -3268 0
-3261 3273 0
-3269 3273 0
-3261 -3269 3274 0
-3270 3274 0
-3261 -3270 3275 0
-3271 3275 0
-3261 -3271 3276 0
-3272 3276 0
-3261 -3272 0
-3262 3277 0
-3273 3277 0
-3262 -3273 3278 0
-3274 3278 0
-3262 -3274 3279 0
-3275 3279 0
-3262 -3275 3280 0
-3276 3280 0
-3262 -3276 0
-3263 3281 0
-3277 3281 0
-3263 -3277 3282 0
-3278 3282 0
-3263 -3278 3283 0
-3279 3283 0
-3263 -3279 3284 0
-3280 3284 0
-3263 -3280 0
-3264 -3284 0
-3289 1 2 3 4 5 0
-1 3289 0
-2 3289 0
-3 3289 0
-4 3289 0
-5 3289 0
3289 6 0
-3290 37 38 39 40 41 0
-37 3290 0
-38 3290 0
-39 3290 0
-40 3290 0
-41 3290 0
3290 42 0
-3291 73 74 75 76 77 0
-73 3291 0
-74 3291 0
-75 3291 0
-76 3291 0
-77 3291 0
3291 78 0
-3292 109 110 111 112 113 0
-109 3292 0
-110 3292 0
-111 3292 0
-112 3292 0
-113 3292 0
3292 114 0
-3293 145 146 147 148 149 0
-145 3293 0
-146 3293 0
-147 3293 0
-148 3293 0
-149 3293 0
3293 150 0
-3294 181 182 183 184 185 0
-181 3294 0
-182 3294 0
-183 3294 0
-184 3294 0
-185 3294 0
3294 186 0
-3289 3295 0
-3296 0
-3297 0
-3298 0
-3299 0
-3290 3300 0
-3295 3300 0
-3290 -3295 3301 0
-3296 3301 0
-3290 -3296 3302 0
-3297 3302 0
-3290 -3297 3303 0
-3298 3303 0
-3290 -3298 3304 0
-3299 3304 0
-3290 -3299 0
-3291 3305 0
-3300 3305 0
-3291 -3300 3306 0
-3301 3306 0
-3291 -3301 3307 0
-3302 3307 0
-3291 -3302 3308 0
-3303 3308 0
-3291 -3303 3309 0
-3304 3309 0
-3291 -3304 0
-3292 3310 0
-3305 3310 0
-3292 -3305 3311 0
-3306 3311 0
-3292 -3306 3312 0
-3307 3312 0
-3292 -3307 3313 0
-3308 3313 0
-3292 -3308 3314 0
-3309 3314 0
-3292 -3309 0
-3293 3315 0
-3310 3315 0
-3293 -3310 3316 0
-3311 3316 0
-3293 -3311 3317 0
-3312 3317 0
-3293 -3312 3318 0
-3313 3318 0
-3293 -3313 3319 0
-3314 3319 0
-3293 -3314 0
-3294 -3319 0
-3325 1 2 3 4 5 6 0
-1 3325 0
-2 3325 0
-3 3325 0
-4 3325 0
-5 3325 0
-6 3325 0
3325 0
-3326 37 38 39 40 41 42 0
-37 3326 0
-38 3326 0
-39 3326 0
-40 3326 0
-41 3326 0
-42 3326 0
3326 0
-3327 73 74 75 76 77 78 0
-73 3327 0
-74 3327 0
-75 3327 0
-76 3327 0
-77 3327 0
-78 3327 0
3327 0
-3328 109 110 111 112 113 114 0
-109 3328 0
-110 3328 0
-111 3328 0
-112 3328 0
-113 3328 0
-114 3328 0
3328 0
-3329 145 146 147 148 149 150 0
-145 3329 0
-146 3329 0
-147 3329 0
-148 3329 0
-149 3329 0
-150 3329 0
3329 0
-3330 181 182 183 184 185 186 0
-181 3330 0
-182 3330 0
-183 3330 0
-184 3330 0
-185 3330 0
-186 3330 0
3330 0
-3331 2 0
-2 3331 0
3331 1 3 4 5 6 0
-3332 38 0
-38 3332 0
3332 37 39 40 41 42 0
-3333 74 0
-74 3333 0
3333 73 75 76 77 78 0
-3334 110 0
-110 3334 0
3334 109 111 112 113 114 0
-3335 146 0
-146 3335 0
3335 145 147 148 149 150 0
-3336 182 0
-182 3336 0
3336 181 183 184 185 186 0
-3331 3337 0
-3332 3338 0
-3337 3338 0
-3332 -3337 0
-3333 3339 0
-3338 3339 0
-3333 -3338 0
-3334 3340 0
-3339 3340 0
-3334 -3339 0
-3335 3341 0
-3340 3341 0
-3335 -3340 0
-3336 -3341 0
-3343 2 3 0
-2 3343 0
-3 3343 0
3343 1 4 5 6 0
-3344 38 39 0
-38 3344 0
-39 3344 0
3344 37 40 41 42 0
-3345 74 75 0
-74 3345 0
-75 3345 0
3345 73 76 77 78 0
-3346 110 111 0
-110 3346 0
-111 3346 0
3346 109 112 113 114 0
-3347 146 147 0
-146 3347 0
-147 3347 0
3347 145 148 149 150 0
-3348 182 183 0
-182 3348 0
-183 3348 0
3348 181 184 185 186 0
-3343 3349 0
-3350 0
-3344 3351 0
-3349 3351 0
-3344 -3349 3352 0
-3350 3352 0
-3344 -3350 0
-3345 3353 0
-3351 3353 0
-3345 -3351 3354 0
-3352 3354 0
-3345 -3352 0
-3346 3355 0
-3353 3355 0
-3346 -3353 3356 0
-3354 3356 0
-3346 -3354 0
-3347 3357 0
-3355 3357 0
-3347 -3355 3358 0
-3356 3358 0
-3347 -3356 0
-3348 -3358 0
-3361 2 3 4 0
-2 3361 0
-3 3361 0
-4 3361 0
3361 1 5 6 0
-3362 38 39 40 0
-38 3362 0
-39 3362 0
-40 3362 0
3362 37 41 42 0
-3363 74 75 76 0
-74 3363 0
-75 3363 0
-76 3363 0
3363 73 77 78 0
-3364 110 111 112 0
-110 3364 0
-111 3364 0
-112 3364 0
3364 109 113 114 0
-3365 146 147 148 0
-146 3365 0
-147 3365 0
-148 3365 0
3365 145 149 150 0
-3366 182 183 184 0
-182 3366 0
-183 3366 0
-184 3366 0
3366 181 185 186 0
-3361 3367 0
-3368 0
-3369 0
-3362 3370 0
-3367 3370 0
-3362 -3367 3371 0
-3368 3371 0
-3362 -3368 3372 0
-3369 3372 0
-3362 -3369 0
-3363 3373 0
-3370 3373 0
-3363 -3370 3374 0
-3371 3374 0
-3363 -3371 3375 0
-3372 3375 0
-3363 -3372 0
-3364 3376 0
-3373 3376 0
-3364 -3373 3377 0
-3374 3377 0
-3364 -3374 3378 0
-3375 3378 0
-3364 -3375 0
-3365 3379 0
-3376 3379 0
-3365 -3376 3380 0
-3377 3380 0
-3365 -3377 3381 0
-3378 3381 0
-3365 -3378 0
-3366 -3381 0
-3385 2 3 4 5 0
-2 3385 0
-3 3385 0
-4 3385 0
-5 3385 0
3385 1 6 0
-3386 38 39 40 41 0
-38 3386 0
-39 3386 0
-40 3386 0
-41 3386 0
3386 37 42 0
-3387 74 75 76 77 0
-74 3387 0
-75 3387 0
-76 3387 0
-77 3387 0
3387 73 78 0
-3388 110 111 112 113 0
-110 3388 0
-111 3388 0
-112 3388 0
-113 3388 0
3388 109 114 0
-3389 146 147 148 149 0
-146 3389 0
-147 3389 0
-148 3389 0
-149 3389 0
3389 145 150 0
-3390 182 183 184 185 0
-182 3390 0
-183 3390 0
-184 3390 0
-185 3390 0
3390 181 186 0
-3385 3391 0
-3392 0
-3393 0
-3394 0
-3386 3395 0
-3391 3395 0
-3386 -3391 3396 0
-3392 3396 0
-3386 -3392 3397 0
-3393 3397 0
-3386 -3393 3398 0
-3394 3398 0
-3386 -3394 0
-3387 3399 0
-3395 3399 0
-3387 -3395 3400 0
-3396 3400 0
-3387 -3396 3401 0
-3397 3401 0
-3387 -3397 3402 0
-3398 3402 0
-3387 -3398 0
-3388 3403 0
-3399 3403 0
-3388 -3399 3404 0
-3400 3404 0
-3388 -3400 3405 0
-3401 3405 0
-3388 -3401 3406 0
-3402 3406 0
-3388 -3402 0
-3389 3407 0
-3403 3407 0
-3389 -3403 3408 0
-3404 3408 0
-3389 -3404 3409 0
-3405 3409 0
-3389 -3405 3410 0
-3406 3410 0
-3389 -3406 0
-3390 -3410 0
-3415 2 3 4 5 6 0
-2 3415 0
-3 3415 0
-4 3415 0
-5 3415 0
-6 3415 0
3415 1 0
-3416 38 39 40 41 42 0
-38 3416 0
-39 3416 0
-40 3416 0
-41 3416 0
-42 3416 0
3416 37 0
-3417 74 75 76 77 78 0
-74 3417 0
-75 3417 0
-76 3417 0
-77 3417 0
-78 3417 0
3417 73 0
-3418 110 111 112 113 114 0
-110 3418 0
-111 3418 0
-112 3418 0
-113 3418 0
-114 3418 0
3418 109 0
-3419 146 147 148 149 150 0
-146 3419 0
-147 3419 0
-148 3419 0
-149 3419 0
-150 3419 0
3419 145 0
-3420 182 183 184 185 186 0
-182 3420 0
-183 3420 0
-184 3420 0
-185 3420 0
-186 3420 0
3420 181 0
-3415 3421 0
-3422 0
-3423 0
-3424 0
-3425 0
-3416 3426 0
-3421 3426 0
-3416 -3421 3427 0
-3422 3427 0
-3416 -3422 3428 0
-3423 3428 0
-3416 -3423 3429 0
-3424 3429 0
-3416 -3424 3430 0
-3425 3430 0
-3416 -3425 0
-3417 3431 0
-3426 3431 0
-3417 -3426 3432 0
-3427 3432 0
-3417 -3427 3433 0
-3428 3433 0
-3417 -3428 3434 0
-3429 3434 0
-3417 -3429 3435 0
-3430 3435 0
-3417 -3430 0
-3418 3436 0
-3431 3436 0
-3418 -3431 3437 0
-3432 3437 0
-3418 -3432 3438 0
-3433 3438 0
-3418 -3433 3439 0
-3434 3439 0
-3418 -3434 3440 0
-3435 3440 0
-3418 -3435 0
-3419 3441 0
-3436 3441 0
-3419 -3436 3442 0
-3437 3442 0
-3419 -3437 3443 0
-3438 3443 0
-3419 -3438 3444 0
-3439 3444 0
-3419 -3439 3445 0
-3440 3445 0
-3419 -3440 0
-3420 -3445 0
-3451 3 0
-3 3451 0
3451 1 2 4 5 6 0
-3452 39 0
-39 3452 0
3452 37 38 40 41 42 0
-3453 75 0
-75 3453 0
3453 73 74 76 77 78 0
-3454 111 0
-111 3454 0
3454 109 110 112 113 114 0
-3455 147 0
-147 3455 0
3455 145 146 148 149 150 0
-3456 183 0
-183 3456 0
3456 181 182 184 185 186 0
-3451 3457 0
-3452 3458 0
-3457 3458 0
-3452 -3457 0
-3453 3459 0
-3458 3459 0
-3453 -3458 0
-3454 3460 0
-3459 3460 0
-3454 -3459 0
-3455 3461 0
-3460 3461 0
-3455 -3460 0
-3456 -3461 0
-3463 3 4 0
-3 3463 0
-4 3463 0
3463 1 2 5 6 0
-3464 39 40 0
-39 3464 0
-40 3464 0
3464 37 38 41 42 0
-3465 75 76 0
-75 3465 0
-76 3465 0
3465 73 74 77 78 0
-3466 111 112 0
-111 3466 0
-112 3466 0
3466 109 110 113 114 0
-3467 147 148 0
-147 3467 0
-148 3467 0
3467 145 146 149 150 0
-3468 183 184 0
-183 3468 0
-184 3468 0
3468 181 182 185 186 0
-3463 3469 0
-3470 0
-3464 3471 0
-3469 3471 0
-3464 -3469 3472 0
-3470 3472 0
-3464 -3470 0
-3465 3473 0
-3471 3473 0
-3465 -3471 3474 0
-3472 3474 0
-3465 -3472 0
-3466 3475 0
-3473 3475 0
-3466 -3473 3476 0
-3474 3476 0
-3466 -3474 0
-3467 3477 0
-3475 3477 0
-3467 -3475 3478 0
-3476 3478 0
-3467 -3476 0
-3468 -3478 0
-3481 3 4 5 0
-3 3481 0
-4 3481 0
-5 3481 0
3481 1 2 6 0
-3482 39 40 41 0
-39 3482 0
-40 3482 0
-41 3482 0
3482 37 38 42 0
-3483 75 76 77 0
-75 3483 0
-76 3483 0
-77 3483 0
3483 73 74 78 0
-3484 111 112 113 0
-111 3484 0
-112 3484 0
-113 3484 0
3484 109 110 114 0
-3485 147 148 149 0
-147 3485 0
-148 3485 0
-149 3485 0
3485 145 146 150 0
-3486 183 184 185 0
-183 3486 0
-184 3486 0
-185 3486 0
3486 181 182 186 0
-3481 3487 0
-3488 0
-3489 0
-3482 3490 0
-3487 3490 0
-3482 -3487 3491 0
-3488 3491 0
-3482 -3488 3492 0
-3489 3492 0
-3482 -3489 0
-3483 3493 0
-3490 3493 0
-3483 -3490 3494 0
-3491 3494 0
-3483 -3491 3495 0
-3492 3495 0
-3483 -3492 0
-3484 3496 0
-3493 3496 0
-3484 -3493 3497 0
-3494 3497 0
-3484 -3494 3498 0
-3495 3498 0
-3484 -3495 0
-3485 3499 0
-3496 3499 0
-3485 -3496 3500 0
-3497 3500 0
-3485 -3497 3501 0
-3498 3501 0
-3485 -3498 0
-3486 -3501 0
-3505 3 4 5 6 0
-3 3505 0
-4 3505 0
-5 3505 0
-6 3505 0
3505 1 2 0
-3506 39 40 41 42 0
-39 3506 0
-40 3506 0
-41 3506 0
-42 3506 0
3506 37 38 0
-3507 75 76 77 78 0
-75 3507 0
-76 3507 0
-77 3507 0
-78 3507 0
3507 73 74 0
-3508 111 112 113 114 0
-111 3508 0
-112 3508 0
-113 3508 0
-114 3508 0
3508 109 110 0
-3509 147 148 149 150 0
-147 3509 0
-148 3509 0
-149 3509 0
-150 3509 0
3509 145 146 0
-3510 183 184 185 186 0
-183 3510 0
-184 3510 0
-185 3510 0
-186 3510 0
3510 181 182 0
-3505 3511 0
-3512 0
-3513 0
-3514 0
-3506 3515 0
-3511 3515 0
-3506 -3511 3516 0
-3512 3516 0
-3506 -3512 3517 0
-3513 3517 0
-3506 -3513 3518 0
-3514 3518 0
-3506 -3514 0
-3507 3519 0
-3515 3519 0
-3507 -3515 3520 0
-3516 3520 0
-3507 -3516 3521 0
-3517 3521 0
-3507 -3517 3522 0
-3518 3522 0
-3507 -3518 0
-3508 3523 0
-3519 3523 0
-3508 -3519 3524 0
-3520 3524 0
-3508 -3520 3525 0
-3521 3525 0
-3508 -3521 3526 0
-3522 3526 0
-3508 -3522 0
-3509 3527 0
-3523 3527 0
-3509 -3523 3528 0
-3524 3528 0
-3509 -3524 3529 0
-3525 3529 0
-3509 -3525 3530 0
-3526 3530 0
-3509 -3526 0
-3510 -3530 0
-3535 4 0
-4 3535 0
3535 1 2 3 5 6 0
-3536 40 0
-40 3536 0
3536 37 38 39 41 42 0
-3537 76 0
-76 3537 0
3537 73 74 75 77 78 0
-3538 112 0
-112 3538 0
3538 109 110 111 113 114 0
-3539 148 0
-148 3539 0
3539 145 146 147 149 150 0
-3540 184 0
-184 3540 0
3540 181 182 183 185 186 0
-3535 3541 0
-3536 3542 0
-3541 3542 0
-3536 -3541 0
-3537 3543 0
-3542 3543 0
-3537 -3542 0
-3538 3544 0
-3543 3544 0
-3538 -3543 0
-3539 3545 0
-3544 3545 0
-3539 -3544 0
-3540 -3545 0
-3547 4 5 0
-4 3547 0
-5 3547 0
3547 1 2 3 6 0
-3548 40 41 0
-40 3548 0
-41 3548 0
3548 37 38 39 42 0
-3549 76 77 0
-76 3549 0
-77 3549 0
3549 73 74 75 78 0
-3550 112 113 0
-112 3550 0
-113 3550 0
3550 109 110 111 114 0
-3551 148 149 0
-148 3551 0
-149 3551 0
3551 145 146 147 150 0
-3552 184 185 0
-184 3552 0
-185 3552 0
3552 181 182 183 186 0
-3547 3553 0
-3554 0
-3548 3555 0
-3553 3555 0
-3548 -3553 3556 0
-3554 3556 0
-3548 -3554 0
-3549 3557 0
-3555 3557 0
-3549 -3555 3558 0
-3556 3558 0
-3549 -3556 0
-3550 3559 0
-3557 3559 0
-3550 -3557 3560 0
-3558 3560 0
-3550 -3558 0
-3551 3561 0
-3559 3561 0
-3551 -3559 3562 0
-3560 3562 0
-3551 -3560 0
-3552 -3562 0
-3565 4 5 6 0
-4 3565 0
-5 3565 0
-6 3565 0
3565 1 2 3 0
-3566 40 41 42 0
-40 3566 0
-41 3566 0
-42 3566 0
3566 37 38 39 0
-3567 76 77 78 0
-76 3567 0
-77 3567 0
-78 3567 0
3567 73 74 75 0
-3568 112 113 114 0
-112 3568 0
-113 3568 0
-114 3568 0
3568 109 110 111 0
-3569 148 149 150 0
-148 3569 0
-149 3569 0
-150 3569 0
3569 145 146 147 0
-3570 184 185 186 0
-184 3570 0
-185 3570 0
-186 3570 0
3570 181 182 183 0
-3565 3571 0
-3572 0
-3573 0
-3566 3574 0
-3571 3574 0
-3566 -3571 3575 0
-3572 3575 0
-3566 -3572 3576 0
-3573 3576 0
-3566 -3573 0
-3567 3577 0
-3574 3577 0
-3567 -3574 3578 0
-3575 3578 0
-3567 -3575 3579 0
-3576 3579 0
-3567 -3576 0
-3568 3580 0
-3577 3580 0
-3568 -3577 3581 0
-3578 3581 0
-3568 -3578 3582 0
-3579 3582 0
-3568 -3579 0
-3569 3583 0
-3580 3583 0
-3569 -3580 3584 0
-3581 3584 0
-3569 -3581 3585 0
-3582 3585 0
-3569 -3582 0
-3570 -3585 0
-3589 5 0
-5 3589 0
3589 1 2 3 4 6 0
-3590 41 0
-41 3590 0
3590 37 38 39 40 42 0
-3591 77 0
-77 3591 0
3591 73 74 75 76 78 0
-3592 113 0
-113 3592 0
3592 109 110 111 112 114 0
-3593 149 0
-149 3593 0
3593 145 146 147 148 150 0
-3594 185 0
-185 3594 0
3594 181 182 183 184 186 0
-3589 3595 0
-3590 3596 0
-3595 3596 0
-3590 -3595 0
-3591 3597 0
-3596 3597 0
-3591 -3596 0
-3592 3598 0
-3597 3598 0
-3592 -3597 0
-3593 3599 0
-3598 3599 0
-3593 -3598 0
-3594 -3599 0
-3601 5 6 0
-5 3601 0
-6 3601 0
3601 1 2 3 4 0
-3602 41 42 0
-41 3602 0
-42 3602 0
3602 37 38 39 40 0
-3603 77 78 0
-77 3603 0
-78 3603 0
3603 73 74 75 76 0
-3604 113 114 0
-113 3604 0
-114 3604 0
3604 109 110 111 112 0
-3605 149 150 0
-149 3605 0
-150 3605 0
3605 145 146 147 148 0
-3606 185 186 0
-185 3606 0
-186 3606 0
3606 181 182 183 184 0
-3601 3607 0
-3608 0
-3602 3609 0
-3607 3609 0
-3602 -3607 3610 0
-3608 3610 0
-3602 -3608 0
-3603 3611 0
-3609 3611 0
-3603 -3609 3612 0
-3610 3612 0
-3603 -3610 0
-3604 3613 0
-3611 3613 0
-3604 -3611 3614 0
-3612 3614 0
-3604 -3612 0
-3605 3615 0
-3613 3615 0
-3605 -3613 3616 0
-3614 3616 0
-3605 -3614 0
-3606 -3616 0
-3619 6 0
-6 3619 0
3619 1 2 3 4 5 0
-3620 42 0
-42 3620 0
3620 37 38 39 40 41 0
-3621 78 0
-78 3621 0
3621 73 74 75 76 77 0
-3622 114 0
-114 3622 0
3622 109 110 111 112 113 0
-3623 150 0
-150 3623 0
3623 145 146 147 148 149 0
-3624 186 0
-186 3624 0
3624 181 182 183 184 185 0
-3619 3625 0
-3620 3626 0
-3625 3626 0
-3620 -3625 0
-3621 3627 0
-3626 3627 0
-3621 -3626 0
-3622 3628 0
-3627 3628 0
-3622 -3627 0
-3623 3629 0
-3628 3629 0
-3623 -3628 0
-3624 -3629 0
-1 3631 0
-37 3632 0
-3631 3632 0
-37 -3631 0
-73 3633 0
-3632 3633 0
-73 -3632 0
-109 3634 0
-3633 3634 0
-109 -3633 0
-145 3635 0
-3634 3635 0
-145 -3634 0
-181 -3635 0
1 37 73 109 145 181 0
-2 3637 0
-38 3638 0
-3637 3638 0
-38 -3637 0
-74 3639 0
-3638 3639 0
-74 -3638 0
-110 3640 0
-3639 3640 0
-110 -3639 0
-146 3641 0
-3640 3641 0
-146 -3640 0
-182 -3641 0
2 38 74 110 146 182 0
-3 3643 0
-39 3644 0
-3643 3644 0
-39 -3643 0
-75 3645 0
-3644 3645 0
-75 -3644 0
-111 3646 0
-3645 3646 0
-111 -3645 0
-147 3647 0
-3646 3647 0
-147 -3646 0
-183 -3647 0
3 39 75 111 147 183 0
-4 3649 0
-40 3650 0
-3649 3650 0
-40 -3649 0
-76 3651 0
-3650 3651 0
-76 -3650 0
-112 3652 0
-3651 3652 0
-112 -3651 0
-148 3653 0
-3652 3653 0
-148 -3652 0
-184 -3653 0
4 40 76 112 148 184 0
-5 3655 0
-41 3656 0
-3655 3656 0
-41 -3655 0
-77 3657 0
-3656 3657 0
-77 -3656 0
-113 3658 0
-3657 3658 0
-113 -3657 0
-149 3659 0
-3658 3659 0
-149 -3658 0
-185 -3659 0
5 41 77 113 149 185 0
-6 3661 0
-42 3662 0
-3661 3662 0
-42 -3661 0
-78 3663 0
-3662 3663 0
-78 -3662 0
-114 3664 0
-3663 3664 0
-114 -3663 0
-150 3665 0
-3664 3665 0
-150 -3664 0
-186 -3665 0
6 42 78 114 150 186 0
-3667 7 0
-7 3667 0
3667 8 9 10 11 12 0
-3668 43 0
-43 3668 0
3668 44 45 46 47 48 0
-3669 79 0
-79 3669 0
3669 80 81 82 83 84 0
-3670 115 0
-115 3670 0
3670 116 117 118 119 120 0
-3671 151 0
-151 3671 0
3671 152 153 154 155 156 0
-3672 187 0
-187 3672 0
3672 188 189 190 191 192 0
-3667 3673 0
-3668 3674 0
-3673 3674 0
-3668 -3673 0
-3669 3675 0
-3674 3675 0
-3669 -3674 0
-3670 3676 0
-3675 3676 0
-3670 -3675 0
-3671 3677 0
-3676 3677 0
-3671 -3676 0
-3672 -3677 0
-3679 7 8 0
-7 3679 0
-8 3679 0
3679 9 10 11 12 0
-3680 43 44 0
-43 3680 0
-44 3680 0
3680 45 46 47 48 0
-3681 79 80 0
-79 3681 0
-80 3681 0
3681 81 82 83 84 0
-3682 115 116 0
-115 3682 0
-116 3682 0
3682 117 118 119 120 0
-3683 151 152 0
-151 3683 0
-152 3683 0
3683 153 154 155 156 0
-3684 187 188 0
-187 3684 0
-188 3684 0
3684 189 190 191 192 0
-3679 3685 0
-3686 0
-3680 3687 0
-3685 3687 0
-3680 -3685 3688 0
-3686 3688 0
-3680 -3686 0
-3681 3689 0
-3687 3689 0
-3681 -3687 3690 0
-3688 3690 0
-3681 -3688 0
-3682 3691 0
-3689 3691 0
-3682 -3689 3692 0
-3690 3692 0
-3682 -3690 0
-3683 3693 0
-3691 3693 0
-3683 -3691 3694 0
-3692 3694 0
-3683 -3692 0
-3684 -3694 0
-3697 7 8 9 0
-7 3697 0
-8 3697 0
-9 3697 0
3697 10 11 12 0
-3698 43 44 45 0
-43 3698 0
-44 3698 0
-45 3698 0
3698 46 47 48 0
-3699 79 80 81 0
-79 3699 0
-80 3699 0
-81 3699 0
3699 82 83 84 0
-3700 115 116 117 0
-115 3700 0
-116 3700 0
-117 3700 0
3700 118 119 120 0
-3701 151 152 153 0
-151 3701 0
-152 3701 0
-153 3701 0
3701 154 155 156 0
-3702 187 188 189 0
-187 3702 0
-188 3702 0
-189 3702 0
3702 190 191 192 0
-3697 3703 0
-3704 0
-3705 0
-3698 3706 0
-3703 3706 0
-3698 -3703 3707 0
-3704 3707 0
-3698 -3704 3708 0
-3705 3708 0
-3698 -3705 0
-3699 3709 0
-3706 3709 0
-3699 -3706 3710 0
-3707 3710 0
-3699 -3707 3711 0
-3708 3711 0
-3699 -3708 0
-3700 3712 0
-3709 3712 0
-3700 -3709 3713 0
-3710 3713 0
-3700 -3710 3714 0
-3711 3714 0
-3700 -3711 0
-3701 3715 0
-3712 3715 0
-3701 -3712 3716 0
-3713 3716 0
-3701 -3713 3717 0
-3714 3717 0
-3701 -3714 0
-3702 -3717 0
-3721 7 8 9 10 0
-7 3721 0
-8 3721 0
-9 3721 0
-10 3721 0
3721 11 12 0
-3722 43 44 45 46 0
-43 3722 0
-44 3722 0
-45 3722 0
-46 3722 0
3722 47 48 0
-3723 79 80 81 82 0
-79 3723 0
-80 3723 0
-81 3723 0
-82 3723 0
3723 83 84 0
-3724 115 116 117 118 0
-115 3724 0
-116 3724 0
-117 3724 0
-118 3724 0
3724 119 120 0
-3725 151 152 153 154 0
-151 3725 0
-152 3725 0
-153 3725 0
-154 3725 0
3725 155 156 0
-3726 187 188 189 190 0
-187 3726 0
-188 3726 0
-189 3726 0
-190 3726 0
3726 191 192 0
-3721 3727 0
-3728 0
-3729 0
-3730 0
-3722 3731 0
-3727 3731 0
-3722 -3727 3732 0
-3728 3732 0
-3722 -3728 3733 0
-3729 3733 0
-3722 -3729 3734 0
-3730 3734 0
-3722 -3730 0
-3723 3735 0
-3731 3735 0
-3723 -3731 3736 0
-3732 3736 0
-3723 -3732 3737 0
-3733 3737 0
-3723 -3733 3738 0
-3734 3738 0
-3723 -3734 0
-3724 3739 0
-3735 3739 0
-3724 -3735 3740 0
-3736 3740 0
-3724 -3736 3741 0
-3737 3741 0
-3724 -3737 3742 0
-3738 3742 0
-3724 -3738 0
-3725 3743 0
-3739 3743 0
-3725 -3739 3744 0
-3740 3744 0
-3725 -3740 3745 0
-3741 3745 0
-3725 -3741 3746 0
-3742 3746 0
-3725 -3742 0
-3726 -3746 0
-3751 7 8 9 10 11 0
-7 3751 0
-8 3751 0
-9 3751 0
-10 3751 0
-11 3751 0
3751 12 0
-3752 43 44 45 46 47 0
-43 3752 0
-44 3752 0
-45 3752 0
-46 3752 0
-47 3752 0
3752 48 0
-3753 79 80 81 82 83 0
-79 3753 0
-80 3753 0
-81 3753 0
-82 3753 0
-83 3753 0
3753 84 0
-3754 115 116 117 118 119 0
-115 3754 0
-116 3754 0
-117 3754 0
-118 3754 0
-119 3754 0
3754 120 0
-3755 151 152 153 154 155 0
-151 3755 0
-152 3755 0
-153 3755 0
-154 3755 0
-155 3755 0
3755 156 0
-3756 187 188 189 190 191 0
-187 3756 0
-188 3756 0
-189 3756 0
-190 3756 0
-191 3756 0
3756 192 0
-3751 3757 0
-3758 0
-3759 0
-3760 0
-3761 0
-3752 3762 0
-3757 3762 0
-3752 -3757 3763 0
-3758 3763 0
-3752 -3758 3764 0
-3759 3764 0
-3752 -3759 3765 0
-3760 3765 0
-3752 -3760 3766 0
-3761 3766 0
-3752 -3761 0
-3753 3767 0
-3762 3767 0
-3753 -3762 3768 0
-3763 3768 0
-3753 -3763 3769 0
-3764 3769 0
-3753 -3764 3770 0
-3765 3770 0
-3753 -3765 3771 0
-3766 3771 0
-3753 -3766 0
-3754 3772 0
-3767 3772 0
-3754 -3767 3773 0
-3768 3773 0
-3754 -3768 3774 0
-3769 3774 0
-3754 -3769 3775 0
-3770 3775 0
-3754 -3770 3776 0
-3771 3776 0
-3754 -3771 0
-3755 3777 0
-3772 3777 0
-3755 -3772 3778 0
-3773 3778 0
-3755 -3773 3779 0
-3774 3779 0
-3755 -3774 3780 0
-3775 3780 0
-3755 -3775 3781 0
-3776 3781 0
-3755 -3776 0
-3756 -3781 0
-3787 7 8 9 10 11 12 0
-7 3787 0
-8 3787 0
-9 3787 0
-10 3787 0
-11 3787 0
-12 3787 0
3787 0
-3788 43 44 45 46 47 48 0
-43 3788 0
-44 3788 0
-45 3788 0
-46 3788 0
-47 3788 0
-48 3788 0
3788 0
-3789 79 80 81 82 83 84 0
-79 3789 0
-80 3789 0
-81 3789 0
-82 3789 0
-83 3789 0
-84 3789 0
3789 0
-3790 115 116 117 118 119 120 0
-115 3790 0
-116 3790 0
-117 3790 0
-118 3790 0
-119 3790 0
-120 3790 0
3790 0
-3791 151 152 153 154 155 156 0
-151 3791 0
-152 3791 0
-153 3791 0
-154 3791 0
-155 3791 0
-156 3791 0
3791 0
-3792 187 188 189 190 191 192 0
-187 3792 0
-188 3792 0
-189 3792 0
-190 3792 0
-191 3792 0
-192 3792 0
3792 0
-3793 8 0
-8 3793 0
3793 7 9 10 11 12 0
-3794 44 0
-44 3794 0
3794 43 45 46 47 48 0
-3795 80 0
-80 3795 0
3795 79 81 82 83 84 0
-3796 116 0
-116 3796 0
3796 115 117 118 119 120 0
-3797 152 0
-152 3797 0
3797 151 153 154 155 156 0
-3798 188 0
-188 3798 0
3798 187 189 190 191 192 0
-3793 3799 0
-3794 3800 0
-3799 3800 0
-3794 -3799 0
-3795 3801 0
-3800 3801 0
-3795 -3800 0
-3796 3802 0
-3801 3802 0
-3796 -3801 0
-3797 3803 0
-3802 3803 0
-3797 -3802 0
-3798 -3803 0
-3805 8 9 0
-8 3805 0
-9 3805 0
3805 7 10 11 12 0
-3806 44 45 0
-44 3806 0
-45 3806 0
3806 43 46 47 48 0
-3807 80 81 0
-80 3807 0
-81 3807 0
3807 79 82 83 84 0
-3808 116 117 0
-116 3808 0
-117 3808 0
3808 115 118 119 120 0
-3809 152 153 0
-152 3809 0
-153 3809 0
3809 151 154 155 156 0
-3810 188 189 0
-188 3810 0
-189 3810 0
3810 187 190 191 192 0
-3805 3811 0
-3812 0
-3806 3813 0
-3811 3813 0
-3806 -3811 3814 0
-3812 3814 0
-3806 -3812 0
-3807 3815 0
-3813 3815 0
-3807 -3813 3816 0
-3814 3816 0
-3807 -3814 0
-3808 3817 0
-3815 3817 0
-3808 -3815 3818 0
-3816 3818 0
-3808 -3816 0
-3809 3819 0
-3817 3819 0
-3809 -3817 3820 0
-3818 3820 0
-3809 -3818 0
-3810 -3820 0
-3823 8 9 10 0
-8 3823 0
-9 3823 0
-10 3823 0
3823 7 11 12 0
-3824 44 45 46 0
-44 3824 0
-45 3824 0
-46 3824 0
3824 43 47 48 0
-3825 80 81 82 0
-80 3825 0
-81 3825 0
-82 3825 0
3825 79 83 84 0
-3826 116 117 118 0
-116 3826 0
-117 3826 0
-118 3826 0
3826 115 119 120 0
-3827 152 153 154 0
-152 3827 0
-153 3827 0
-154 3827 0
3827 151 155 156 0
-3828 188 189 190 0
-188 3828 0
-189 3828 0
-190 3828 0
3828 187 191 192 0
-3823 3829 0
-3830 0
-3831 0
-3824 3832 0
-3829 3832 0
-3824 -3829 3833 0
-3830 3833 0
-3824 -3830 3834 0
-3831 3834 0
-3824 -3831 0
-3825 3835 0
-3832 3835 0
-3825 -3832 3836 0
-3833 3836 0
-3825 -3833 3837 0
-3834 3837 0
-3825 -3834 0
-3826 3838 0
-3835 3838 0
-3826 -3835 3839 0
-3836 3839 0
-3826 -3836 3840 0
-3837 3840 0
-3826 -3837 0
-3827 3841 0
-3838 3841 0
-3827 -3838 3842 0
-3839 3842 0
-3827 -3839 3843 0
-3840 3843 0
-3827 -3840 0
-3828 -3843 0
-3847 8 9 10 11 0
-8 3847 0
-9 3847 0
-10 3847 0
-11 3847 0
3847 7 12 0
-3848 44 45 46 47 0
-44 3848 0
-45 3848 0
-46 3848 0
-47 3848 0
3848 43 48 0
-3849 80 81 82 83 0
-80 3849 0
-81 3849 0
-82 3849 0
-83 3849 0
3849 79 84 0
-3850 116 117 118 119 0
-116 3850 0
-117 3850 0
-118 3850 0
-119 3850 0
3850 115 120 0
-3851 152 153 154 155 0
-152 3851 0
-153 3851 0
-154 3851 0
-155 3851 0
3851 151 156 0
-3852 188 189 190 191 0
-188 3852 0
-189 3852 0
-190 3852 0
-191 3852 0
3852 187 192 0
-3847 3853 0
-3854 0
-3855 0
-3856 0
-3848 3857 0
-3853 3857 0
-3848 -3853 3858 0
-3854 3858 0
-3848 -3854 3859 0
-3855 3859 0
-3848 -3855 3860 0
-3856 3860 0
-3848 -3856 0
-3849 3861 0
-3857 3861 0
-3849 -3857 3862 0
-3858 3862 0
-3849 -3858 3863 0
-3859 3863 0
-3849 -3859 3864 0
-3860 3864 0
-3849 -3860 0
-3850 3865 0
-3861 3865 0
-3850 -3861 3866 0
-3862 3866 0
-3850 -3862 3867 0
-3863 3867 0
-3850 -3863 3868 0
-3864 3868 0
-3850 -3864 0
-3851 3869 0
-3865 3869 0
-3851 -3865 3870 0
-3866 3870 0
-3851 -3866 3871 0
-3867 3871 0
-3851 -3867 3872 0
-3868 3872 0
-3851 -3868 0
-3852 -3872 0
-3877 8 9 10 11 12 0
-8 3877 0
-9 3877 0
-10 3877 0
-11 3877 0
-12 3877 0
3877 7 0
-3878 44 45 46 47 48 0
-44 3878 0
-45 3878 0
-46 3878 0
-47 3878 0
-48 3878 0
3878 43 0
-3879 80 81 82 83 84 0
-80 3879 0
-81 3879 0
-82 3879 0
-83 3879 0
-84 3879 0
3879 79 0
-3880 116 117 118 119 120 0
-116 3880 0
-117 3880 0
-118 3880 0
-119 3880 0
-120 3880 0
3880 115 0
-3881 152 153 154 155 156 0
-152 3881 0
-153 3881 0
-154 3881 0
-155 3881 0
-156 3881 0
3881 151 0
-3882 188 189 190 191 192 0
-188 3882 0
-189 3882 0
-190 3882 0
-191 3882 0
-192 3882 0
3882 187 0
-3877 3883 0
-3884 0
-3885 0
-3886 0
-3887 0
-3878 3888 0
-3883 3888 0
-3878 -3883 3889 0
-3884 3889 0
-3878 -3884 3890 0
-3885 3890 0
-3878 -3885 3891 0
-3886 3891 0
-3878 -3886 3892 0
-3887 3892 0
-3878 -3887 0
-3879 3893 0
-3888 3893 0
-3879 -3888 3894 0
-3889 3894 0
-3879 -3889 3895 0
-3890 3895 0
-3879 -3890 3896 0
-3891 3896 0
-3879 -3891 3897 0
-3892 3897 0
-3879 -3892 0
-3880 3898 0
-3893 3898 0
-3880 -3893 3899 0
-3894 3899 0
-3880 -3894 3900 0
-3895 3900 0
-3880 -3895 3901 0
-3896 3901 0
-3880 -3896 3902 0
-3897 3902 0
-3880 -3897 0
-3881 3903 0
-3898 3903 0
-3881 -3898 3904 0
-3899 3904 0
-3881 -3899 3905 0
-3900 3905 0
-3881 -3900 3906 0
-3901 3906 0
-3881 -3901 3907 0
-3902 3907 0
-3881 -3902 0
-3882 -3907 0
-3913 9 0
-9 3913 0
3913 7 8 10 11 12 0
-3914 45 0
-45 3914 0
3914 43 44 46 47 48 0
-3915 81 0
-81 3915 0
3915 79 80 82 83 84 0
-3916 117 0
-117 3916 0
3916 115 116 118 119 120 0
-3917 153 0
-153 3917 0
3917 151 152 154 155 156 0
-3918 189 0
-189 3918 0
3918 187 188 190 191 192 0
-3913 3919 0
-3914 3920 0
-3919 3920 0
-3914 -3919 0
-3915 3921 0
-3920 3921 0
-3915 -3920 0
-3916 3922 0
-3921 3922 0
-3916 -3921 0
-3917 3923 0
-3922 3923 0
-3917 -3922 0
-3918 -3923 0
-3925 9 10 0
-9 3925 0
-10 3925 0
3925 7 8 11 12 0
-3926 45 46 0
-45 3926 0
-46 3926 0
3926 43 44 47 48 0
-3927 81 82 0
-81 3927 0
-82 3927 0
3927 79 80 83 84 0
-3928 117 118 0
-117 3928 0
-118 3928 0
3928 115 116 119 120 0
-3929 153 154 0
-153 3929 0
-154 3929 0
3929 151 152 155 156 0
-3930 189 190 0
-189 3930 0
-190 3930 0
3930 187 188 191 192 0
-3925 3931 0
-3932 0
-3926 3933 0
-3931 3933 0
-3926 -3931 3934 0
-3932 3934 0
-3926 -3932 0
-3927 3935 0
-3933 3935 0
-3927 -3933 3936 0
-3934 3936 0
-3927 -3934 0
-3928 3937 0
-3935 3937 0
-3928 -3935 3938 0
-3936 3938 0
-3928 -3936 0
-3929 3939 0
-3937 3939 0
-3929 -3937 3940 0
-3938 3940 0
-3929 -3938 0
-3930 -3940 0
-3943 9 10 11 0
-9 3943 0
-10 3943 0
-11 3943 0
3943 7 8 12 0
-3944 45 46 47 0
-45 3944 0
-46 3944 0
-47 3944 0
3944 43 44 48 0
-3945 81 82 83 0
-81 3945 0
-82 3945 0
-83 3945 0
3945 79 80 84 0
-3946 117 118 119 0
-117 3946 0
-118 3946 0
-119 3946 0
3946 115 116 120 0
-3947 153 154 155 0
-153 3947 0
-154 3947 0
-155 3947 0
3947 151 152 156 0
-3948 189 190 191 0
-189 3948 0
-190 3948 0
-191 3948 0
3948 187 188 192 0
-3943 3949 0
-3950 0
-3951 0
-3944 3952 0
-3949 3952 0
-3944 -3949 3953 0
-3950 3953 0
-3944 -3950 3954 0
-3951 3954 0
-3944 -3951 0
-3945 3955 0
-3952 3955 0
-3945 -3952 3956 0
-3953 3956 0
-3945 -3953 3957 0
-3954 3957 0
-3945 -3954 0
-3946 3958 0
-3955 3958 0
-3946 -3955 3959 0
-3956 3959 0
-3946 -3956 3960 0
-3957 3960 0
-3946 -3957 0
-3947 3961 0
-3958 3961 0
-3947 -3958 3962 0
-3959 3962 0
-3947 -3959 3963 0
-3960 3963 0
-3947 -3960 0
-3948 -3963 0
-3967 9 10 11 12 0
-9 3967 0
-10 3967 0
-11 3967 0
-12 3967 0
3967 7 8 0
-3968 45 46 47 48 0
-45 3968 0
-46 3968 0
-47 3968 0
-48 3968 0
3968 43 44 0
-3969 81 82 83 84 0
-81 3969 0
-82 3969 0
-83 3969 0
-84 3969 0
3969 79 80 0
-3970 117 118 119 120 0
-117 3970 0
-118 3970 0
-119 3970 0
-120 3970 0
3970 115 116 0
-3971 153 154 155 156 0
-153 3971 0
-154 3971 0
-155 3971 0
-156 3971 0
3971 151 152 0
-3972 189 190 191 192 0
-189 3972 0
-190 3972 0
-191 3972 0
-192 3972 0
3972 187 188 0
-3967 3973 0
-3974 0
-3975 0
-3976 0
-3968 3977 0
-3973 3977 0
-3968 -3973 3978 0
-3974 3978 0
-3968 -3974 3979 0
-3975 3979 0
-3968 -3975 3980 0
-3976 3980 0
-3968 -3976 0
-3969 3981 0
-3977 3981 0
-3969 -3977 3982 0
-3978 3982 0
-3969 -3978 3983 0
-3979 3983 0
-3969 -3979 3984 0
-3980 3984 0
-3969 -3980 0
-3970 3985 0
-3981 3985 0
-3970 -3981 3986 0
-3982 3986 0
-3970 -3982 3987 0
-3983 3987 0
-3970 -3983 3988 0
-3984 3988 0
-3970 -3984 0
-3971 3989 0
-3985 3989 0
-3971 -3985 3990 0
-3986 3990 0
-3971 -3986 3991 0
-3987 3991 0
-3971 -3987 3992 0
-3988 3992 0
-3971 -3988 0
-3972 -3992 0
-3997 10 0
-10 3997 0
3997 7 8 9 11 12 0
-3998 46 0
-46 3998 0
3998 43 44 45 47 48 0
-3999 82 0
-82 3999 0
3999 79 80 81 83 84 0
-4000 118 0
-118 4000 0
4000 115 116 117 119 120 0
-4001 154 0
-154 4001 0
4001 151 152 153 155 156 0
-4002 190 0
-190 4002 0
4002 187 188 189 191 192 0
-3997 4003 0
-3998 4004 0
-4003 4004 0
-3998 -4003 0
-3999 4005 0
-4004 4005 0
-3999 -4004 0
-4000 4006 0
-4005 4006 0
-4000 -4005 0
-4001 4007 0
-4006 4007 0
-4001 -4006 0
-4002 -4007 0
-4009 10 11 0
-10 4009 0
-11 4009 0
4009 7 8 9 12 0
-4010 46 47 0
-46 4010 0
-47 4010 0
4010 43 44 45 48 0
-4011 82 83 0
-82 4011 0
-83 4011 0
4011 79 80 81 84 0
-4012 118 119 0
-118 4012 0
-119 4012 0
4012 115 116 117 120 0
-4013 154 155 0
-154 4013 0
-155 4013 0
4013 151 152 153 156 0
-4014 190 191 0
-190 4014 0
-191 4014 0
4014 187 188 189 192 0
-4009 4015 0
-4016 0
-4010 4017 0
-4015 4017 0
-4010 -4015 4018 0
-4016 4018 0
-4010 -4016 0
-4011 4019 0
-4017 4019 0
-4011 -4017 4020 0
-4018 4020 0
-4011 -4018 0
-4012 4021 0
-4019 4021 0
-4012 -4019 4022 0
-4020 4022 0
-4012 -4020 0
-4013 4023 0
-4021 4023 0
-4013 -4021 4024 0
-4022 4024 0
-4013 -4022 0
-4014 -4024 0
-4027 10 11 12 0
-10 4027 0
-11 4027 0
-12 4027 0
4027 7 8 9 0
-4028 46 47 48 0
-46 4028 0
-47 4028 0
-48 4028 0
4028 43 44 45 0
-4029 82 83 84 0
-82 4029 0
-83 4029 0
-84 4029 0
4029 79 80 81 0
-4030 118 119 120 0
-118 4030 0
-119 4030 0
-120 4030 0
4030 115 116 117 0
-4031 154 155 156 0
-154 4031 0
-155 4031 0
-156 4031 0
4031 151 152 153 0
-4032 190 191 192 0
-190 4032 0
-191 4032 0
-192 4032 0
4032 187 188 189 0
-4027 4033 0
-4034 0
-4035 0
-4028 4036 0
-4033 4036 0
-4028 -4033 4037 0
-4034 4037 0
-4028 -4034 4038 0
-4035 4038 0
-4028 -4035 0
-4029 4039 0
-4036 4039 0
-4029 -4036 4040 0
-4037 4040 0
-4029 -4037 4041 0
-4038 4041 0
-4029 -4038 0
-4030 4042 0
-4039 4042 0
-4030 -4039 4043 0
-4040 4043 0
-4030 -4040 4044 0
-4041 4044 0
-4030 -4041 0
-4031 4045 0
-4042 4045 0
-4031 -4042 4046 0
-4043 4046 0
-4031 -4043 4047 0
-4044 4047 0
-4031 -4044 0
-4032 -4047 0
-4051 11 0
-11 4051 0
4051 7 8 9 10 12 0
-4052 47 0
-47 4052 0
4052 43 44 45 46 48 0
-4053 83 0
-83 4053 0
4053 79 80 81 82 84 0
-4054 119 0
-119 4054 0
4054 115 116 117 118 120 0
-4055 155 0
-155 4055 0
4055 151 152 153 154 156 0
-4056 191 0
-191 4056 0
4056 187 188 189 190 192 0
-4051 4057 0
-4052 4058 0
-4057 4058 0
-4052 -4057 0
-4053 4059 0
-4058 4059 0
-4053 -4058 0
-4054 4060 0
-4059 4060 0
-4054 -4059 0
-4055 4061 0
-4060 4061 0
-4055 -4060 0
-4056 -4061 0
-4063 11 12 0
-11 4063 0
-12 4063 0
4063 7 8 9 10 0
-4064 47 48 0
-47 4064 0
-48 4064 0
4064 43 44 45 46 0
-4065 83 84 0
-83 4065 0
-84 4065 0
4065 79 80 81 82 0
-4066 119 120 0
-119 4066 0
-120 4066 0
4066 115 116 117 118 0
-4067 155 156 0
-155 4067 0
-156 4067 0
4067 151 152 153 154 0
-4068 191 192 0
-191 4068 0
-192 4068 0
4068 187 188 189 190 0
-4063 4069 0
-4070 0
-4064 4071 0
-4069 4071 0
-4064 -4069 4072 0
-4070 4072 0
-4064 -4070 0
-4065 4073 0
-4071 4073 0
-4065 -4071 4074 0
-4072 4074 0
-4065 -4072 0
-4066 4075 0
-4073 4075 0
-4066 -4073 4076 0
-4074 4076 0
-4066 -4074 0
-4067 4077 0
-4075 4077 0
-4067 -4075 4078 0
-4076 4078 0
-4067 -4076 0
-4068 -4078 0
-4081 12 0
-12 4081 0
4081 7 8 9 10 11 0
-4082 48 0
-48 4082 0
4082 43 44 45 46 47 0
-4083 84 0
-84 4083 0
4083 79 80 81 82 83 0
-4084 120 0
-120 4084 0
4084 115 116 117 118 119 0
-4085 156 0
-156 4085 0
4085 151 152 153 154 155 0
-4086 192 0
-192 4086 0
4086 187 188 189 190 191 0
-4081 4087 0
-4082 4088 0
-4087 4088 0
-4082 -4087 0
-4083 4089 0
-4088 4089 0
-4083 -4088 0
-4084 4090 0
-4089 4090 0
-4084 -4089 0
-4085 4091 0
-4090 4091 0
-4085 -4090 0
-4086 -4091 0
-7 4093 0
-43 4094 0
-4093 4094 0
-43 -4093 0
-79 4095 0
-4094 4095 0
-79 -4094 0
-115 4096 0
-4095 4096 0
-115 -4095 0
-151 4097 0
-4096 4097 0
-151 -4096 0
-187 -4097 0
7 43 79 115 151 187 0
-8 4099 0
-44 4100 0
-4099 4100 0
-44 -4099 0
-80 4101 0
-4100 4101 0
-80 -4100 0
-116 4102 0
-4101 4102 0
-116 -4101 0
-152 4103 0
-4102 4103 0
-152 -4102 0
-188 -4103 0
8 44 80 116 152 188 0
-9 4105 0
-45 4106 0
-4105 4106 0
-45 -4105 0
-81 4107 0
-4106 4107 0
-81 -4106 0
-117 4108 0
-4107 4108 0
-117 -4107 0
-153 4109 0
-4108 4109 0
-153 -4108 0
-189 -4109 0
9 45 81 117 153 189 0
-10 4111 0
-46 4112 0
-4111 4112 0
-46 -4111 0
-82 4113 0
-4112 4113 0
-82 -4112 0
-118 4114 0
-4113 4114 0
-118 -4113 0
-154 4115 0
-4114 4115 0
-154 -4114 0
-190 -4115 0
10 46 82 118 154 190 0
-11 4117 0
-47 4118 0
-4117 4118 0
-47 -4117 0
-83 4119 0
-4118 4119 0
-83 -4118 0
-119 4120 0
-4119 4120 0
-119 -4119 0
-155 4121 0
-4120 4121 0
-155 -4120 0
-191 -4121 0
11 47 83 119 155 191 0
-12 4123 0
-48 4124 0
-4123 4124 0
-48 -4123 0
-84 4125 0
-4124 4125 0
-84 -4124 0
-120 4126 0
-4125 4126 0
-120 -4125 0
-156 4127 0
-4126 4127 0
-156 -4126 0
-192 -4127 0
12 48 84 120 156 192 0
-4129 13 0
-13 4129 0
4129 14 15 16 17 18 0
-4130 49 0
-49 4130 0
4130 50 51 52 53 54 0
-4131 85 0
-85 4131 0
4131 86 87 88 89 90 0
-4132 121 0
-121 4132 0
4132 122 123 124 125 126 0
-4133 157 0
-157 4133 0
4133 158 159 160 161 162 0
-4134 193 0
-193 4134 0
4134 194 195 196 197 198 0
-4129 4135 0
-4130 4136 0
-4135 4136 0
-4130 -4135 0
-4131 4137 0
-4136 4137 0
-4131 -4136 0
-4132 4138 0
-4137 4138 0
-4132 -4137 0
-4133 4139 0
-4138 4139 0
-4133 -4138 0
-4134 -4139 0
-4141 13 14 0
-13 4141 0
-14 4141 0
4141 15 16 17 18 0
-4142 49 50 0
-49 4142 0
-50 4142 0
4142 51 52 53 54 0
-4143 85 86 0
-85 4143 0
-86 4143 0
4143 87 88 89 90 0
-4144 121 122 0
-121 4144 0
-122 4144 0
4144 123 124 125 126 0
-4145 157 158 0
-157 4145 0
-158 4145 0
4145 159 160 161 162 0
-4146 193 194 0
-193 4146 0
-194 4146 0
4146 195 196 197 198 0
-4141 4147 0
-4148 0
-4142 4149 0
-4147 4149 0
-4142 -4147 4150 0
-4148 4150 0
-4142 -4148 0
-4143 4151 0
-4149 4151 0
-4143 -4149 4152 0
-4150 4152 0
-4143 -4150 0
-4144 4153 0
-4151 4153 0
-4144 -4151 4154 0
-4152 4154 0
-4144 -4152 0
-4145 4155 0
-4153 4155 0
-4145 -4153 4156 0
-4154 4156 0
-4145 -4154 0
-4146 -4156 0
-4159 13 14 15 0
-13 4159 0
-14 4159 0
-15 4159 0
4159 16 17 18 0
-4160 49 50 51 0
-49 4160 0
-50 4160 0
-51 4160 0
4160 52 53 54 0
-4161 85 86 87 0
-85 4161 0
-86 4161 0
-87 4161 0
4161 88 89 90 0
-4162 121 122 123 0
-121 4162 0
-122 4162 0
-123 4162 0
4162 124 125 126 0
-4163 157 158 159 0
-157 4163 0
-158 4163 0
-159 4163 0
4163 160 161 162 0
-4164 193 194 195 0
-193 4164 0
-194 4164 0
-195 4164 0
4164 196 197 198 0
-4159 4165 0
-4166 0
-4167 0
-4160 4168 0
-4165 4168 0
-4160 -4165 4169 0
-4166 4169 0
-4160 -4166 4170 0
-4167 4170 0
-4160 -4167 0
-4161 4171 0
-4168 4171 0
-4161 -4168 4172 0
-4169 4172 0
-4161 -4169 4173 0
-4170 4173 0
-4161 -4170 0
-4162 4174 0
-4171 4174 0
-4162 -4171 4175 0
-4172 4175 0
-4162 -4172 4176 0
-4173 4176 0
-4162 -4173 0
-4163 4177 0
-4174 4177 0
-4163 -4174 4178 0
-4175 4178 0
-4163 -4175 4179 0
-4176 4179 0
-4163 -4176 0
-4164 -4179 0
-4183 13 14 15 16 0
-13 4183 0
-14 4183 0
-15 4183 0
-16 4183 0
4183 17 18 0
-4184 49 50 51 52 0
-49 4184 0
-50 4184 0
-51 4184 0
-52 4184 0
4184 53 54 0
-4185 85 86 87 88 0
-85 4185 0
-86 4185 0
-87 4185 0
-88 4185 0
4185 89 90 0
-4186 121 122 123 124 0
-121 4186 0
-122 4186 0
-123 4186 0
-124 4186 0
4186 125 126 0
-4187 157 158 159 160 0
-157 4187 0
-158 4187 0
-159 4187 0
-160 4187 0
4187 161 162 0
-4188 193 194 195 196 0
-193 4188 0
-194 4188 0
-195 4188 0
-196 4188 0
4188 197 198 0
-4183 4189 0
-4190 0
-4191 0
-4192 0
-4184 4193 0
-4189 4193 0
-4184 -4189 4194 0
-4190 4194 0
-4184 -4190 4195 0
-4191 4195 0
-4184 -4191 4196 0
-4192 4196 0
-4184 -4192 0
-4185 4197 0
-4193 4197 0
-4185 -4193 4198 0
-4194 4198 0
-4185 -4194 4199 0
-4195 4199 0
-4185 -4195 4200 0
-4196 4200 0
-4185 -4196 0
-4186 4201 0
-4197 4201 0
-4186 -4197 4202 0
-4198 4202 0
-4186 -4198 4203 0
-4199 4203 0
-4186 -4199 4204 0
-4200 4204 0
-4186 -4200 0
-4187 4205 0
-4201 4205 0
-4187 -4201 4206 0
-4202 4206 0
-4187 -4202 4207 0
-4203 4207 0
-4187 -4203 4208 0
-4204 4208 0
-4187 -4204 0
-4188 -4208 0
-4213 13 14 15 16 17 0
-13 4213 0
-14 4213 0
-15 4213 0
-16 4213 0
-17 4213 0
4213 18 0
-4214 49 50 51 52 53 0
-49 4214 0
-50 4214 0
-51 4214 0
-52 4214 0
-53 4214 0
4214 54 0
-4215 85 86 87 88 89 0
-85 4215 0
-86 4215 0
-87 4215 0
-88 4215 0
-89 4215 0
4215 90 0
-4216 121 122 123 124 125 0
-121 4216 0
-122 4216 0
-123 4216 0
-124 4216 0
-125 4216 0
4216 126 0
-4217 157 158 159 160 161 0
-157 4217 0
-158 4217 0
-159 4217 0
-160 4217 0
-161 4217 0
4217 162 0
-4218 193 194 195 196 197 0
-193 4218 0
-194 4218 0
-195 4218 0
-196 4218 0
-197 4218 0
4218 198 0
-4213 4219 0
-4220 0
-4221 0
-4222 0
-4223 0
-4214 4224 0
-4219 4224 0
-4214 -4219 4225 0
-4220 4225 0
-4214 -4220 4226 0
-4221 4226 0
-4214 -4221 4227 0
-4222 4227 0
-4214 -4222 4228 0
-4223 4228 0
-4214 -4223 0
-4215 4229 0
-4224 4229 0
-4215 -4224 4230 0
-4225 4230 0
-4215 -4225 4231 0
-4226 4231 0
-4215 -4226 4232 0
-4227 4232 0
-4215 -4227 4233 0
-4228 4233 0
-4215 -4228 0
-4216 4234 0
-4229 4234 0
-4216 -4229 4235 0
-4230 4235 0
-4216 -4230 4236 0
-4231 4236 0
-4216 -4231 4237 0
-4232 4237 0
-4216 -4232 4238 0
-4233 4238 0
-4216 -4233 0
-4217 4239 0
-4234 4239 0
-4217 -4234 4240 0
-4235 4240 0
-4217 -4235 4241 0
-4236 4241 0
-4217 -4236 4242 0
-4237 4242 0
-4217 -4237 4243 0
-4238 4243 0
-4217 -4238 0
-4218 -4243 0
-4249 13 14 15 16 17 18 0
-13 4249 0
-14 4249 0
-15 4249 0
-16 4249 0
-17 4249 0
-18 4249 0
4249 0
-4250 49 50 51 52 53 54 0
-49 4250 0
-50 4250 0
-51 4250 0
-52 4250 0
-53 4250 0
-54 4250 0
4250 0
-4251 85 86 87 88 89 90 0
-85 4251 0
-86 4251 0
-87 4251 0
-88 4251 0
-89 4251 0
-90 4251 0
4251 0
-4252 121 122 123 124 125 126 0
-121 4252 0
-122 4252 0
-123 4252 0
-124 4252 0
-125 4252 0
-126 4252 0
4252 0
-4253 157 158 159 160 161 162 0
-157 4253 0
-158 4253 0
-159 4253 0
-160 4253 0
-161 4253 0
-162 4253 0
4253 0
-4254 193 194 195 196 197 198 0
-193 4254 0
-194 4254 0
-195 4254 0
-196 4254 0
-197 4254 0
-198 4254 0
4254 0
-4255 14 0
-14 4255 0
4255 13 15 16 17 18 0
-4256 50 0
-50 4256 0
4256 49 51 52 53 54 0
-4257 86 0
-86 4257 0
4257 85 87 88 89 90 0
-4258 122 0
-122 4258 0
4258 121 123 124 125 126 0
-4259 158 0
-158 4259 0
4259 157 159 160 161 162 0
-4260 194 0
-194 4260 0
4260 193 195 196 197 198 0
-4255 4261 0
-4256 4262 0
-4261 4262 0
-4256 -4261 0
-4257 4263 0
-4262 4263 0
-4257 -4262 0
-4258 4264 0
-4263 4264 0
-4258 -4263 0
-4259 4265 0
-4264 4265 0
-4259 -4264 0
-4260 -4265 0
-4267 14 15 0
-14 4267 0
-15 4267 0
4267 13 16 17 18 0
-4268 50 51 0
-50 4268 0
-51 4268 0
4268 49 52 53 54 0
-4269 86 87 0
-86 4269 0
-87 4269 0
4269 85 88 89 90 0
-4270 122 123 0
-122 4270 0
-123 4270 0
4270 121 124 125 126 0
-4271 158 159 0
-158 4271 0
-159 4271 0
4271 157 160 161 162 0
-4272 194 195 0
-194 4272 0
-195 4272 0
4272 193 196 197 198 0
-4267 4273 0
-4274 0
-4268 4275 0
-4273 4275 0
-4268 -4273 4276 0
-4274 4276 0
-4268 -4274 0
-4269 4277 0
-4275 4277 0
-4269 -4275 4278 0
-4276 4278 0
-4269 -4276 0
-4270 4279 0
-4277 4279 0
-4270 -4277 4280 0
-4278 4280 0
-4270 -4278 0
-4271 4281 0
-4279 4281 0
-4271 -4279 4282 0
-4280 4282 0
-4271 -4280 0
-4272 -4282 0
-4285 14 15 16 0
-14 4285 0
-15 4285 0
-16 4285 0
4285 13 17 18 0
-4286 50 51 52 0
-50 4286 0
-51 4286 0
-52 4286 0
4286 49 53 54 0
-4287 86 87 88 0
-86 4287 0
-87 4287 0
-88 4287 0
4287 85 89 90 0
-4288 122 123 124 0
-122 4288 0
-123 4288 0
-124 4288 0
4288 121 125 126 0
-4289 158 159 160 0
-158 4289 0
-159 4289 0
-160 4289 0
4289 157 161 162 0
-4290 194 195 196 0
-194 4290 0
-195 4290 0
-196 4290 0
4290 193 197 198 0
-4285 4291 0
-4292 0
-4293 0
-4286 4294 0
-4291 4294 0
-4286 -4291 4295 0
-4292 4295 0
-4286 -4292 4296 0
-4293 4296 0
-4286 -4293 0
-4287 4297 0
-4294 4297 0
-4287 -4294 4298 0
-4295 4298 0
-4287 -4295 4299 0
-4296 4299 0
-4287 -4296 0
-4288 4300 0
-4297 4300 0
-4288 -4297 4301 0
-4298 4301 0
-4288 -4298 4302 0
-4299 4302 0
-4288 -4299 0
-4289 4303 0
-4300 4303 0
-4289 -4300 4304 0
-4301 4304 0
-4289 -4301 4305 0
-4302 4305 0
-4289 -4302 0
-4290 -4305 0
-4309 14 15 16 17 0
-14 4309 0
-15 4309 0
-16 4309 0
-17 4309 0
4309 13 18 0
-4310 50 51 52 53 0
-50 4310 0
-51 4310 0
-52 4310 0
-53 4310 0
4310 49 54 0
-4311 86 87 88 89 0
-86 4311 0
-87 4311 0
-88 4311 0
-89 4311 0
4311 85 90 0
-4312 122 123 124 125 0
-122 4312 0
-123 4312 0
-124 4312 0
-125 4312 0
4312 121 126 0
-4313 158 159 160 161 0
-158 4313 0
-159 4313 0
-160 4313 0
-161 4313 0
4313 157 162 0
-4314 194 195 196 197 0
-194 4314 0
-195 4314 0
-196 4314 0
-197 4314 0
4314 193 198 0
-4309 4315 0
-4316 0
-4317 0
-4318 0
-4310 4319 0
-4315 4319 0
-4310 -4315 4320 0
-4316 4320 0
-4310 -4316 4321 0
-4317 4321 0
-4310 -4317 4322 0
-4318 4322 0
-4310 -4318 0
-4311 4323 0
-4319 4323 0
-4311 -4319 4324 0
-4320 4324 0
-4311 -4320 4325 0
-4321 4325 0
-4311 -4321 4326 0
-4322 4326 0
-4311 -4322 0
-4312 4327 0
-4323 4327 0
-4312 -4323 4328 0
-4324 4328 0
-4312 -4324 4329 0
-4325 4329 0
-4312 -4325 4330 0
-4326 4330 0
-4312 -4326 0
-4313 4331 0
-4327 4331 0
-4313 -4327 4332 0
-4328 4332 0
-4313 -4328 4333 0
-4329 4333 0
-4313 -4329 4334 0
-4330 4334 0
-4313 -4330 0
-4314 -4334 0
-4339 14 15 16 17 18 0
-14 4339 0
-15 4339 0
-16 4339 0
-17 4339 0
-18 4339 0
4339 13 0
-4340 50 51 52 53 54 0
-50 4340 0
-51 4340 0
-52 4340 0
-53 4340 0
-54 4340 0
4340 49 0
-4341 86 87 88 89 90 0
-86 4341 0
-87 4341 0
-88 4341 0
-89 4341 0
-90 4341 0
4341 85 0
-4342 122 123 124 125 126 0
-122 4342 0
-123 4342 0
-124 4342 0
-125 4342 0
-126 4342 0
4342 121 0
-4343 158 159 160 161 162 0
-158 4343 0
-159 4343 0
-160 4343 0
-161 4343 0
-162 4343 0
4343 157 0
-4344 194 195 196 197 198 0
-194 4344 0
-195 4344 0
-196 4344 0
-197 4344 0
-198 4344 0
4344 193 0
-4339 4345 0
-4346 0
-4347 0
-4348 0
-4349 0
-4340 4350 0
-4345 4350 0
-4340 -4345 4351 0
-4346 4351 0
-4340 -4346 4352 0
-4347 4352 0
-4340 -4347 4353 0
-4348 4353 0
-4340 -4348 4354 0
-4349 4354 0
-4340 -4349 0
-4341 4355 0
-4350 4355 0
-4341 -4350 4356 0
-4351 4356 0
-4341 -4351 4357 0
-4352 4357 0
-4341 -4352 4358 0
-4353 4358 0
-4341 -4353 4359 0
-4354 4359 0
-4341 -4354 0
-4342 4360 0
-4355 4360 0
-4342 -4355 4361 0
-4356 4361 0
-4342 -4356 4362 0
-4357 4362 0
-4342 -4357 4363 0
-4358 4363 0
-4342 -4358 4364 0
-4359 4364 0
-4342 -4359 0
-4343 4365 0
-4360 4365 0
-4343 -4360 4366 0
-4361 4366 0
-4343 -4361 4367 0
-4362 4367 0
-4343 -4362 4368 0
-4363 4368 0
-4343 -4363 4369 0
-4364 4369 0
-4343 -4364 0
-4344 -4369 0
-4375 15 0
-15 4375 0
4375 13 14 16 17 18 0
-4376 51 0
-51 4376 0
4376 49 50 52 53 54 0
-4377 87 0
-87 4377 0
4377 85 86 88 89 90 0
-4378 123 0
-123 4378 0
4378 121 122 124 125 126 0
-4379 159 0
-159 4379 0
4379 157 158 160 161 162 0
-4380 195 0
-195 4380 0
4380 193 194 196 197 198 0
-4375 4381 0
-4376 4382 0
-4381 4382 0
-4376 -4381 0
-4377 4383 0
-4382 4383 0
-4377 -4382 0
-4378 4384 0
-4383 4384 0
-4378 -4383 0
-4379 4385 0
-4384 4385 0
-4379 -4384 0
-4380 -4385 0
-4387 15 16 0
-15 4387 0
-16 4387 0
4387 13 14 17 18 0
-4388 51 52 0
-51 4388 0
-52 4388 0
4388 49 50 53 54 0
-4389 87 88 0
-87 4389 0
-88 4389 0
4389 85 86 89 90 0
-4390 123 124 0
-123 4390 0
-124 4390 0
4390 121 122 125 126 0
-4391 159 160 0
-159 4391 0
-160 4391 0
4391 157 158 161 162 0
-4392 195 196 0
-195 4392 0
-196 4392 0
4392 193 194 197 198 0
-4387 4393 0
-4394 0
-4388 4395 0
-4393 4395 0
-4388 -4393 4396 0
-4394 4396 0
-4388 -4394 0
-4389 4397 0
-4395 4397 0
-4389 -4395 4398 0
-4396 4398 0
-4389 -4396 0
-4390 4399 0
-4397 4399 0
-4390 -4397 4400 0
-4398 4400 0
-4390 -4398 0
-4391 4401 0
-4399 4401 0
-4391 -4399 4402 0
-4400 4402 0
-4391 -4400 0
-4392 -4402 0
-4405 15 16 17 0
-15 4405 0
-16 4405 0
-17 4405 0
4405 13 14 18 0
-4406 51 52 53 0
-51 4406 0
-52 4406 0
-53 4406 0
4406 49 50 54 0
-4407 87 88 89 0
-87 4407 0
-88 4407 0
-89 4407 0
4407 85 86 90 0
-4408 123 124 125 0
-123 4408 0
-124 4408 0
-125 4408 0
4408 121 122 126 0
-4409 159 160 161 0
-159 4409 0
-160 4409 0
-161 4409 0
4409 157 158 162 0
-4410 195 196 197 0
-195 4410 0
-196 4410 0
-197 4410 0
4410 193 194 198 0
-4405 4411 0
-4412 0
-4413 0
-4406 4414 0
-4411 4414 0
-4406 -4411 4415 0
-4412 4415 0
-4406 -4412 4416 0
-4413 4416 0
-4406 -4413 0
-4407 4417 0
-4414 4417 0
-4407 -4414 4418 0
-4415 4418 0
-4407 -4415 4419 0
-4416 4419 0
-4407 -4416 0
-4408 4420 0
-4417 4420 0
-4408 -4417 4421 0
-4418 4421 0
-4408 -4418 4422 0
-4419 4422 0
-4408 -4419 0
-4409 4423 0
-4420 4423 0
-4409 -4420 4424 0
-4421 4424 0
-4409 -4421 4425 0
-4422 4425 0
-4409 -4422 0
-4410 -4425 0
-4429 15 16 17 18 0
-15 4429 0
-16 4429 0
-17 4429 0
-18 4429 0
4429 13 14 0
-4430 51 52 53 54 0
-51 4430 0
-52 4430 0
-53 4430 0
-54 4430 0
4430 49 50 0
-4431 87 88 89 90 0
-87 4431 0
-88 4431 0
-89 4431 0
-90 4431 0
4431 85 86 0
-4432 123 124 125 126 0
-123 4432 0
-124 4432 0
-125 4432 0
-126 4432 0
4432 121 122 0
-4433 159 160 161 162 0
-159 4433 0
-160 4433 0
-161 4433 0
-162 4433 0
4433 157 158 0
-4434 195 196 197 198 0
-195 4434 0
-196 4434 0
-197 4434 0
-198 4434 0
4434 193 194 0
-4429 4435 0
-4436 0
-4437 0
-4438 0
-4430 4439 0
-4435 4439 0
-4430 -4435 4440 0
-4436 4440 0
-4430 -4436 4441 0
-4437 4441 0
-4430 -4437 4442 0
-4438 4442 0
-4430 -4438 0
-4431 4443 0
-4439 4443 0
-4431 -4439 4444 0
-4440 4444 0
-4431 -4440 4445 0
-4441 4445 0
-4431 -4441 4446 0
-4442 4446 0
-4431 -4442 0
-4432 4447 0
-4443 4447 0
-4432 -4443 4448 0
-4444 4448 0
-4432 -4444 4449 0
-4445 4449 0
-4432 -4445 4450 0
-4446 4450 0
-4432 -4446 0
-4433 4451 0
-4447 4451 0
-4433 -4447 4452 0
-4448 4452 0
-4433 -4448 4453 0
-4449 4453 0
-4433 -4449 4454 0
-4450 4454 0
-4433 -4450 0
-4434 -4454 0
-4459 16 0
-16 4459 0
4459 13 14 15 17 18 0
-4460 52 0
-52 4460 0
4460 49 50 51 53 54 0
-4461 88 0
-88 4461 0
4461 85 86 87 89 90 0
-4462 124 0
-124 4462 0
4462 121 122 123 125 126 0
-4463 160 0
-160 4463 0
4463 157 158 159 161 162 0
-4464 196 0
-196 4464 0
4464 193 194 195 197 198 0
-4459 4465 0
-4460 4466 0
-4465 4466 0
-4460 -4465 0
-4461 4467 0
-4466 4467 0
-4461 -4466 0
-4462 4468 0
-4467 4468 0
-4462 -4467 0
-4463 4469 0
-4468 4469 0
-4463 -4468 0
-4464 -4469 0
-4471 16 17 0
-16 4471 0
-17 4471 0
4471 13 14 15 18 0
-4472 52 53 0
-52 4472 0
-53 4472 0
4472 49 50 51 54 0
-4473 88 89 0
-88 4473 0
-89 4473 0
4473 85 86 87 90 0
-4474 124 125 0
-124 4474 0
-125 4474 0
4474 121 122 123 126 0
-4475 160 161 0
-160 4475 0
-161 4475 0
4475 157 158 159 162 0
-4476 196 197 0
-196 4476 0
-197 4476 0
4476 193 194 195 198 0
-4471 4477 0
-4478 0
-4472 4479 0
-4477 4479 0
-4472 -4477 4480 0
-4478 4480 0
-4472 -4478 0
-4473 4481 0
-4479 4481 0
-4473 -4479 4482 0
-4480 4482 0
-4473 -4480 0
-4474 4483 0
-4481 4483 0
-4474 -4481 4484 0
-4482 4484 0
-4474 -4482 0
-4475 4485 0
-4483 4485 0
-4475 -4483 4486 0
-4484 4486 0
-4475 -4484 0
-4476 -4486 0
-4489 16 17 18 0
-16 4489 0
-17 4489 0
-18 4489 0
4489 13 14 15 0
-4490 52 53 54 0
-52 4490 0
-53 4490 0
-54 4490 0
4490 49 50 51 0
-4491 88 89 90 0
-88 4491 0
-89 4491 0
-90 4491 0
4491 85 86 87 0
-4492 124 125 126 0
-124 4492 0
-125 4492 0
-126 4492 0
4492 121 122 123 0
-4493 160 161 162 0
-160 4493 0
-161 4493 0
-162 4493 0
4493 157 158 159 0
-4494 196 197 198 0
-196 4494 0
-197 4494 0
-198 4494 0
4494 193 194 195 0
-4489 4495 0
-4496 0
-4497 0
-4490 4498 0
-4495 4498 0
-4490 -4495 4499 0
-4496 4499 0
-4490 -4496 4500 0
-4497 4500 0
-4490 -4497 0
-4491 4501 0
-4498 4501 0
-4491 -4498 4502 0
-4499 4502 0
-4491 -4499 4503 0
-4500 4503 0
-4491 -4500 0
-4492 4504 0
-4501 4504 0
-4492 -4501 4505 0
-4502 4505 0
-4492 -4502 4506 0
-4503 4506 0
-4492 -4503 0
-4493 4507 0
-4504 4507 0
-4493 -4504 4508 0
-4505 4508 0
-4493 -4505 4509 0
-4506 4509 0
-4493 -4506 0
-4494 -4509 0
-4513 17 0
-17 4513 0
4513 13 14 15 16 18 0
-4514 53 0
-53 4514 0
4514 49 50 51 52 54 0
-4515 89 0
-89 4515 0
4515 85 86 87 88 90 0
-4516 125 0
-125 4516 0
4516 121 122 123 124 126 0
-4517 161 0
-161 4517 0
4517 157 158 159 160 162 0
-4518 197 0
-197 4518 0
4518 193 194 195 196 198 0
-4513 4519 0
-4514 4520 0
-4519 4520 0
-4514 -4519 0
-4515 4521 0
-4520 4521 0
-4515 -4520 0
-4516 4522 0
-4521 4522 0
-4516 -4521 0
-4517 4523 0
-4522 4523 0
-4517 -4522 0
-4518 -4523 0
-4525 17 18 0
-17 4525 0
-18 4525 0
4525 13 14 15 16 0
-4526 53 54 0
-53 4526 0
-54 4526 0
4526 49 50 51 52 0
-4527 89 90 0
-89 4527 0
-90 4527 0
4527 85 86 87 88 0
-4528 125 126 0
-125 4528 0
-126 4528 0
4528 121 122 123 124 0
-4529 161 162 0
-161 4529 0
-162 4529 0
4529 157 158 159 160 0
-4530 197 198 0
-197 4530 0
-198 4530 0
4530 193 194 195 196 0
-4525 4531 0
-4532 0
-4526 4533 0
-4531 4533 0
-4526 -4531 4534 0
-4532 4534 0
-4526 -4532 0
-4527 4535 0
-4533 4535 0
-4527 -4533 4536 0
-4534 4536 0
-4527 -4534 0
-4528 4537 0
-4535 4537 0
-4528 -4535 4538 0
-4536 4538 0
-4528 -4536 0
-4529 4539 0
-4537 4539 0
-4529 -4537 4540 0
-4538 4540 0
-4529 -4538 0
-4530 -4540 0
-4543 18 0
-18 4543 0
4543 13 14 15 16 17 0
-4544 54 0
-54 4544 0
4544 49 50 51 52 53 0
-4545 90 0
-90 4545 0
4545 85 86 87 88 89 0
-4546 126 0
-126 4546 0
4546 121 122 123 124 125 0
-4547 162 0
-162 4547 0
4547 157 158 159 160 161 0
-4548 198 0
-198 4548 0
4548 193 194 195 196 197 0
-4543 4549 0
-4544 4550 0
-4549 4550 0
-4544 -4549 0
-4545 4551 0
-4550 4551 0
-4545 -4550 0
-4546 4552 0
-4551 4552 0
-4546 -4551 0
-4547 4553 0
-4552 4553 0
-4547 -4552 0
-4548 -4553 0
-13 4555 0
-49 4556 0
-4555 4556 0
-49 -4555 0
-85 4557 0
-4556 4557 0
-85 -4556 0
-121 4558 0
-4557 4558 0
-121 -4557 0
-157 4559 0
-4558 4559 0
-157 -4558 0
-193 -4559 0
13 49 85 121 157 193 0
-14 4561 0
-50 4562 0
-4561 4562 0
-50 -4561 0
-86 4563 0
-4562 4563 0
-86 -4562 0
-122 4564 0
-4563 4564 0
-122 -4563 0
-158 4565 0
-4564 4565 0
-158 -4564 0
-194 -4565 0
14 50 86 122 158 194 0
-15 4567 0
-51 4568 0
-4567 4568 0
-51 -4567 0
-87 4569 0
-4568 4569 0
-87 -4568 0
-123 4570 0
-4569 4570 0
-123 -4569 0
-159 4571 0
-4570 4571 0
-159 -4570 0
-195 -4571 0
15 51 87 123 159 195 0
-16 4573 0
-52 4574 0
-4573 4574 0
-52 -4573 0
-88 4575 0
-4574 4575 0
-88 -4574 0
-124 4576 0
-4575 4576 0
-124 -4575 0
-160 4577 0
-4576 4577 0
-160 -4576 0
-196 -4577 0
16 52 88 124 160 196 0
-17 4579 0
-53 4580 0
-4579 4580 0
-53 -4579 0
-89 4581 0
-4580 4581 0
-89 -4580 0
-125 4582 0
-4581 4582 0
-125 -4581 0
-161 4583 0
-4582 4583 0
-161 -4582 0
-197 -4583 0
17 53 89 125 161 197 0
-18 4585 0
-54 4586 0
-4585 4586 0
-54 -4585 0
-90 4587 0
-4586 4587 0
-90 -4586 0
-126 4588 0
-4587 4588 0
-126 -4587 0
-162 4589 0
-4588 4589 0
-162 -4588 0
-198 -4589 0
18 54 90 126 162 198 0
-4591 19 0
-19 4591 0
4591 20 21 22 23 24 0
-4592 55 0
-55 4592 0
4592 56 57 58 59 60 0
-4593 91 0
-91 4593 0
4593 92 93 94 95 96 0
-4594 127 0
-127 4594 0
4594 128 129 130 131 132 0
-4595 163 0
-163 4595 0
4595 164 165 166 167 168 0
-4596 199 0
-199 4596 0
4596 200 201 202 203 204 0
-4591 4597 0
-4592 4598 0
-4597 4598 0
-4592 -4597 0
-4593 4599 0
-4598 4599 0
-4593 -4598 0
-4594 4600 0
-4599 4600 0
-4594 -4599 0
-4595 4601 0
-4600 4601 0
-4595 -4600 0
-4596 -4601 0
-4603 19 20 0
-19 4603 0
-20 4603 0
4603 21 22 23 24 0
-4604 55 56 0
-55 4604 0
-56 4604 0
4604 57 58 59 60 0
-4605 91 92 0
-91 4605 0
-92 4605 0
4605 93 94 95 96 0
-4606 127 128 0
-127 4606 0
-128 4606 0
4606 129 130 131 132 0
-4607 163 164 0
-163 4607 0
-164 4607 0
4607 165 166 167 168 0
-4608 199 200 0
-199 4608 0
-200 4608 0
4608 201 202 203 204 0
-4603 4609 0
-4610 0
-4604 4611 0
-4609 4611 0
-4604 -4609 4612 0
-4610 4612 0
-4604 -4610 0
-4605 4613 0
-4611 4613 0
-4605 -4611 4614 0
-4612 4614 0
-4605 -4612 0
-4606 4615 0
-4613 4615 0
-4606 -4613 4616 0
-4614 4616 0
-4606 -4614 0
-4607 4617 0
-4615 4617 0
-4607 -4615 4618 0
-4616 4618 0
-4607 -4616 0
-4608 -4618 0
-4621 19 20 21 0
-19 4621 0
-20 4621 0
-21 4621 0
4621 22 23 24 0
-4622 55 56 57 0
-55 4622 0
-56 4622 0
-57 4622 0
4622 58 59 60 0
-4623 91 92 93 0
-91 4623 0
-92 4623 0
-93 4623 0
4623 94 95 96 0
-4624 127 128 129 0
-127 4624 0
-128 4624 0
-129 4624 0
4624 130 131 132 0
-4625 163 164 165 0
-163 4625 0
-164 4625 0
-165 4625 0
4625 166 167 168 0
-4626 199 200 201 0
-199 4626 0
-200 4626 0
-201 4626 0
4626 202 203 204 0
-4621 4627 0
-4628 0
-4629 0
-4622 4630 0
-4627 4630 0
-4622 -4627 4631 0
-4628 4631 0
-4622 -4628 4632 0
-4629 4632 0
-4622 -4629 0
-4623 4633 0
-4630 4633 0
-4623 -4630 4634 0
-4631 4634 0
-4623 -4631 4635 0
-4632 4635 0
-4623 -4632 0
-4624 4636 0
-4633 4636 0
-4624 -4633 4637 0
-4634 4637 0
-4624 -4634 4638 0
-4635 4638 0
-4624 -4635 0
-4625 4639 0
-4636 4639 0
-4625 -4636 4640 0
-4637 4640 0
-4625 -4637 4641 0
-4638 4641 0
-4625 -4638 0
-4626 -4641 0
-4645 19 20 21 22 0
-19 4645 0
-20 4645 0
-21 4645 0
-22 4645 0
4645 23 24 0
-4646 55 56 57 58 0
-55 4646 0
-56 4646 0
-57 4646 0
-58 4646 0
4646 59 60 0
-4647 91 92 93 94 0
-91 4647 0
-92 4647 0
-93 4647 0
-94 4647 0
4647 95 96 0
-4648 127 128 129 130 0
-127 4648 0
-128 4648 0
-129 4648 0
-130 4648 0
4648 131 132 0
-4649 163 164 165 166 0
-163 4649 0
-164 4649 0
-165 4649 0
-166 4649 0
4649 167 168 0
-4650 199 200 201 202 0
-199 4650 0
-200 4650 0
-201 4650 0
-202 4650 0
4650 203 204 0
-4645 4651 0
-4652 0
-4653 0
-4654 0
-4646 4655 0
-4651 4655 0
-4646 -4651 4656 0
-4652 4656 0
-4646 -4652 4657 0
-4653 4657 0
-4646 -4653 4658 0
-4654 4658 0
-4646 -4654 0
-4647 4659 0
-4655 4659 0
-4647 -4655 4660 0
-4656 4660 0
-4647 -4656 4661 0
-4657 4661 0
-4647 -4657 4662 0
-4658 4662 0
-4647 -4658 0
-4648 4663 0
-4659 4663 0
-4648 -4659 4664 0
-4660 4664 0
-4648 -4660 4665 0
-4661 4665 0
-4648 -4661 4666 0
-4662 4666 0
-4648 -4662 0
-4649 4667 0
-4663 4667 0
-4649 -4663 4668 0
-4664 4668 0
-4649 -4664 4669 0
-4665 4669 0
-4649 -4665 4670 0
-4666 4670 0
-4649 -4666 0
-4650 -4670 0
-4675 19 20 21 22 23 0
-19 4675 0
-20 4675 0
-21 4675 0
-22 4675 0
-23 4675 0
4675 24 0
-4676 55 56 57 58 59 0
-55 4676 0
-56 4676 0
-57 4676 0
-58 4676 0
-59 4676 0
4676 60 0
-4677 91 92 93 94 95 0
-91 4677 0
-92 4677 0
-93 4677 0
-94 4677 0
-95 4677 0
4677 96 0
-4678 127 128 129 130 131 0
-127 4678 0
-128 4678 0
-129 4678 0
-130 4678 0
-131 4678 0
4678 132 0
-4679 163 164 165 166 167 0
-163 4679 0
-164 4679 0
-165 4679 0
-166 4679 0
-167 4679 0
4679 168 0
-4680 199 200 201 202 203 0
-199 4680 0
-200 4680 0
-201 4680 0
-202 4680 0
-203 4680 0
4680 204 0
-4675 4681 0
-4682 0
-4683 0
-4684 0
-4685 0
-4676 4686 0
-4681 4686 0
-4676 -4681 4687 0
-4682 4687 0
-4676 -4682 4688 0
-4683 4688 0
-4676 -4683 4689 0
-4684 4689 0
-4676 -4684 4690 0
-4685 4690 0
-4676 -4685 0
-4677 4691 0
-4686 4691 0
-4677 -4686 4692 0
-4687 4692 0
-4677 -4687 4693 0
-4688 4693 0
-4677 -4688 4694 0
-4689 4694 0
-4677 -4689 4695 0
-4690 4695 0
-4677 -4690 0
-4678 4696 0
-4691 4696 0
-4678 -4691 4697 0
-4692 4697 0
-4678 -4692 4698 0
-4693 4698 0
-4678 -4693 4699 0
-4694 4699 0
-4678 -4694 4700 0
-4695 4700 0
-4678 -4695 0
-4679 4701 0
-4696 4701 0
-4679 -4696 4702 0
-4697 4702 0
-4679 -4697 4703 0
-4698 4703 0
-4679 -4698 4704 0
-4699 4704 0
-4679 -4699 4705 0
-4700 4705 0
-4679 -4700 0
-4680 -4705 0
-4711 19 20 21 22 23 24 0
-19 4711 0
-20 4711 0
-21 4711 0
-22 4711 0
-23 4711 0
-24 4711 0
4711 0
-4712 55 56 57 58 59 60 0
-55 4712 0
-56 4712 0
-57 4712 0
-58 4712 0
-59 4712 0
-60 4712 0
4712 0
-4713 91 92 93 94 95 96 0
-91 4713 0
-92 4713 0
-93 4713 0
-94 4713 0
-95 4713 0
-96 4713 0
4713 0
-4714 127 128 129 130 131 132 0
-127 4714 0
-128 4714 0
-129 4714 0
-130 4714 0
-131 4714 0
-132 4714 0
4714 0
-4715 163 164 165 166 167 168 0
-163 4715 0
-164 4715 0
-165 4715 0
-166 4715 0
-167 4715 0
-168 4715 0
4715 0
-4716 199 200 201 202 203 204 0
-199 4716 0
-200 4716 0
-201 4716 0
-202 4716 0
-203 4716 0
-204 4716 0
4716 0
-4717 20 0
-20 4717 0
4717 19 21 22 23 24 0
-4718 56 0
-56 4718 0
4718 55 57 58 59 60 0
-4719 92 0
-92 4719 0
4719 91 93 94 95 96 0
-4720 128 0
-128 4720 0
4720 127 129 130 131 132 0
-4721 164 0
-164 4721 0
4721 163 165 166 167 168 0
-4722 200 0
-200 4722 0
4722 199 201 202 203 204 0
-4717 4723 0
-4718 4724 0
-4723 4724 0
-4718 -4723 0
-4719 4725 0
-4724 4725 0
-4719 -4724 0
-4720 4726 0
-4725 4726 0
-4720 -4725 0
-4721 4727 0
-4726 4727 0
-4721 -4726 0
-4722 -4727 0
-4729 20 21 0
-20 4729 0
-21 4729 0
4729 19 22 23 24 0
-4730 56 57 0
-56 4730 0
-57 4730 0
4730 55 58 59 60 0
-4731 92 93 0
-92 4731 0
-93 4731 0
4731 91 94 95 96 0
-4732 128 129 0
-128 4732 0
-129 4732 0
4732 127 130 131 132 0
-4733 164 165 0
-164 4733 0
-165 4733 0
4733 163 166 167 168 0
-4734 200 201 0
-200 4734 0
-201 4734 0
4734 199 202 203 204 0
-4729 4735 0
-4736 0
-4730 4737 0
-4735 4737 0
-4730 -4735 4738 0
-4736 4738 0
-4730 -4736 0
-4731 4739 0
-4737 4739 0
-4731 -4737 4740 0
-4738 4740 0
-4731 -4738 0
-4732 4741 0
-4739 4741 0
-4732 -4739 4742 0
-4740 4742 0
-4732 -4740 0
-4733 4743 0
-4741 4743 0
-4733 -4741 4744 0
-4742 4744 0
-4733 -4742 0
-4734 -4744 0
-4747 20 21 22 0
-20 4747 0
-21 4747 0
-22 4747 0
4747 19 23 24 0
-4748 56 57 58 0
-56 4748 0
-57 4748 0
-58 4748 0
4748 55 59 60 0
-4749 92 93 94 0
-92 4749 0
-93 4749 0
-94 4749 0
4749 91 95 96 0
-4750 128 129 130 0
-128 4750 0
-129 4750 0
-130 4750 0
4750 127 131 132 0
-4751 164 165 166 0
-164 4751 0
-165 4751 0
-166 4751 0
4751 163 167 168 0
-4752 200 201 202 0
-200 4752 0
-201 4752 0
-202 4752 0
4752 199 203 204 0
-4747 4753 0
-4754 0
-4755 0
-4748 4756 0
-4753 4756 0
-4748 -4753 4757 0
-4754 4757 0
-4748 -4754 4758 0
-4755 4758 0
-4748 -4755 0
-4749 4759 0
-4756 4759 0
-4749 -4756 4760 0
-4757 4760 0
-4749 -4757 4761 0
-4758 4761 0
-4749 -4758 0
-4750 4762 0
-4759 4762 0
-4750 -4759 4763 0
-4760 4763 0
-4750 -4760 4764 0
-4761 4764 0
-4750 -4761 0
-4751 4765 0
-4762 4765 0
-4751 -4762 4766 0
-4763 4766 0
-4751 -4763 4767 0
-4764 4767 0
-4751 -4764 0
-4752 -4767 0
-4771 20 21 22 23 0
-20 4771 0
-21 4771 0
-22 4771 0
-23 4771 0
4771 19 24 0
-4772 56 57 58 59 0
-56 4772 0
-57 4772 0
-58 4772 0
-59 4772 0
4772 55 60 0
-4773 92 93 94 95 0
-92 4773 0
-93 4773 0
-94 4773 0
-95 4773 0
4773 91 96 0
-4774 128 129 130 131 0
-128 4774 0
-129 4774 0
-130 4774 0
-131 4774 0
4774 127 132 0
-4775 164 165 166 167 0
-164 4775 0
-165 4775 0
-166 4775 0
-167 4775 0
4775 163 168 0
-4776 200 201 202 203 0
-200 4776 0
-201 4776 0
-202 4776 0
-203 4776 0
4776 199 204 0
-4771 4777 0
-4778 0
-4779 0
-4780 0
-4772 4781 0
-4777 4781 0
-4772 -4777 4782 0
-4778 4782 0
-4772 -4778 4783 0
-4779 4783 0
-4772 -4779 4784 0
-4780 4784 0
-4772 -4780 0
-4773 4785 0
-4781 4785 0
-4773 -4781 4786 0
-4782 4786 0
-4773 -4782 4787 0
-4783 4787 0
-4773 -4783 4788 0
-4784 4788 0
-4773 -4784 0
-4774 4789 0
-4785 4789 0
-4774 -4785 4790 0
-4786 4790 0
-4774 -4786 4791 0
-4787 4791 0
-4774 -4787 4792 0
-4788 4792 0
-4774 -4788 0
-4775 4793 0
-4789 4793 0
-4775 -4789 4794 0
-4790 4794 0
-4775 -4790 4795 0
-4791 4795 0
-4775 -4791 4796 0
-4792 4796 0
-4775 -4792 0
-4776 -4796 0
-4801 20 21 22 23 24 0
-20 4801 0
-21 4801 0
-22 4801 0
-23 4801 0
-24 4801 0
4801 19 0
-4802 56 57 58 59 60 0
-56 4802 0
-57 4802 0
-58 4802 0
-59 4802 0
-60 4802 0
4802 55 0
-4803 92 93 94 95 96 0
-92 4803 0
-93 4803 0
-94 4803 0
-95 4803 0
-96 4803 0
4803 91 0
-4804 128 129 130 131 132 0
-128 4804 0
-129 4804 0
-130 4804 0
-131 4804 0
-132 4804 0
4804 127 0
-4805 164 165 166 167 168 0
-164 4805 0
-165 4805 0
-166 4805 0
-167 4805 0
-168 4805 0
4805 163 0
-4806 200 201 202 203 204 0
-200 4806 0
-201 4806 0
-202 4806 0
-203 4806 0
-204 4806 0
4806 199 0
-4801 4807 0
-4808 0
-4809 0
-4810 0
-4811 0
-4802 4812 0
-4807 4812 0
-4802 -4807 4813 0
-4808 4813 0
-4802 -4808 4814 0
-4809 4814 0
-4802 -4809 4815 0
-4810 4815 0
-4802 -4810 4816 0
-4811 4816 0
-4802 -4811 0
-4803 4817 0
-4812 4817 0
-4803 -4812 4818 0
-4813 4818 0
-4803 -4813 4819 0
-4814 4819 0
-4803 -4814 4820 0
-4815 4820 0
-4803 -4815 4821 0
-4816 4821 0
-4803 -4816 0
-4804 4822 0
-4817 4822 0
-4804 -4817 4823 0
-4818 4823 0
-4804 -4818 4824 0
-4819 4824 0
-4804 -4819 4825 0
-4820 4825 0
-4804 -4820 4826 0
-4821 4826 0
-4804 -4821 0
-4805 4827 0
-4822 4827 0
-4805 -4822 4828 0
-4823 4828 0
-4805 -4823 4829 0
-4824 4829 0
-4805 -4824 4830 0
-4825 4830 0
-4805 -4825 4831 0
-4826 4831 0
-4805 -4826 0
-4806 -4831 0
-4837 21 0
-21 4837 0
4837 19 20 22 23 24 0
-4838 57 0
-57 4838 0
4838 55 56 58 59 60 0
-4839 93 0
-93 4839 0
4839 91 92 94 95 96 0
-4840 129 0
-129 4840 0
4840 127 128 130 131 132 0
-4841 165 0
-165 4841 0
4841 163 164 166 167 168 0
-4842 201 0
-201 4842 0
4842 199 200 202 203 204 0
-4837 4843 0
-4838 4844 0
-4843 4844 0
-4838 -4843 0
-4839 4845 0
-4844 4845 0
-4839 -4844 0
-4840 4846 0
-4845 4846 0
-4840 -4845 0
-4841 4847 0
-4846 4847 0
-4841 -4846 0
-4842 -4847 0
-4849 21 22 0
-21 4849 0
-22 4849 0
4849 19 20 23 24 0
-4850 57 58 0
-57 4850 0
-58 4850 0
4850 55 56 59 60 0
-4851 93 94 0
-93 4851 0
-94 4851 0
4851 91 92 95 96 0
-4852 129 130 0
-129 4852 0
-130 4852 0
4852 127 128 131 132 0
-4853 165 166 0
-165 4853 0
-166 4853 0
4853 163 164 167 168 0
-4854 201 202 0
-201 4854 0
-202 4854 0
4854 199 200 203 204 0
-4849 4855 0
-4856 0
-4850 4857 0
-4855 4857 0
-4850 -4855 4858 0
-4856 4858 0
-4850 -4856 0
-4851 4859 0
-4857 4859 0
-4851 -4857 4860 0
-4858 4860 0
-4851 -4858 0
-4852 4861 0
-4859 4861 0
-4852 -4859 4862 0
-4860 4862 0
-4852 -4860 0
-4853 4863 0
-4861 4863 0
-4853 -4861 4864 0
-4862 4864 0
-4853 -4862 0
-4854 -4864 0
-4867 21 22 23 0
-21 4867 0
-22 4867 0
-23 4867 0
4867 19 20 24 0
-4868 57 58 59 0
-57 4868 0
-58 4868 0
-59 4868 0
4868 55 56 60 0
-4869 93 94 95 0
-93 4869 0
-94 4869 0
-95 4869 0
4869 91 92 96 0
-4870 129 130 131 0
-129 4870 0
-130 4870 0
-131 4870 0
4870 127 128 132 0
-4871 165 166 167 0
-165 4871 0
-166 4871 0
-167 4871 0
4871 163 164 168 0
-4872 201 202 203 0
-201 4872 0
-202 4872 0
-203 4872 0
4872 199 200 204 0
-4867 4873 0
-4874 0
-4875 0
-4868 4876 0
-4873 4876 0
-4868 -4873 4877 0
-4874 4877 0
-4868 -4874 4878 0
-4875 4878 0
-4868 -4875 0
-4869 4879 0
-4876 4879 0
-4869 -4876 4880 0
-4877 4880 0
-4869 -4877 4881 0
-4878 4881 0
-4869 -4878 0
-4870 4882 0
-4879 4882 0
-4870 -4879 4883 0
-4880 4883 0
-4870 -4880 4884 0
-4881 4884 0
-4870 -4881 0
-4871 4885 0
-4882 4885 0
-4871 -4882 4886 0
-4883 4886 0
-4871 -4883 4887 0
-4884 4887 0
-4871 -4884 0
-4872 -4887 0
-4891 21 22 23 24 0
-21 4891 0
-22 4891 0
-23 4891 0
-24 4891 0
4891 19 20 0
-4892 57 58 59 60 0
-57 4892 0
-58 4892 0
-59 4892 0
-60 4892 0
4892 55 56 0
-4893 93 94 95 96 0
-93 4893 0
-94 4893 0
-95 4893 0
-96 4893 0
4893 91 92 0
-4894 129 130 131 132 0
-129 4894 0
-130 4894 0
-131 4894 0
-132 4894 0
4894 127 128 0
-4895 165 166 167 168 0
-165 4895 0
-166 4895 0
-167 4895 0
-168 4895 0
4895 163 164 0
-4896 201 202 203 204 0
-201 4896 0
-202 4896 0
-203 4896 0
-204 4896 0
4896 199 200 0
-4891 4897 0
-4898 0
-4899 0
-4900 0
-4892 4901 0
-4897 4901 0
-4892 -4897 4902 0
-4898 4902 0
-4892 -4898 4903 0
-4899 4903 0
-4892 -4899 4904 0
-4900 4904 0
-4892 -4900 0
-4893 4905 0
-4901 4905 0
-4893 -4901 4906 0
-4902 4906 0
-4893 -4902 4907 0
-4903 4907 0
-4893 -4903 4908 0
-4904 4908 0
-4893 -4904 0
-4894 4909 0
-4905 4909 0
-4894 -4905 4910 0
-4906 4910 0
-4894 -4906 4911 0
-4907 4911 0
-4894 -4907 4912 0
-4908 4912 0
-4894 -4908 0
-4895 4913 0
-4909 4913 0
-4895 -4909 4914 0
-4910 4914 0
-4895 -4910 4915 0
-4911 4915 0
-4895 -4911 4916 0
-4912 4916 0
-4895 -4912 0
-4896 -4916 0
-4921 22 0
-22 4921 0
4921 19 20 21 23 24 0
-4922 58 0
-58 4922 0
4922 55 56 57 59 60 0
-4923 94 0
-94 4923 0
4923 91 92 93 95 96 0
-4924 130 0
-130 4924 0
4924 127 128 129 131 132 0
-4925 166 0
-166 4925 0
4925 163 164 165 167 168 0
-4926 202 0
-202 4926 0
4926 199 200 201 203 204 0
-4921 4927 0
-4922 4928 0
-4927 4928 0
-4922 -4927 0
-4923 4929 0
-4928 4929 0
-4923 -4928 0
-4924 4930 0
-4929 4930 0
-4924 -4929 0
-4925 4931 0
-4930 4931 0
-4925 -4930 0
-4926 -4931 0
-4933 22 23 0
-22 4933 0
-23 4933 0
4933 19 20 21 24 0
-4934 58 59 0
-58 4934 0
-59 4934 0
4934 55 56 57 60 0
-4935 94 95 0
-94 4935 0
-95 4935 0
4935 91 92 93 96 0
-4936 130 131 0
-130 4936 0
-131 4936 0
4936 127 128 129 132 0
-4937 166 167 0
-166 4937 0
-167 4937 0
4937 163 164 165 168 0
-4938 202 203 0
-202 4938 0
-203 4938 0
4938 199 200 201 204 0
-4933 4939 0
-4940 0
-4934 4941 0
-4939 4941 0
-4934 -4939 4942 0
-4940 4942 0
-4934 -4940 0
-4935 4943 0
-4941 4943 0
-4935 -4941 4944 0
-4942 4944 0
-4935 -4942 0
-4936 4945 0
-4943 4945 0
-4936 -4943 4946 0
-4944 4946 0
-4936 -4944 0
-4937 4947 0
-4945 4947 0
-4937 -4945 4948 0
-4946 4948 0
-4937 -4946 0
-4938 -4948 0
-4951 22 23 24 0
-22 4951 0
-23 4951 0
-24 4951 0
4951 19 20 21 0
-4952 58 59 60 0
-58 4952 0
-59 4952 0
-60 4952 0
4952 55 56 57 0
-4953 94 95 96 0
-94 4953 0
-95 4953 0
-96 4953 0
4953 91 92 93 0
-4954 130 131 132 0
-130 4954 0
-131 4954 0
-132 4954 0
4954 127 128 129 0
-4955 166 167 168 0
-166 4955 0
-167 4955 0
-168 4955 0
4955 163 164 165 0
-4956 202 203 204 0
-202 4956 0
-203 4956 0
-204 4956 0
4956 199 200 201 0
-4951 4957 0
-4958 0
-4959 0
-4952 4960 0
-4957 4960 0
-4952 -4957 4961 0
-4958 4961 0
-4952 -4958 4962 0
-4959 4962 0
-4952 -4959 0
-4953 4963 0
-4960 4963 0
-4953 -4960 4964 0
-4961 4964 0
-4953 -4961 4965 0
-4962 4965 0
-4953 -4962 0
-4954 4966 0
-4963 4966 0
-4954 -4963 4967 0
-4964 4967 0
-4954 -4964 4968 0
-4965 4968 0
-4954 -4965 0
-4955 4969 0
-4966 4969 0
-4955 -4966 4970 0
-4967 4970 0
-4955 -4967 4971 0
-4968 4971 0
-4955 -4968 0
-4956 -4971 0
-4975 23 0
-23 4975 0
4975 19 20 21 22 24 0
-4976 59 0
-59 4976 0
4976 55 56 57 58 60 0
-4977 95 0
-95 4977 0
4977 91 92 93 94 96 0
-4978 131 0
-131 4978 0
4978 127 128 129 130 132 0
-4979 167 0
-167 4979 0
4979 163 164 165 166 168 0
-4980 203 0
-203 4980 0
4980 199 200 201 202 204 0
-4975 4981 0
-4976 4982 0
-4981 4982 0
-4976 -4981 0
-4977 4983 0
-4982 4983 0
-4977 -4982 0
-4978 4984 0
-4983 4984 0
-4978 -4983 0
-4979 4985 0
-4984 4985 0
-4979 -4984 0
-4980 -4985 0
-4987 23 24 0
-23 4987 0
-24 4987 0
4987 19 20 21 22 0
-4988 59 60 0
-59 4988 0
-60 4988 0
4988 55 56 57 58 0
-4989 95 96 0
-95 4989 0
-96 4989 0
4989 91 92 93 94 0
-4990 131 132 0
-131 4990 0
-132 4990 0
4990 127 128 129 130 0
-4991 167 168 0
-167 4991 0
-168 4991 0
4991 163 164 165 166 0
-4992 203 204 0
-203 4992 0
-204 4992 0
4992 199 200 201 202 0
-4987 4993 0
-4994 0
-4988 4995 0
-4993 4995 0
-4988 -4993 4996 0
-4994 4996 0
-4988 -4994 0
-4989 4997 0
-4995 4997 0
-4989 -4995 4998 0
-4996 4998 0
-4989 -4996 0
-4990 4999 0
-4997 4999 0
-4990 -4997 5000 0
-4998 5000 0
-4990 -4998 0
-4991 5001 0
-4999 5001 0
-4991 -4999 5002 0
-5000 5002 0
-4991 -5000 0
-4992 -5002 0
-5005 24 0
-24 5005 0
5005 19 20 21 22 23 0
-5006 60 0
-60 5006 0
5006 55 56 57 58 59 0
-5007 96 0
-96 5007 0
5007 91 92 93 94 95 0
-5008 132 0
-132 5008 0
5008 127 128 129 130 131 0
-5009 168 0
-168 5009 0
5009 163 164 165 166 167 0
-5010 204 0
-204 5010 0
5010 199 200 201 202 203 0
-5005 5011 0
-5006 5012 0
-5011 5012 0
-5006 -5011 0
-5007 5013 0
-5012 5013 0
-5007 -5012 0
-5008 5014 0
-5013 5014 0
-5008 -5013 0
-5009 5015 0
-5014 5015 0
-5009 -5014 0
-5010 -5015 0
-19 5017 0
-55 5018 0
-5017 5018 0
-55 -5017 0
-91 5019 0
-5018 5019 0
-91 -5018 0
-127 5020 0
-5019 5020 0
-127 -5019 0
-163 5021 0
-5020 5021 0
-163 -5020 0
-199 -5021 0
19 55 91 127 163 199 0
-20 5023 0
-56 5024 0
-5023 5024 0
-56 -5023 0
-92 5025 0
-5024 5025 0
-92 -5024 0
-128 5026 0
-5025 5026 0
-128 -5025 0
-164 5027 0
-5026 5027 0
-164 -5026 0
-200 -5027 0
20 56 92 128 164 200 0
-21 5029 0
-57 5030 0
-5029 5030 0
-57 -5029 0
-93 5031 0
-5030 5031 0
-93 -5030 0
-129 5032 0
-5031 5032 0
-129 -5031 0
-165 5033 0
-5032 5033 0
-165 -5032 0
-201 -5033 0
21 57 93 129 165 201 0
-22 5035 0
-58 5036 0
-5035 5036 0
-58 -5035 0
-94 5037 0
-5036 5037 0
-94 -5036 0
-130 5038 0
-5037 5038 0
-130 -5037 0
-166 5039 0
-5038 5039 0
-166 -5038 0
-202 -5039 0
22 58 94 130 166 202 0
-23 5041 0
-59 5042 0
-5041 5042 0
-59 -5041 0
-95 5043 0
-5042 5043 0
-95 -5042 0
-131 5044 0
-5043 5044 0
-131 -5043 0
-167 5045 0
-5044 5045 0
-167 -5044 0
-203 -5045 0
23 59 95 131 167 203 0
-24 5047 0
-60 5048 0
-5047 5048 0
-60 -5047 0
-96 5049 0
-5048 5049 0
-96 -5048 0
-132 5050 0
-5049 5050 0
-132 -5049 0
-168 5051 0
-5050 5051 0
-168 -5050 0
-204 -5051 0
24 60 96 132 168 204 0
-5053 25 0
-25 5053 0
5053 26 27 28 29 30 0
-5054 61 0
-61 5054 0
5054 62 63 64 65 66 0
-5055 97 0
-97 5055 0
5055 98 99 100 101 102 0
-5056 133 0
-133 5056 0
5056 134 135 136 137 138 0
-5057 169 0
-169 5057 0
5057 170 171 172 173 174 0
-5058 205 0
-205 5058 0
5058 206 207 208 209 210 0
-5053 5059 0
-5054 5060 0
-5059 5060 0
-5054 -5059 0
-5055 5061 0
-5060 5061 0
-5055 -5060 0
-5056 5062 0
-5061 5062 0
-5056 -5061 0
-5057 5063 0
-5062 5063 0
-5057 -5062 0
-5058 -5063 0
-5065 25 26 0
-25 5065 0
-26 5065 0
5065 27 28 29 30 0
-5066 61 62 0
-61 5066 0
-62 5066 0
5066 63 64 65 66 0
-5067 97 98 0
-97 5067 0
-98 5067 0
5067 99 100 101 102 0
-5068 133 134 0
-133 5068 0
-134 5068 0
5068 135 136 137 138 0
-5069 169 170 0
-169 5069 0
-170 5069 0
5069 171 172 173 174 0
-5070 205 206 0
-205 5070 0
-206 5070 0
5070 207 208 209 210 0
-5065 5071 0
-5072 0
-5066 5073 0
-5071 5073 0
-5066 -5071 5074 0
-5072 5074 0
-5066 -5072 0
-5067 5075 0
-5073 5075 0
-5067 -5073 5076 0
-5074 5076 0
-5067 -5074 0
-5068 5077 0
-5075 5077 0
-5068 -5075 5078 0
-5076 5078 0
-5068 -5076 0
-5069 5079 0
-5077 5079 0
-5069 -5077 5080 0
-5078 5080 0
-5069 -5078 0
-5070 -5080 0
-5083 25 26 27 0
-25 5083 0
-26 5083 0
-27 5083 0
5083 28 29 30 0
-5084 61 62 63 0
-61 5084 0
-62 5084 0
-63 5084 0
5084 64 65 66 0
-5085 97 98 99 0
-97 5085 0
-98 5085 0
-99 5085 0
5085 100 101 102 0
-5086 133 134 135 0
-133 5086 0
-134 5086 0
-135 5086 0
5086 136 137 138 0
-5087 169 170 171 0
-169 5087 0
-170 5087 0
-171 5087 0
5087 172 173 174 0
-5088 205 206 207 0
-205 5088 0
-206 5088 0
-207 5088 0
5088 208 209 210 0
-5083 5089 0
-5090 0
-5091 0
-5084 5092 0
-5089 5092 0
-5084 -5089 5093 0
-5090 5093 0
-5084 -5090 5094 0
-5091 5094 0
-5084 -5091 0
-5085 5095 0
-5092 5095 0
-5085 -5092 5096 0
-5093 5096 0
-5085 -5093 5097 0
-5094 5097 0
-5085 -5094 0
-5086 5098 0
-5095 5098 0
-5086 -5095 5099 0
-5096 5099 0
-5086 -5096 5100 0
-5097 5100 0
-5086 -5097 0
-5087 5101 0
-5098 5101 0
-5087 -5098 5102 0
-5099 5102 0
-5087 -5099 5103 0
-5100 5103 0
-5087 -5100 0
-5088 -5103 0
-5107 25 26 27 28 0
-25 5107 0
-26 5107 0
-27 5107 0
-28 5107 0
5107 29 30 0
-5108 61 62 63 64 0
-61 5108 0
-62 5108 0
-63 5108 0
-64 5108 0
5108 65 66 0
-5109 97 98 99 100 0
-97 5109 0
-98 5109 0
-99 5109 0
-100 5109 0
5109 101 102 0
-5110 133 134 135 136 0
-133 5110 0
-134 5110 0
-135 5110 0
-136 5110 0
5110 137 138 0
-5111 169 170 171 172 0
-169 5111 0
-170 5111 0
-171 5111 0
-172 5111 0
5111 173 174 0
-5112 205 206 207 208 0
-205 5112 0
-206 5112 0
-207 5112 0
-208 5112 0
5112 209 210 0
-5107 5113 0
-5114 0
-5115 0
-5116 0
-5108 5117 0
-5113 5117 0
-5108 -5113 5118 0
-5114 5118 0
-5108 -5114 5119 0
-5115 5119 0
-5108 -5115 5120 0
-5116 5120 0
-5108 -5116 0
-5109 5121 0
-5117 5121 0
-5109 -5117 5122 0
-5118 5122 0
-5109 -5118 5123 0
-5119 5123 0
-5109 -5119 5124 0
-5120 5124 0
-5109 -5120 0
-5110 5125 0
-5121 5125 0
-5110 -5121 5126 0
-5122 5126 0
-5110 -5122 5127 0
-5123 5127 0
-5110 -5123 5128 0
-5124 5128 0
-5110 -5124 0
-5111 5129 0
-5125 5129 0
-5111 -5125 5130 0
-5126 5130 0
-5111 -5126 5131 0
-5127 5131 0
-5111 -5127 5132 0
-5128 5132 0
-5111 -5128 0
-5112 -5132 0
-5137 25 26 27 28 29 0
-25 5137 0
-26 5137 0
-27 5137 0
-28 5137 0
-29 5137 0
5137 30 0
-5138 61 62 63 64 65 0
-61 5138 0
-62 5138 0
-63 5138 0
-64 5138 0
-65 5138 0
5138 66 0
-5139 97 98 99 100 101 0
-97 5139 0
-98 5139 0
-99 5139 0
-100 5139 0
-101 5139 0
5139 102 0
-5140 133 134 135 136 137 0
-133 5140 0
-134 5140 0
-135 5140 0
-136 5140 0
-137 5140 0
5140 138 0
-5141 169 170 171 172 173 0
-169 5141 0
-170 5141 0
-171 5141 0
-172 5141 0
-173 5141 0
5141 174 0
-5142 205 206 207 208 209 0
-205 5142 0
-206 5142 0
-207 5142 0
-208 5142 0
-209 5142 0
5142 210 0
-5137 5143 0
-5144 0
-5145 0
-5146 0
-5147 0
-5138 5148 0
-5143 5148 0
-5138 -5143 5149 0
-5144 5149 0
-5138 -5144 5150 0
-5145 5150 0
-5138 -5145 5151 0
-5146 5151 0
-5138 -5146 5152 0
-5147 5152 0
-5138 -5147 0
-5139 5153 0
-5148 5153 0
-5139 -5148 5154 0
-5149 5154 0
-5139 -5149 5155 0
-5150 5155 0
-5139 -5150 5156 0
-5151 5156 0
-5139 -5151 5157 0
-5152 5157 0
-5139 -5152 0
-5140 5158 0
-5153 5158 0
-5140 -5153 5159 0
-5154 5159 0
-5140 -5154 5160 0
-5155 5160 0
-5140 -5155 5161 0
-5156 5161 0
-5140 -5156 5162 0
-5157 5162 0
-5140 -5157 0
-5141 5163 0
-5158 5163 0
-5141 -5158 5164 0
-5159 5164 0
-5141 -5159 5165 0
-5160 5165 0
-5141 -5160 5166 0
-5161 5166 0
-5141 -5161 5167 0
-5162 5167 0
-5141 -5162 0
-5142 -5167 0
-5173 25 26 27 28 29 30 0
-25 5173 0
-26 5173 0
-27 5173 0
-28 5173 0
-29 5173 0
-30 5173 0
5173 0
-5174 61 62 63 64 65 66 0
-61 5174 0
-62 5174 0
-63 5174 0
-64 5174 0
-65 5174 0
-66 5174 0
5174 0
-5175 97 98 99 100 101 102 0
-97 5175 0
-98 5175 0
-99 5175 0
-100 5175 0
-101 5175 0
-102 5175 0
5175 0
-5176 133 134 135 136 137 138 0
-133 5176 0
-134 5176 0
-135 5176 0
-136 5176 0
-137 5176 0
-138 5176 0
5176 0
-5177 169 170 171 172 173 174 0
-169 5177 0
-170 5177 0
-171 5177 0
-172 5177 0
-173 5177 0
-174 5177 0
5177 0
-5178 205 206 207 208 209 210 0
-205 5178 0
-206 5178 0
-207 5178 0
-208 5178 0
-209 5178 0
-210 5178 0
5178 0
-5179 26 0
-26 5179 0
5179 25 27 28 29 30 0
-5180 62 0
-62 5180 0
5180 61 63 64 65 66 0
-5181 98 0
-98 5181 0
5181 97 99 100 101 102 0
-5182 134 0
-134 5182 0
5182 133 135 136 137 138 0
-5183 170 0
-170 5183 0
5183 169 171 172 173 174 0
-5184 206 0
-206 5184 0
5184 205 207 208 209 210 0
-5179 5185 0
-5180 5186 0
-5185 5186 0
-5180 -5185 0
-5181 5187 0
-5186 5187 0
-5181 -5186 0
-5182 5188 0
-5187 5188 0
-5182 -5187 0
-5183 5189 0
-5188 5189 0
-5183 -5188 0
-5184 -5189 0
-5191 26 27 0
-26 5191 0
-27 5191 0
5191 25 28 29 30 0
-5192 62 63 0
-62 5192 0
-63 5192 0
5192 61 64 65 66 0
-5193 98 99 0
-98 5193 0
-99 5193 0
5193 97 100 101 102 0
-5194 134 135 0
-134 5194 0
-135 5194 0
5194 133 136 137 138 0
-5195 170 171 0
-170 5195 0
-171 5195 0
5195 169 172 173 174 0
-5196 206 207 0
-206 5196 0
-207 5196 0
5196 205 208 209 210 0
-5191 5197 0
-5198 0
-5192 5199 0
-5197 5199 0
-5192 -5197 5200 0
-5198 5200 0
-5192 -5198 0
-5193 5201 0
-5199 5201 0
-5193 -5199 5202 0
-5200 5202 0
-5193 -5200 0
-5194 5203 0
-5201 5203 0
-5194 -5201 5204 0
-5202 5204 0
-5194 -5202 0
-5195 5205 0
-5203 5205 0
-5195 -5203 5206 0
-5204 5206 0
-5195 -5204 0
-5196 -5206 0
-5209 26 27 28 0
-26 5209 0
-27 5209 0
-28 5209 0
5209 25 29 30 0
-5210 62 63 64 0
-62 5210 0
-63 5210 0
-64 5210 0
5210 61 65 66 0
-5211 98 99 100 0
-98 5211 0
-99 5211 0
-100 5211 0
5211 97 101 102 0
-5212 134 135 136 0
-134 5212 0
-135 5212 0
-136 5212 0
5212 133 137 138 0
-5213 170 171 172 0
-170 5213 0
-171 5213 0
-172 5213 0
5213 169 173 174 0
-5214 206 207 208 0
-206 5214 0
-207 5214 0
-208 5214 0
5214 205 209 210 0
-5209 5215 0
-5216 0
-5217 0
-5210 5218 0
-5215 5218 0
-5210 -5215 5219 0
-5216 5219 0
-5210 -5216 5220 0
-5217 5220 0
-5210 -5217 0
-5211 5221 0
-5218 5221 0
-5211 -5218 5222 0
-5219 5222 0
-5211 -5219 5223 0
-5220 5223 0
-5211 -5220 0
-5212 5224 0
-5221 5224 0
-5212 -5221 5225 0
-5222 5225 0
-5212 -5222 5226 0
-5223 5226 0
-5212 -5223 0
-5213 5227 0
-5224 5227 0
-5213 -5224 5228 0
-5225 5228 0
-5213 -5225 5229 0
-5226 5229 0
-5213 -5226 0
-5214 -5229 0
-5233 26 27 28 29 0
-26 5233 0
-27 5233 0
-28 5233 0
-29 5233 0
5233 25 30 0
-5234 62 63 64 65 0
-62 5234 0
-63 5234 0
-64 5234 0
-65 5234 0
5234 61 66 0
-5235 98 99 100 101 0
-98 5235 0
-99 5235 0
-100 5235 0
-101 5235 0
5235 97 102 0
-5236 134 135 136 137 0
-134 5236 0
-135 5236 0
-136 5236 0
-137 5236 0
5236 133 138 0
-5237 170 171 172 173 0
-170 5237 0
-171 5237 0
-172 5237 0
-173 5237 0
5237 169 174 0
-5238 206 207 208 209 0
-206 5238 0
-207 5238 0
-208 5238 0
-209 5238 0
5238 205 210 0
-5233 5239 0
-5240 0
-5241 0
-5242 0
-5234 5243 0
-5239 5243 0
-5234 -5239 5244 0
-5240 5244 0
-5234 -5240 5245 0
-5241 5245 0
-5234 -5241 5246 0
-5242 5246 0
-5234 -5242 0
-5235 5247 0
-5243 5247 0
-5235 -5243 5248 0
-5244 5248 0
-5235 -5244 5249 0
-5245 5249 0
-5235 -5245 5250 0
-5246 5250 0
-5235 -5246 0
-5236 5251 0
-5247 5251 0
-5236 -5247 5252 0
-5248 5252 0
-5236 -5248 5253 0
-5249 5253 0
-5236 -5249 5254 0
-5250 5254 0
-5236 -5250 0
-5237 5255 0
-5251 5255 0
-5237 -5251 5256 0
-5252 5256 0
-5237 -5252 5257 0
-5253 5257 0
-5237 -5253 5258 0
-5254 5258 0
-5237 -5254 0
-5238 -5258 0
-5263 26 27 28 29 30 0
-26 5263 0
-27 5263 0
-28 5263 0
-29 5263 0
-30 5263 0
5263 25 0
-5264 62 63 64 65 66 0
-62 5264 0
-63 5264 0
-64 5264 0
-65 5264 0
-66 5264 0
5264 61 0
-5265 98 99 100 101 102 0
-98 5265 0
-99 5265 0
-100 5265 0
-101 5265 0
-102 5265 0
5265 97 0
-5266 134 135 136 137 138 0
-134 5266 0
-135 5266 0
-136 5266 0
-137 5266 0
-138 5266 0
5266 133 0
-5267 170 171 172 173 174 0
-170 5267 0
-171 5267 0
-172 5267 0
-173 5267 0
-174 5267 0
5267 169 0
-5268 206 207 208 209 210 0
-206 5268 0
-207 5268 0
-208 5268 0
-209 5268 0
-210 5268 0
5268 205 0
-5263 5269 0
-5270 0
-5271 0
-5272 0
-5273 0
-5264 5274 0
-5269 5274 0
-5264 -5269 5275 0
-5270 5275 0
-5264 -5270 5276 0
-5271 5276 0
-5264 -5271 5277 0
-5272 5277 0
-5264 -5272 5278 0
-5273 5278 0
-5264 -5273 0
-5265 5279 0
-5274 5279 0
-5265 -5274 5280 0
-5275 5280 0
-5265 -5275 5281 0
-5276 5281 0
-5265 -5276 5282 0
-5277 5282 0
-5265 -5277 5283 0
-5278 5283 0
-5265 -5278 0
-5266 5284 0
-5279 5284 0
-5266 -5279 5285 0
-5280 5285 0
-5266 -5280 5286 0
-5281 5286 0
-5266 -5281 5287 0
-5282 5287 0
-5266 -5282 5288 0
-5283 5288 0
-5266 -5283 0
-5267 5289 0
-5284 5289 0
-5267 -5284 5290 0
-5285 5290 0
-5267 -5285 5291 0
-5286 5291 0
-5267 -5286 5292 0
-5287 5292 0
-5267 -5287 5293 0
-5288 5293 0
-5267 -5288 0
-5268 -5293 0
-5299 27 0
-27 5299 0
5299 25 26 28 29 30 0
-5300 63 0
-63 5300 0
5300 61 62 64 65 66 0
-5301 99 0
-99 5301 0
5301 97 98 100 101 102 0
-5302 135 0
-135 5302 0
5302 133 134 136 137 138 0
-5303 171 0
-171 5303 0
5303 169 170 172 173 174 0
-5304 207 0
-207 5304 0
5304 205 206 208 209 210 0
-5299 5305 0
-5300 5306 0
-5305 5306 0
-5300 -5305 0
-5301 5307 0
-5306 5307 0
-5301 -5306 0
-5302 5308 0
-5307 5308 0
-5302 -5307 0
-5303 5309 0
-5308 5309 0
-5303 -5308 0
-5304 -5309 0
-5311 27 28 0
-27 5311 0
-28 5311 0
5311 25 26 29 30 0
-5312 63 64 0
-63 5312 0
-64 5312 0
5312 61 62 65 66 0
-5313 99 100 0
-99 5313 0
-100 5313 0
5313 97 98 101 102 0
-5314 135 136 0
-135 5314 0
-136 5314 0
5314 133 134 137 138 0
-5315 171 172 0
-171 5315 0
-172 5315 0
5315 169 170 173 174 0
-5316 207 208 0
-207 5316 0
-208 5316 0
5316 205 206 209 210 0
-5311 5317 0
-5318 0
-5312 5319 0
-5317 5319 0
-5312 -5317 5320 0
-5318 5320 0
-5312 -5318 0
-5313 5321 0
-5319 5321 0
-5313 -5319 5322 0
-5320 5322 0
-5313 -5320 0
-5314 5323 0
-5321 5323 0
-5314 -5321 5324 0
-5322 5324 0
-5314 -5322 0
-5315 5325 0
-5323 5325 0
-5315 -5323 5326 0
-5324 5326 0
-5315 -5324 0
-5316 -5326 0
-5329 27 28 29 0
-27 5329 0
-28 5329 0
-29 5329 0
5329 25 26 30 0
-5330 63 64 65 0
-63 5330 0
-64 5330 0
-65 5330 0
5330 61 62 66 0
-5331 99 100 101 0
-99 5331 0
-100 5331 0
-101 5331 0
5331 97 98 102 0
-5332 135 136 137 0
-135 5332 0
-136 5332 0
-137 5332 0
5332 133 134 138 0
-5333 171 172 173 0
-171 5333 0
-172 5333 0
-173 5333 0
5333 169 170 174 0
-5334 207 208 209 0
-207 5334 0
-208 5334 0
-209 5334 0
5334 205 206 210 0
-5329 5335 0
-5336 0
-5337 0
-5330 5338 0
-5335 5338 0
-5330 -5335 5339 0
-5336 5339 0
-5330 -5336 5340 0
-5337 5340 0
-5330 -5337 0
-5331 5341 0
-5338 5341 0
-5331 -5338 5342 0
-5339 5342 0
-5331 -5339 5343 0
-5340 5343 0
-5331 -5340 0
-5332 5344 0
-5341 5344 0
-5332 -5341 5345 0
-5342 5345 0
-5332 -5342 5346 0
-5343 5346 0
-5332 -5343 0
-5333 5347 0
-5344 5347 0
-5333 -5344 5348 0
-5345 5348 0
-5333 -5345 5349 0
-5346 5349 0
-5333 -5346 0
-5334 -5349 0
-5353 27 28 29 30 0
-27 5353 0
-28 5353 0
-29 5353 0
-30 5353 0
5353 25 26 0
-5354 63 64 65 66 0
-63 5354 0
-64 5354 0
-65 5354 0
-66 5354 0
5354 61 62 0
-5355 99 100 101 102 0
-99 5355 0
-100 5355 0
-101 5355 0
-102 5355 0
5355 97 98 0
-5356 135 136 137 138 0
-135 5356 0
-136 5356 0
-137 5356 0
-138 5356 0
5356 133 134 0
-5357 171 172 173 174 0
-171 5357 0
-172 5357 0
-173 5357 0
-174 5357 0
5357 169 170 0
-5358 207 208 209 210 0
-207 5358 0
-208 5358 0
-209 5358 0
-210 5358 0
5358 205 206 0
-5353 5359 0
-5360 0
-5361 0
-5362 0
-5354 5363 0
-5359 5363 0
-5354 -5359 5364 0
-5360 5364 0
-5354 -5360 5365 0
-5361 5365 0
-5354 -5361 5366 0
-5362 5366 0
-5354 -5362 0
-5355 5367 0
-5363 5367 0
-5355 -5363 5368 0
-5364 5368 0
-5355 -5364 5369 0
-5365 5369 0
-5355 -5365 5370 0
-5366 5370 0
-5355 -5366 0
-5356 5371 0
-5367 5371 0
-5356 -5367 5372 0
-5368 5372 0
-5356 -5368 5373 0
-5369 5373 0
-5356 -5369 5374 0
-5370 5374 0
-5356 -5370 0
-5357 5375 0
-5371 5375 0
-5357 -5371 5376 0
-5372 5376 0
-5357 -5372 5377 0
-5373 5377 0
-5357 -5373 5378 0
-5374 5378 0
-5357 -5374 0
-5358 -5378 0
-5383 28 0
-28 5383 0
5383 25 26 27 29 30 0
-5384 64 0
-64 5384 0
5384 61 62 63 65 66 0
-5385 100 0
-100 5385 0
5385 97 98 99 101 102 0
-5386 136 0
-136 5386 0
5386 133 134 135 137 138 0
-5387 172 0
-172 5387 0
5387 169 170 171 173 174 0
-5388 208 0
-208 5388 0
5388 205 206 207 209 210 0
-5383 5389 0
-5384 5390 0
-5389 5390 0
-5384 -5389 0
-5385 5391 0
-5390 5391 0
-5385 -5390 0
-5386 5392 0
-5391 5392 0
-5386 -5391 0
-5387 5393 0
-5392 5393 0
-5387 -5392 0
-5388 -5393 0
-5395 28 29 0
-28 5395 0
-29 5395 0
5395 25 26 27 30 0
-5396 64 65 0
-64 5396 0
-65 5396 0
5396 61 62 63 66 0
-5397 100 101 0
-100 5397 0
-101 5397 0
5397 97 98 99 102 0
-5398 136 137 0
-136 5398 0
-137 5398 0
5398 133 134 135 138 0
-5399 172 173 0
-172 5399 0
-173 5399 0
5399 169 170 171 174 0
-5400 208 209 0
-208 5400 0
-209 5400 0
5400 205 206 207 210 0
-5395 5401 0
-5402 0
-5396 5403 0
-5401 5403 0
-5396 -5401 5404 0
-5402 5404 0
-5396 -5402 0
-5397 5405 0
-5403 5405 0
-5397 -5403 5406 0
-5404 5406 0
-5397 -5404 0
-5398 5407 0
-5405 5407 0
-5398 -5405 5408 0
-5406 5408 0
-5398 -5406 0
-5399 5409 0
-5407 5409 0
-5399 -5407 5410 0
-5408 5410 0
-5399 -5408 0
-5400 -5410 0
-5413 28 29 30 0
-28 5413 0
-29 5413 0
-30 5413 0
5413 25 26 27 0
-5414 64 65 66 0
-64 5414 0
-65 5414 0
-66 5414 0
5414 61 62 63 0
-5415 100 101 102 0
-100 5415 0
-101 5415 0
-102 5415 0
5415 97 98 99 0
-5416 136 137 138 0
-136 5416 0
-137 5416 0
-138 5416 0
5416 133 134 135 0
-5417 172 173 174 0
-172 5417 0
-173 5417 0
-174 5417 0
5417 169 170 171 0
-5418 208 209 210 0
-208 5418 0
-209 5418 0
-210 5418 0
5418 205 206 207 0
-5413 5419 0
-5420 0
-5421 0
-5414 5422 0
-5419 5422 0
-5414 -5419 5423 0
-5420 5423 0
-5414 -5420 5424 0
-5421 5424 0
-5414 -5421 0
-5415 5425 0
-5422 5425 0
-5415 -5422 5426 0
-5423 5426 0
-5415 -5423 5427 0
-5424 5427 0
-5415 -5424 0
-5416 5428 0
-5425 5428 0
-5416 -5425 5429 0
-5426 5429 0
-5416 -5426 5430 0
-5427 5430 0
-5416 -5427 0
-5417 5431 0
-5428 5431 0
-5417 -5428 5432 0
-5429 5432 0
-5417 -5429 5433 0
-5430 5433 0
-5417 -5430 0
-5418 -5433 0
-5437 29 0
-29 5437 0
5437 25 26 27 28 30 0
-5438 65 0
-65 5438 0
5438 61 62 63 64 66 0
-5439 101 0
-101 5439 0
5439 97 98 99 100 102 0
-5440 137 0
-137 5440 0
5440 133 134 135 136 138 0
-5441 173 0
-173 5441 0
5441 169 170 171 172 174 0
-5442 209 0
-209 5442 0
5442 205 206 207 208 210 0
-5437 5443 0
-5438 5444 0
-5443 5444 0
-5438 -5443 0
-5439 5445 0
-5444 5445 0
-5439 -5444 0
-5440 5446 0
-5445 5446 0
-5440 -5445 0
-5441 5447 0
-5446 5447 0
-5441 -5446 0
-5442 -5447 0
-5449 29 30 0
-29 5449 0
-30 5449 0
5449 25 26 27 28 0
-5450 65 66 0
-65 5450 0
-66 5450 0
5450 61 62 63 64 0
-5451 101 102 0
-101 5451 0
-102 5451 0
5451 97 98 99 100 0
-5452 137 138 0
-137 5452 0
-138 5452 0
5452 133 134 135 136 0
-5453 173 174 0
-173 5453 0
-174 5453 0
5453 169 170 171 172 0
-5454 209 210 0
-209 5454 0
-210 5454 0
5454 205 206 207 208 0
-5449 5455 0
-5456 0
-5450 5457 0
-5455 5457 0
-5450 -5455 5458 0
-5456 5458 0
-5450 -5456 0
-5451 5459 0
-5457 5459 0
-5451 -5457 5460 0
-5458 5460 0
-5451 -5458 0
-5452 5461 0
-5459 5461 0
-5452 -5459 5462 0
-5460 5462 0
-5452 -5460 0
-5453 5463 0
-5461 5463 0
-5453 -5461 5464 0
-5462 5464 0
-5453 -5462 0
-5454 -5464 0
-5467 30 0
-30 5467 0
5467 25 26 27 28 29 0
-5468 66 0
-66 5468 0
5468 61 62 63 64 65 0
-5469 102 0
-102 5469 0
5469 97 98 99 100 101 0
-5470 138 0
-138 5470 0
5470 133 134 135 136 137 0
-5471 174 0
-174 5471 0
5471 169 170 171 172 173 0
-5472 210 0
-210 5472 0
5472 205 206 207 208 209 0
-5467 5473 0
-5468 5474 0
-5473 5474 0
-5468 -5473 0
-5469 5475 0
-5474 5475 0
-5469 -5474 0
-5470 5476 0
-5475 5476 0
-5470 -5475 0
-5471 5477 0
-5476 5477 0
-5471 -5476 0
-5472 -5477 0
-25 5479 0
-61 5480 0
-5479 5480 0
-61 -5479 0
-97 5481 0
-5480 5481 0
-97 -5480 0
-133 5482 0
-5481 5482 0
-133 -5481 0
-169 5483 0
-5482 5483 0
-169 -5482 0
-205 -5483 0
25 61 97 133 169 205 0
-26 5485 0
-62 5486 0
-5485 5486 0
-62 -5485 0
-98 5487 0
-5486 5487 0
-98 -5486 0
-134 5488 0
-5487 5488 0
-134 -5487 0
-170 5489 0
-5488 5489 0
-170 -5488 0
-206 -5489 0
26 62 98 134 170 206 0
-27 5491 0
-63 5492 0
-5491 5492 0
-63 -5491 0
-99 5493 0
-5492 5493 0
-99 -5492 0
-135 5494 0
-5493 5494 0
-135 -5493 0
-171 5495 0
-5494 5495 0
-171 -5494 0
-207 -5495 0
27 63 99 135 171 207 0
-28 5497 0
-64 5498 0
-5497 5498 0
-64 -5497 0
-100 5499 0
-5498 5499 0
-100 -5498 0
-136 5500 0
-5499 5500 0
-136 -5499 0
-172 5501 0
-5500 5501 0
-172 -5500 0
-208 -5501 0
28 64 100 136 172 208 0
-29 5503 0
-65 5504 0
-5503 5504 0
-65 -5503 0
-101 5505 0
-5504 5505 0
-101 -5504 0
-137 5506 0
-5505 5506 0
-137 -5505 0
-173 5507 0
-5506 5507 0
-173 -5506 0
-209 -5507 0
29 65 101 137 173 209 0
-30 5509 0
-66 5510 0
-5509 5510 0
-66 -5509 0
-102 5511 0
-5510 5511 0
-102 -5510 0
-138 5512 0
-5511 5512 0
-138 -5511 0
-174 5513 0
-5512 5513 0
-174 -5512 0
-210 -5513 0
30 66 102 138 174 210 0
-5515 31 0
-31 5515 0
5515 32 33 34 35 36 0
-5516 67 0
-67 5516 0
5516 68 69 70 71 72 0
-5517 103 0
-103 5517 0
5517 104 105 106 107 108 0
-5518 139 0
-139 5518 0
5518 140 141 142 143 144 0
-5519 175 0
-175 5519 0
5519 176 177 178 179 180 0
-5520 211 0
-211 5520 0
5520 212 213 214 215 216 0
-5515 5521 0
-5516 5522 0
-5521 5522 0
-5516 -5521 0
-5517 5523 0
-5522 5523 0
-5517 -5522 0
-5518 5524 0
-5523 5524 0
-5518 -5523 0
-5519 5525 0
-5524 5525 0
-5519 -5524 0
-5520 -5525 0
-5527 31 32 0
-31 5527 0
-32 5527 0
5527 33 34 35 36 0
-5528 67 68 0
-67 5528 0
-68 5528 0
5528 69 70 71 72 0
-5529 103 104 0
-103 5529 0
-104 5529 0
5529 105 106 107 108 0
-5530 139 140 0
-139 5530 0
-140 5530 0
5530 141 142 143 144 0
-5531 175 176 0
-175 5531 0
-176 5531 0
5531 177 178 179 180 0
-5532 211 212 0
-211 5532 0
-212 5532 0
5532 213 214 215 216 0
-5527 5533 0
-5534 0
-5528 5535 0
-5533 5535 0
-5528 -5533 5536 0
-5534 5536 0
-5528 -5534 0
-5529 5537 0
-5535 5537 0
-5529 -5535 5538 0
-5536 5538 0
-5529 -5536 0
-5530 5539 0
-5537 5539 0
-5530 -5537 5540 0
-5538 5540 0
-5530 -5538 0
-5531 5541 0
-5539 5541 0
-5531 -5539 5542 0
-5540 5542 0
-5531 -5540 0
-5532 -5542 0
-5545 31 32 33 0
-31 5545 0
-32 5545 0
-33 5545 0
5545 34 35 36 0
-5546 67 68 69 0
-67 5546 0
-68 5546 0
-69 5546 0
5546 70 71 72 0
-5547 103 104 105 0
-103 5547 0
-104 5547 0
-105 5547 0
5547 106 107 108 0
-5548 139 140 141 0
-139 5548 0
-140 5548 0
-141 5548 0
5548 142 143 144 0
-5549 175 176 177 0
-175 5549 0
-176 5549 0
-177 5549 0
5549 178 179 180 0
-5550 211 212 213 0
-211 5550 0
-212 5550 0
-213 5550 0
5550 214 215 216 0
-5545 5551 0
-5552 0
-5553 0
-5546 5554 0
-5551 5554 0
-5546 -5551 5555 0
-5552 5555 0
-5546 -5552 5556 0
-5553 5556 0
-5546 -5553 0
-5547 5557 0
-5554 5557 0
-5547 -5554 5558 0
-5555 5558 0
-5547 -5555 5559 0
-5556 5559 0
-5547 -5556 0
-5548 5560 0
-5557 5560 0
-5548 -5557 5561 0
-5558 5561 0
-5548 -5558 5562 0
-5559 5562 0
-5548 -5559 0
-5549 5563 0
-5560 5563 0
-5549 -5560 5564 0
-5561 5564 0
-5549 -5561 5565 0
-5562 5565 0
-5549 -5562 0
-5550 -5565 0
-5569 31 32 33 34 0
-31 5569 0
-32 5569 0
-33 5569 0
-34 5569 0
5569 35 36 0
-5570 67 68 69 70 0
-67 5570 0
-68 5570 0
-69 5570 0
-70 5570 0
5570 71 72 0
-5571 103 104 105 106 0
-103 5571 0
-104 5571 0
-105 5571 0
-106 5571 0
5571 107 108 0
-5572 139 140 141 142 0
-139 5572 0
-140 5572 0
-141 5572 0
-142 5572 0
5572 143 144 0
-5573 175 176 177 178 0
-175 5573 0
-176 5573 0
-177 5573 0
-178 5573 0
5573 179 180 0
-5574 211 212 213 214 0
-211 5574 0
-212 5574 0
-213 5574 0
-214 5574 0
5574 215 216 0
-5569 5575 0
-5576 0
-5577 0
-5578 0
-5570 5579 0
-5575 5579 0
-5570 -5575 5580 0
-5576 5580 0
-5570 -5576 5581 0
-5577 5581 0
-5570 -5577 5582 0
-5578 5582 0
-5570 -5578 0
-5571 5583 0
-5579 5583 0
-5571 -5579 5584 0
-5580 5584 0
-5571 -5580 5585 0
-5581 5585 0
-5571 -5581 5586 0
-5582 5586 0
-5571 -5582 0
-5572 5587 0
-5583 5587 0
-5572 -5583 5588 0
-5584 5588 0
-5572 -5584 5589 0
-5585 5589 0
-5572 -5585 5590 0
-5586 5590 0
-5572 -5586 0
-5573 5591 0
-5587 5591 0
-5573 -5587 5592 0
-5588 5592 0
-5573 -5588 5593 0
-5589 5593 0
-5573 -5589 5594 0
-5590 5594 0
-5573 -5590 0
-5574 -5594 0
-5599 31 32 33 34 35 0
-31 5599 0
-32 5599 0
-33 5599 0
-34 5599 0
-35 5599 0
5599 36 0
-5600 67 68 69 70 71 0
-67 5600 0
-68 5600 0
-69 5600 0
-70 5600 0
-71 5600 0
5600 72 0
-5601 103 104 105 106 107 0
-103 5601 0
-104 5601 0
-105 5601 0
-106 5601 0
-107 5601 0
5601 108 0
-5602 139 140 141 142 143 0
-139 5602 0
-140 5602 0
-141 5602 0
-142 5602 0
-143 5602 0
5602 144 0
-5603 175 176 177 178 179 0
-175 5603 0
-176 5603 0
-177 5603 0
-178 5603 0
-179 5603 0
5603 180 0
-5604 211 212 213 214 215 0
-211 5604 0
-212 5604 0
-213 5604 0
-214 5604 0
-215 5604 0
5604 216 0
-5599 5605 0
-5606 0
-5607 0
-5608 0
-5609 0
-5600 5610 0
-5605 5610 0
-5600 -5605 5611 0
-5606 5611 0
-5600 -5606 5612 0
-5607 5612 0
-5600 -5607 5613 0
-5608 5613 0
-5600 -5608 5614 0
-5609 5614 0
-5600 -5609 0
-5601 5615 0
-5610 5615 0
-5601 -5610 5616 0
-5611 5616 0
-5601 -5611 5617 0
-5612 5617 0
-5601 -5612 5618 0
-5613 5618 0
-5601 -5613 5619 0
-5614 5619 0
-5601 -5614 0
-5602 5620 0
-5615 5620 0
-5602 -5615 5621 0
-5616 5621 0
-5602 -5616 5622 0
-5617 5622 0
-5602 -5617 5623 0
-5618 5623 0
-5602 -5618 5624 0
-5619 5624 0
-5602 -5619 0
-5603 5625 0
-5620 5625 0
-5603 -5620 5626 0
-5621 5626 0
-5603 -5621 5627 0
-5622 5627 0
-5603 -5622 5628 0
-5623 5628 0
-5603 -5623 5629 0
-5624 5629 0
-5603 -5624 0
-5604 -5629 0
-5635 31 32 33 34 35 36 0
-31 5635 0
-32 5635 0
-33 5635 0
-34 5635 0
-35 5635 0
-36 5635 0
5635 0
-5636 67 68 69 70 71 72 0
-67 5636 0
-68 5636 0
-69 5636 0
-70 5636 0
-71 5636 0
-72 5636 0
5636 0
-5637 103 104 105 106 107 108 0
-103 5637 0
-104 5637 0
-105 5637 0
-106 5637 0
-107 5637 0
-108 5637 0
5637 0
-5638 139 140 141 142 143 144 0
-139 5638 0
-140 5638 0
-141 5638 0
-142 5638 0
-143 5638 0
-144 5638 0
5638 0
-5639 175 176 177 178 179 180 0
-175 5639 0
-176 5639 0
-177 5639 0
-178 5639 0
-179 5639 0
-180 5639 0
5639 0
-5640 211 212 213 214 215 216 0
-211 5640 0
-212 5640 0
-213 5640 0
-214 5640 0
-215 5640 0
-216 5640 0
5640 0
-5641 32 0
-32 5641 0
5641 31 33 34 35 36 0
-5642 68 0
-68 5642 0
5642 67 69 70 71 72 0
-5643 104 0
-104 5643 0
5643 103 105 106 107 108 0
-5644 140 0
-140 5644 0
5644 139 141 142 143 144 0
-5645 176 0
-176 5645 0
5645 175 177 178 179 180 0
-5646 212 0
-212 5646 0
5646 211 213 214 215 216 0
-5641 5647 0
-5642 5648 0
-5647 5648 0
-5642 -5647 0
-5643 5649 0
-5648 5649 0
-5643 -5648 0
-5644 5650 0
-5649 5650 0
-5644 -5649 0
-5645 5651 0
-5650 5651 0
-5645 -5650 0
-5646 -5651 0
-5653 32 33 0
-32 5653 0
-33 5653 0
5653 31 34 35 36 0
-5654 68 69 0
-68 5654 0
-69 5654 0
5654 67 70 71 72 0
-5655 104 105 0
-104 5655 0
-105 5655 0
5655 103 106 107 108 0
-5656 140 141 0
-140 5656 0
-141 5656 0
5656 139 142 143 144 0
-5657 176 177 0
-176 5657 0
-177 5657 0
5657 175 178 179 180 0
-5658 212 213 0
-212 5658 0
-213 5658 0
5658 211 214 215 216 0
-5653 5659 0
-5660 0
-5654 5661 0
-5659 5661 0
-5654 -5659 5662 0
-5660 5662 0
-5654 -5660 0
-5655 5663 0
-5661 5663 0
-5655 -5661 5664 0
-5662 5664 0
-5655 -5662 0
-5656 5665 0
-5663 5665 0
-5656 -5663 5666 0
-5664 5666 0
-5656 -5664 0
-5657 5667 0
-5665 5667 0
-5657 -5665 5668 0
-5666 5668 0
-5657 -5666 0
-5658 -5668 0
-5671 32 33 34 0
-32 5671 0
-33 5671 0
-34 5671 0
5671 31 35 36 0
-5672 68 69 70 0
-68 5672 0
-69 5672 0
-70 5672 0
5672 67 71 72 0
-5673 104 105 106 0
-104 5673 0
-105 5673 0
-106 5673 0
5673 103 107 108 0
-5674 140 141 142 0
-140 5674 0
-141 5674 0
-142 5674 0
5674 139 143 144 0
-5675 176 177 178 0
-176 5675 0
-177 5675 0
-178 5675 0
5675 175 179 180 0
-5676 212 213 214 0
-212 5676 0
-213 5676 0
-214 5676 0
5676 211 215 216 0
-5671 5677 0
-5678 0
-5679 0
-5672 5680 0
-5677 5680 0
-5672 -5677 5681 0
-5678 5681 0
-5672 -5678 5682 0
-5679 5682 0
-5672 -5679 0
-5673 5683 0
-5680 5683 0
-5673 -5680 5684 0
-5681 5684 0
-5673 -5681 5685 0
-5682 5685 0
-5673 -5682 0
-5674 5686 0
-5683 5686 0
-5674 -5683 5687 0
-5684 5687 0
-5674 -5684 5688 0
-5685 5688 0
-5674 -5685 0
-5675 5689 0
-5686 5689 0
-5675 -5686 5690 0
-5687 5690 0
-5675 -5687 5691 0
-5688 5691 0
-5675 -5688 0
-5676 -5691 0
-5695 32 33 34 35 0
-32 5695 0
-33 5695 0
-34 5695 0
-35 5695 0
5695 31 36 0
-5696 68 69 70 71 0
-68 5696 0
-69 5696 0
-70 5696 0
-71 5696 0
5696 67 72 0
-5697 104 105 106 107 0
-104 5697 0
-105 5697 0
-106 5697 0
-107 5697 0
5697 103 108 0
-5698 140 141 142 143 0
-140 5698 0
-141 5698 0
-142 5698 0
-143 5698 0
5698 139 144 0
-5699 176 177 178 179 0
-176 5699 0
-177 5699 0
-178 5699 0
-179 5699 0
5699 175 180 0
-5700 212 213 214 215 0
-212 5700 0
-213 5700 0
-214 5700 0
-215 5700 0
5700 211 216 0
-5695 5701 0
-5702 0
-5703 0
-5704 0
-5696 5705 0
-5701 5705 0
-5696 -5701 5706 0
-5702 5706 0
-5696 -5702 5707 0
-5703 5707 0
-5696 -5703 5708 0
-5704 5708 0
-5696 -5704 0
-5697 5709 0
-5705 5709 0
-5697 -5705 5710 0
-5706 5710 0
-5697 -5706 5711 0
-5707 5711 0
-5697 -5707 5712 0
-5708 5712 0
-5697 -5708 0
-5698 5713 0
-5709 5713 0
-5698 -5709 5714 0
-5710 5714 0
-5698 -5710 5715 0
-5711 5715 0
-5698 -5711 5716 0
-5712 5716 0
-5698 -5712 0
-5699 5717 0
-5713 5717 0
-5699 -5713 5718 0
-5714 5718 0
-5699 -5714 5719 0
-5715 5719 0
-5699 -5715 5720 0
-5716 5720 0
-5699 -5716 0
-5700 -5720 0
-5725 32 33 34 35 36 0
-32 5725 0
-33 5725 0
-34 5725 0
-35 5725 0
-36 5725 0
5725 31 0
-5726 68 69 70 71 72 0
-68 5726 0
-69 5726 0
-70 5726 0
-71 5726 0
-72 5726 0
5726 67 0
-5727 104 105 106 107 108 0
-104 5727 0
-105 5727 0
-106 5727 0
-107 5727 0
-108 5727 0
5727 103 0
-5728 140 141 142 143 144 0
-140 5728 0
-141 5728 0
-142 5728 0
-143 5728 0
-144 5728 0
5728 139 0
-5729 176 177 178 179 180 0
-176 5729 0
-177 5729 0
-178 5729 0
-179 5729 0
-180 5729 0
5729 175 0
-5730 212 213 214 215 216 0
-212 5730 0
-213 5730 0
-214 5730 0
-215 5730 0
-216 5730 0
5730 211 0
-5725 5731 0
-5732 0
-5733 0
-5734 0
-5735 0
-5726 5736 0
-5731 5736 0
-5726 -5731 5737 0
-5732 5737 0
-5726 -5732 5738 0
-5733 5738 0
-5726 -5733 5739 0
-5734 5739 0
-5726 -5734 5740 0
-5735 5740 0
-5726 -5735 0
-5727 5741 0
-5736 5741 0
-5727 -5736 5742 0
-5737 5742 0
-5727 -5737 5743 0
-5738 5743 0
-5727 -5738 5744 0
-5739 5744 0
-5727 -5739 5745 0
-5740 5745 0
-5727 -5740 0
-5728 5746 0
-5741 5746 0
-5728 -5741 5747 0
-5742 5747 0
-5728 -5742 5748 0
-5743 5748 0
-5728 -5743 5749 0
-5744 5749 0
-5728 -5744 5750 0
-5745 5750 0
-5728 -5745 0
-5729 5751 0
-5746 5751 0
-5729 -5746 5752 0
-5747 5752 0
-5729 -5747 5753 0
-5748 5753 0
-5729 -5748 5754 0
-5749 5754 0
-5729 -5749 5755 0
-5750 5755 0
-5729 -5750 0
-5730 -5755 0
-5761 33 0
-33 5761 0
5761 31 32 34 35 36 0
-5762 69 0
-69 5762 0
5762 67 68 70 71 72 0
-5763 105 0
-105 5763 0
5763 103 104 106 107 108 0
-5764 141 0
-141 5764 0
5764 139 140 142 143 144 0
-5765 177 0
-177 5765 0
5765 175 176 178 179 180 0
-5766 213 0
-213 5766 0
5766 211 212 214 215 216 0
-5761 5767 0
-5762 5768 0
-5767 5768 0
-5762 -5767 0
-5763 5769 0
-5768 5769 0
-5763 -5768 0
-5764 5770 0
-5769 5770 0
-5764 -5769 0
-5765 5771 0
-5770 5771 0
-5765 -5770 0
-5766 -5771 0
-5773 33 34 0
-33 5773 0
-34 5773 0
5773 31 32 35 36 0
-5774 69 70 0
-69 5774 0
-70 5774 0
5774 67 68 71 72 0
-5775 105 106 0
-105 5775 0
-106 5775 0
5775 103 104 107 108 0
-5776 141 142 0
-141 5776 0
-142 5776 0
5776 139 140 143 144 0
-5777 177 178 0
-177 5777 0
-178 5777 0
5777 175 176 179 180 0
-5778 213 214 0
-213 5778 0
-214 5778 0
5778 211 212 215 216 0
-5773 5779 0
-5780 0
-5774 5781 0
-5779 5781 0
-5774 -5779 5782 0
-5780 5782 0
-5774 -5780 0
-5775 5783 0
-5781 5783 0
-5775 -5781 5784 0
-5782 5784 0
-5775 -5782 0
-5776 5785 0
-5783 5785 0
-5776 -5783 5786 0
-5784 5786 0
-5776 -5784 0
-5777 5787 0
-5785 5787 0
-5777 -5785 5788 0
-5786 5788 0
-5777 -5786 0
-5778 -5788 0
-5791 33 34 35 0
-33 5791 0
-34 5791 0
-35 5791 0
5791 31 32 36 0
-5792 69 70 71 0
-69 5792 0
-70 5792 0
-71 5792 0
5792 67 68 72 0
-5793 105 106 107 0
-105 5793 0
-106 5793 0
-107 5793 0
5793 103 104 108 0
-5794 141 142 143 0
-141 5794 0
-142 5794 0
-143 5794 0
5794 139 140 144 0
-5795 177 178 179 0
-177 5795 0
-178 5795 0
-179 5795 0
5795 175 176 180 0
-5796 213 214 215 0
-213 5796 0
-214 5796 0
-215 5796 0
5796 211 212 216 0
-5791 5797 0
-5798 0
-5799 0
-5792 5800 0
-5797 5800 0
-5792 -5797 5801 0
-5798 5801 0
-5792 -5798 5802 0
-5799 5802 0
-5792 -5799 0
-5793 5803 0
-5800 5803 0
-5793 -5800 5804 0
-5801 5804 0
-5793 -5801 5805 0
-5802 5805 0
-5793 -5802 0
-5794 5806 0
-5803 5806 0
-5794 -5803 5807 0
-5804 5807 0
-5794 -5804 5808 0
-5805 5808 0
-5794 -5805 0
-5795 5809 0
-5806 5809 0
-5795 -5806 5810 0
-5807 5810 0
-5795 -5807 5811 0
-5808 5811 0
-5795 -5808 0
-5796 -5811 0
-5815 33 34 35 36 0
-33 5815 0
-34 5815 0
-35 5815 0
-36 5815 0
5815 31 32 0
-5816 69 70 71 72 0
-69 5816 0
-70 5816 0
-71 5816 0
-72 5816 0
5816 67 68 0
-5817 105 106 107 108 0
-105 5817 0
-106 5817 0
-107 5817 0
-108 5817 0
5817 103 104 0
-5818 141 142 143 144 0
-141 5818 0
-142 5818 0
-143 5818 0
-144 5818 0
5818 139 140 0
-5819 177 178 179 180 0
-177 5819 0
-178 5819 0
-179 5819 0
-180 5819 0
5819 175 176 0
-5820 213 214 215 216 0
-213 5820 0
-214 5820 0
-215 5820 0
-216 5820 0
5820 211 212 0
-5815 5821 0
-5822 0
-5823 0
-5824 0
-5816 5825 0
-5821 5825 0
-5816 -5821 5826 0
-5822 5826 0
-5816 -5822 5827 0
-5823 5827 0
-5816 -5823 5828 0
-5824 5828 0
-5816 -5824 0
-5817 5829 0
-5825 5829 0
-5817 -5825 5830 0
-5826 5830 0
-5817 -5826 5831 0
-5827 5831 0
-5817 -5827 5832 0
-5828 5832 0
-5817 -5828 0
-5818 5833 0
-5829 5833 0
-5818 -5829 5834 0
-5830 5834 0
-5818 -5830 5835 0
-5831 5835 0
-5818 -5831 5836 0
-5832 5836 0
-5818 -5832 0
-5819 5837 0
-5833 5837 0
-5819 -5833 5838 0
-5834 5838 0
-5819 -5834 5839 0
-5835 5839 0
-5819 -5835 5840 0
-5836 5840 0
-5819 -5836 0
-5820 -5840 0
-5845 34 0
-34 5845 0
5845 31 32 33 35 36 0
-5846 70 0
-70 5846 0
5846 67 68 69 71 72 0
-5847 106 0
-106 5847 0
5847 103 104 105 107 108 0
-5848 142 0
-142 5848 0
5848 139 140 141 143 144 0
-5849 178 0
-178 5849 0
5849 175 176 177 179 180 0
-5850 214 0
-214 5850 0
5850 211 212 213 215 216 0
-5845 5851 0
-5846 5852 0
-5851 5852 0
-5846 -5851 0
-5847 5853 0
-5852 5853 0
-5847 -5852 0
-5848 5854 0
-5853 5854 0
-5848 -5853 0
-5849 5855 0
-5854 5855 0
-5849 -5854 0
-5850 -5855 0
-5857 34 35 0
-34 5857 0
-35 5857 0
5857 31 32 33 36 0
-5858 70 71 0
-70 5858 0
-71 5858 0
5858 67 68 69 72 0
-5859 106 107 0
-106 5859 0
-107 5859 0
5859 103 104 105 108 0
-5860 142 143 0
-142 5860 0
-143 5860 0
5860 139 140 141 144 0
-5861 178 179 0
-178 5861 0
-179 5861 0
5861 175 176 177 180 0
-5862 214 215 0
-214 5862 0
-215 5862 0
5862 211 212 213 216 0
-5857 5863 0
-5864 0
-5858 5865 0
-5863 5865 0
-5858 -5863 5866 0
-5864 5866 0
-5858 -5864 0
-5859 5867 0
-5865 5867 0
-5859 -5865 5868 0
-5866 5868 0
-5859 -5866 0
-5860 5869 0
-5867 5869 0
-5860 -5867 5870 0
-5868 5870 0
-5860 -5868 0
-5861 5871 0
-5869 5871 0
-5861 -5869 5872 0
-5870 5872 0
-5861 -5870 0
-5862 -5872 0
-5875 34 35 36 0
-34 5875 0
-35 5875 0
-36 5875 0
5875 31 32 33 0
-5876 70 71 72 0
-70 5876 0
-71 5876 0
-72 5876 0
5876 67 68 69 0
-5877 106 107 108 0
-106 5877 0
-107 5877 0
-108 5877 0
5877 103 104 105 0
-5878 142 143 144 0
-142 5878 0
-143 5878 0
-144 5878 0
5878 139 140 141 0
-5879 178 179 180 0
-178 5879 0
-179 5879 0
-180 5879 0
5879 175 176 177 0
-5880 214 215 216 0
-214 5880 0
-215 5880 0
-216 5880 0
5880 211 212 213 0
-5875 5881 0
-5882 0
-5883 0
-5876 5884 0
-5881 5884 0
-5876 -5881 5885 0
-5882 5885 0
-5876 -5882 5886 0
-5883 5886 0
-5876 -5883 0
-5877 5887 0
-5884 5887 0
-5877 -5884 5888 0
-5885 5888 0
-5877 -5885 5889 0
-5886 5889 0
-5877 -5886 0
-5878 5890 0
-5887 5890 0
-5878 -5887 5891 0
-5888 5891 0
-5878 -5888 5892 0
-5889 5892 0
-5878 -5889 0
-5879 5893 0
-5890 5893 0
-5879 -5890 5894 0
-5891 5894 0
-5879 -5891 5895 0
-5892 5895 0
-5879 -5892 0
-5880 -5895 0
-5899 35 0
-35 5899 0
5899 31 32 33 34 36 0
-5900 71 0
-71 5900 0
5900 67 68 69 70 72 0
-5901 107 0
-107 5901 0
5901 103 104 105 106 108 0
-5902 143 0
-143 5902 0
5902 139 140 141 142 144 0
-5903 179 0
-179 5903 0
5903 175 176 177 178 180 0
-5904 215 0
-215 5904 0
5904 211 212 213 214 216 0
-5899 5905 0
-5900 5906 0
-5905 5906 0
-5900 -5905 0
-5901 5907 0
-5906 5907 0
-5901 -5906 0
-5902 5908 0
-5907 5908 0
-5902 -5907 0
-5903 5909 0
-5908 5909 0
-5903 -5908 0
-5904 -5909 0
-5911 35 36 0
-35 5911 0
-36 5911 0
5911 31 32 33 34 0
-5912 71 72 0
-71 5912 0
-72 5912 0
5912 67 68 69 70 0
-5913 107 108 0
-107 5913 0
-108 5913 0
5913 103 104 105 106 0
-5914 143 144 0
-143 5914 0
-144 5914 0
5914 139 140 141 142 0
-5915 179 180 0
-179 5915 0
-180 5915 0
5915 175 176 177 178 0
-5916 215 216 0
-215 5916 0
-216 5916 0
5916 211 212 213 214 0
-5911 5917 0
-5918 0
-5912 5919 0
-5917 5919 0
-5912 -5917 5920 0
-5918 5920 0
-5912 -5918 0
-5913 5921 0
-5919 5921 0
-5913 -5919 5922 0
-5920 5922 0
-5913 -5920 0
-5914 5923 0
-5921 5923 0
-5914 -5921 5924 0
-5922 5924 0
-5914 -5922 0
-5915 5925 0
-5923 5925 0
-5915 -5923 5926 0
-5924 5926 0
-5915 -5924 0
-5916 -5926 0
-5929 36 0
-36 5929 0
5929 31 32 33 34 35 0
-5930 72 0
-72 5930 0
5930 67 68 69 70 71 0
-5931 108 0
-108 5931 0
5931 103 104 105 106 107 0
-5932 144 0
-144 5932 0
5932 139 140 141 142 143 0
-5933 180 0
-180 5933 0
5933 175 176 177 178 179 0
-5934 216 0
-216 5934 0
5934 211 212 213 214 215 0
-5929 5935 0
-5930 5936 0
-5935 5936 0
-5930 -5935 0
-5931 5937 0
-5936 5937 0
-5931 -5936 0
-5932 5938 0
-5937 5938 0
-5932 -5937 0
-5933 5939 0
-5938 5939 0
-5933 -5938 0
-5934 -5939 0
-31 5941 0
-67 5942 0
-5941 5942 0
-67 -5941 0
-103 5943 0
-5942 5943 0
-103 -5942 0
-139 5944 0
-5943 5944 0
-139 -5943 0
-175 5945 0
-5944 5945 0
-175 -5944 0
-211 -5945 0
31 67 103 139 175 211 0
-32 5947 0
-68 5948 0
-5947 5948 0
-68 -5947 0
-104 5949 0
-5948 5949 0
-104 -5948 0
-140 5950 0
-5949 5950 0
-140 -5949 0
-176 5951 0
-5950 5951 0
-176 -5950 0
-212 -5951 0
32 68 104 140 176 212 0
-33 5953 0
-69 5954 0
-5953 5954 0
-69 -5953 0
-105 5955 0
-5954 5955 0
-105 -5954 0
-141 5956 0
-5955 5956 0
-141 -5955 0
-177 5957 0
-5956 5957 0
-177 -5956 0
-213 -5957 0
33 69 105 141 177 213 0
-34 5959 0
-70 5960 0
-5959 5960 0
-70 -5959 0
-106 5961 0
-5960 5961 0
-106 -5960 0
-142 5962 0
-5961 5962 0
-142 -5961 0
-178 5963 0
-5962 5963 0
-178 -5962 0
-214 -5963 0
34 70 106 142 178 214 0
-35 5965 0
-71 5966 0
-5965 5966 0
-71 -5965 0
-107 5967 0
-5966 5967 0
-107 -5966 0
-143 5968 0
-5967 5968 0
-143 -5967 0
-179 5969 0
-5968 5969 0
-179 -5968 0
-215 -5969 0
35 71 107 143 179 215 0
-36 5971 0
-72 5972 0
-5971 5972 0
-72 -5971 0
-108 5973 0
-5972 5973 0
-108 -5972 0
-144 5974 0
-5973 5974 0
-144 -5973 0
-180 5975 0
-5974 5975 0
-180 -5974 0
-216 -5975 0
36 72 108 144 180 216 0
-5977 1 0
-1 5977 0
5977 2 3 4 5 6 0
-5978 43 0
-43 5978 0
5978 44 45 46 47 48 0
-5979 85 0
-85 5979 0
5979 86 87 88 89 90 0
-5980 127 0
-127 5980 0
5980 128 129 130 131 132 0
-5981 169 0
-169 5981 0
5981 170 171 172 173 174 0
-5982 211 0
-211 5982 0
5982 212 213 214 215 216 0
-5977 5983 0
-5978 5984 0
-5983 5984 0
-5978 -5983 0
-5979 5985 0
-5984 5985 0
-5979 -5984 0
-5980 5986 0
-5985 5986 0
-5980 -5985 0
-5981 5987 0
-5986 5987 0
-5981 -5986 0
-5982 -5987 0
-5989 1 2 0
-1 5989 0
-2 5989 0
5989 3 4 5 6 0
-5990 43 44 0
-43 5990 0
-44 5990 0
5990 45 46 47 48 0
-5991 85 86 0
-85 5991 0
-86 5991 0
5991 87 88 89 90 0
-5992 127 128 0
-127 5992 0
-128 5992 0
5992 129 130 131 132 0
-5993 169 170 0
-169 5993 0
-170 5993 0
5993 171 172 173 174 0
-5994 211 212 0
-211 5994 0
-212 5994 0
5994 213 214 215 216 0
-5989 5995 0
-5996 0
-5990 5997 0
-5995 5997 0
-5990 -5995 5998 0
-5996 5998 0
-5990 -5996 0
-5991 5999 0
-5997 5999 0
-5991 -5997 6000 0
-5998 6000 0
-5991 -5998 0
-5992 6001 0
-5999 6001 0
-5992 -5999 6002 0
-6000 6002 0
-5992 -6000 0
-5993 6003 0
-6001 6003 0
-5993 -6001 6004 0
-6002 6004 0
-5993 -6002 0
-5994 -6004 0
-6007 1 2 3 0
-1 6007 0
-2 6007 0
-3 6007 0
6007 4 5 6 0
-6008 43 44 45 0
-43 6008 0
-44 6008 0
-45 6008 0
6008 46 47 48 0
-6009 85 86 87 0
-85 6009 0
-86 6009 0
-87 6009 0
6009 88 89 90 0
-6010 127 128 129 0
-127 6010 0
-128 6010 0
-129 6010 0
6010 130 131 132 0
-6011 169 170 171 0
-169 6011 0
-170 6011 0
-171 6011 0
6011 172 173 174 0
-6012 211 212 213 0
-211 6012 0
-212 6012 0
-213 6012 0
6012 214 215 216 0
-6007 6013 0
-6014 0
-6015 0
-6008 6016 0
-6013 6016 0
-6008 -6013 6017 0
-6014 6017 0
-6008 -6014 6018 0
-6015 6018 0
-6008 -6015 0
-6009 6019 0
-6016 6019 0
-6009 -6016 6020 0
-6017 6020 0
-6009 -6017 6021 0
-6018 6021 0
-6009 -6018 0
-6010 6022 0
-6019 6022 0
-6010 -6019 6023 0
-6020 6023 0
-6010 -6020 6024 0
-6021 6024 0
-6010 -6021 0
-6011 6025 0
-6022 6025 0
-6011 -6022 6026 0
-6023 6026 0
-6011 -6023 6027 0
-6024 6027 0
-6011 -6024 0
-6012 -6027 0
-6031 1 2 3 4 0
-1 6031 0
-2 6031 0
-3 6031 0
-4 6031 0
6031 5 6 0
-6032 43 44 45 46 0
-43 6032 0
-44 6032 0
-45 6032 0
-46 6032 0
6032 47 48 0
-6033 85 86 87 88 0
-85 6033 0
-86 6033 0
-87 6033 0
-88 6033 0
6033 89 90 0
-6034 127 128 129 130 0
-127 6034 0
-128 6034 0
-129 6034 0
-130 6034 0
6034 131 132 0
-6035 169 170 171 172 0
-169 6035 0
-170 6035 0
-171 6035 0
-172 6035 0
6035 173 174 0
-6036 211 212 213 214 0
-211 6036 0
-212 6036 0
-213 6036 0
-214 6036 0
6036 215 216 0
-6031 6037 0
-6038 0
-6039 0
-6040 0
-6032 6041 0
-6037 6041 0
-6032 -6037 6042 0
-6038 6042 0
-6032 -6038 6043 0
-6039 6043 0
-6032 -6039 6044 0
-6040 6044 0
-6032 -6040 0
-6033 6045 0
-6041 6045 0
-6033 -6041 6046 0
-6042 6046 0
-6033 -6042 6047 0
-6043 6047 0
-6033 -6043 6048 0
-6044 6048 0
-6033 -6044 0
-6034 6049 0
-6045 6049 0
-6034 -6045 6050 0
-6046 6050 0
-6034 -6046 6051 0
-6047 6051 0
-6034 -6047 6052 0
-6048 6052 0
-6034 -6048 0
-6035 6053 0
-6049 6053 0
-6035 -6049 6054 0
-6050 6054 0
-6035 -6050 6055 0
-6051 6055 0
-6035 -6051 6056 0
-6052 6056 0
-6035 -6052 0
-6036 -6056 0
-6061 1 2 3 4 5 0
-1 6061 0
-2 6061 0
-3 6061 0
-4 6061 0
-5 6061 0
6061 6 0
-6062 43 44 45 46 47 0
-43 6062 0
-44 6062 0
-45 6062 0
-46 6062 0
-47 6062 0
6062 48 0
-6063 85 86 87 88 89 0
-85 6063 0
-86 6063 0
-87 6063 0
-88 6063 0
-89 6063 0
6063 90 0
-6064 127 128 129 130 131 0
-127 6064 0
-128 6064 0
-129 6064 0
-130 6064 0
-131 6064 0
6064 132 0
-6065 169 170 171 172 173 0
-169 6065 0
-170 6065 0
-171 6065 0
-172 6065 0
-173 6065 0
6065 174 0
-6066 211 212 213 214 215 0
-211 6066 0
-212 6066 0
-213 6066 0
-214 6066 0
-215 6066 0
6066 216 0
-6061 6067 0
-6068 0
-6069 0
-6070 0
-6071 0
-6062 6072 0
-6067 6072 0
-6062 -6067 6073 0
-6068 6073 0
-6062 -6068 6074 0
-6069 6074 0
-6062 -6069 6075 0
-6070 6075 0
-6062 -6070 6076 0
-6071 6076 0
-6062 -6071 0
-6063 6077 0
-6072 6077 0
-6063 -6072 6078 0
-6073 6078 0
-6063 -6073 6079 0
-6074 6079 0
-6063 -6074 6080 0
-6075 6080 0
-6063 -6075 6081 0
-6076 6081 0
-6063 -6076 0
-6064 6082 0
-6077 6082 0
-6064 -6077 6083 0
-6078 6083 0
-6064 -6078 6084 0
-6079 6084 0
-6064 -6079 6085 0
-6080 6085 0
-6064 -6080 6086 0
-6081 6086 0
-6064 -6081 0
-6065 6087 0
-6082 6087 0
-6065 -6082 6088 0
-6083 6088 0
-6065 -6083 6089 0
-6084 6089 0
-6065 -6084 6090 0
-6085 6090 0
-6065 -6085 6091 0
-6086 6091 0
-6065 -6086 0
-6066 -6091 0
-6097 1 2 3 4 5 6 0
-1 6097 0
-2 6097 0
-3 6097 0
-4 6097 0
-5 6097 0
-6 6097 0
6097 0
-6098 43 44 45 46 47 48 0
-43 6098 0
-44 6098 0
-45 6098 0
-46 6098 0
-47 6098 0
-48 6098 0
6098 0
-6099 85 86 87 88 89 90 0
-85 6099 0
-86 6099 0
-87 6099 0
-88 6099 0
-89 6099 0
-90 6099 0
6099 0
-6100 127 128 129 130 131 132 0
-127 6100 0
-128 6100 0
-129 6100 0
-130 6100 0
-131 6100 0
-132 6100 0
6100 0
-6101 169 170 171 172 173 174 0
-169 6101 0
-170 6101 0
-171 6101 0
-172 6101 0
-173 6101 0
-174 6101 0
6101 0
-6102 211 212 213 214 215 216 0
-211 6102 0
-212 6102 0
-213 6102 0
-214 6102 0
-215 6102 0
-216 6102 0
6102 0
-6103 2 0
-2 6103 0
6103 1 3 4 5 6 0
-6104 44 0
-44 6104 0
6104 43 45 46 47 48 0
-6105 86 0
-86 6105 0
6105 85 87 88 89 90 0
-6106 128 0
-128 6106 0
6106 127 129 130 131 132 0
-6107 170 0
-170 6107 0
6107 169 171 172 173 174 0
-6108 212 0
-212 6108 0
6108 211 213 214 215 216 0
-6103 6109 0
-6104 6110 0
-6109 6110 0
-6104 -6109 0
-6105 6111 0
-6110 6111 0
-6105 -6110 0
-6106 6112 0
-6111 6112 0
-6106 -6111 0
-6107 6113 0
-6112 6113 0
-6107 -6112 0
-6108 -6113 0
-6115 2 3 0
-2 6115 0
-3 6115 0
6115 1 4 5 6 0
-6116 44 45 0
-44 6116 0
-45 6116 0
6116 43 46 47 48 0
-6117 86 87 0
-86 6117 0
-87 6117 0
6117 85 88 89 90 0
-6118 128 129 0
-128 6118 0
-129 6118 0
6118 127 130 131 132 0
-6119 170 171 0
-170 6119 0
-171 6119 0
6119 169 172 173 174 0
-6120 212 213 0
-212 6120 0
-213 6120 0
6120 211 214 215 216 0
-6115 6121 0
-6122 0
-6116 6123 0
-6121 6123 0
-6116 -6121 6124 0
-6122 6124 0
-6116 -6122 0
-6117 6125 0
-6123 6125 0
-6117 -6123 6126 0
-6124 6126 0
-6117 -6124 0
-6118 6127 0
-6125 6127 0
-6118 -6125 6128 0
-6126 6128 0
-6118 -6126 0
-6119 6129 0
-6127 6129 0
-6119 -6127 6130 0
-6128 6130 0
-6119 -6128 0
-6120 -6130 0
-6133 2 3 4 0
-2 6133 0
-3 6133 0
-4 6133 0
6133 1 5 6 0
-6134 44 45 46 0
-44 6134 0
-45 6134 0
-46 6134 0
6134 43 47 48 0
-6135 86 87 88 0
-86 6135 0
-87 6135 0
-88 6135 0
6135 85 89 90 0
-6136 128 129 130 0
-128 6136 0
-129 6136 0
-130 6136 0
6136 127 131 132 0
-6137 170 171 172 0
-170 6137 0
-171 6137 0
-172 6137 0
6137 169 173 174 0
-6138 212 213 214 0
-212 6138 0
-213 6138 0
-214 6138 0
6138 211 215 216 0
-6133 6139 0
-6140 0
-6141 0
-6134 6142 0
-6139 6142 0
-6134 -6139 6143 0
-6140 6143 0
-6134 -6140 6144 0
-6141 6144 0
-6134 -6141 0
-6135 6145 0
-6142 6145 0
-6135 -6142 6146 0
-6143 6146 0
-6135 -6143 6147 0
-6144 6147 0
-6135 -6144 0
-6136 6148 0
-6145 6148 0
-6136 -6145 6149 0
-6146 6149 0
-6136 -6146 6150 0
-6147 6150 0
-6136 -6147 0
-6137 6151 0
-6148 6151 0
-6137 -6148 6152 0
-6149 6152 0
-6137 -6149 6153 0
-6150 6153 0
-6137 -6150 0
-6138 -6153 0
-6157 2 3 4 5 0
-2 6157 0
-3 6157 0
-4 6157 0
-5 6157 0
6157 1 6 0
-6158 44 45 46 47 0
-44 6158 0
-45 6158 0
-46 6158 0
-47 6158 0
6158 43 48 0
-6159 86 87 88 89 0
-86 6159 0
-87 6159 0
-88 6159 0
-89 6159 0
6159 85 90 0
-6160 128 129 130 131 0
-128 6160 0
-129 6160 0
-130 6160 0
-131 6160 0
6160 127 132 0
-6161 170 171 172 173 0
-170 6161 0
-171 6161 0
-172 6161 0
-173 6161 0
6161 169 174 0
-6162 212 213 214 215 0
-212 6162 0
-213 6162 0
-214 6162 0
-215 6162 0
6162 211 216 0
-6157 6163 0
-6164 0
-6165 0
-6166 0
-6158 6167 0
-6163 6167 0
-6158 -6163 6168 0
-6164 6168 0
-6158 -6164 6169 0
-6165 6169 0
-6158 -6165 6170 0
-6166 6170 0
-6158 -6166 0
-6159 6171 0
-6167 6171 0
-6159 -6167 6172 0
-6168 6172 0
-6159 -6168 6173 0
-6169 6173 0
-6159 -6169 6174 0
-6170 6174 0
-6159 -6170 0
-6160 6175 0
-6171 6175 0
-6160 -6171 6176 0
-6172 6176 0
-6160 -6172 6177 0
-6173 6177 0
-6160 -6173 6178 0
-6174 6178 0
-6160 -6174 0
-6161 6179 0
-6175 6179 0
-6161 -6175 6180 0
-6176 6180 0
-6161 -6176 6181 0
-6177 6181 0
-6161 -6177 6182 0
-6178 6182 0
-6161 -6178 0
-6162 -6182 0
-6187 2 3 4 5 6 0
-2 6187 0
-3 6187 0
-4 6187 0
-5 6187 0
-6 6187 0
6187 1 0
-6188 44 45 46 47 48 0
-44 6188 0
-45 6188 0
-46 6188 0
-47 6188 0
-48 6188 0
6188 43 0
-6189 86 87 88 89 90 0
-86 6189 0
-87 6189 0
-88 6189 0
-89 6189 0
-90 6189 0
6189 85 0
-6190 128 129 130 131 132 0
-128 6190 0
-129 6190 0
-130 6190 0
-131 6190 0
-132 6190 0
6190 127 0
-6191 170 171 172 173 174 0
-170 6191 0
-171 6191 0
-172 6191 0
-173 6191 0
-174 6191 0
6191 169 0
-6192 212 213 214 215 216 0
-212 6192 0
-213 6192 0
-214 6192 0
-215 6192 0
-216 6192 0
6192 211 0
-6187 6193 0
-6194 0
-6195 0
-6196 0
-6197 0
-6188 6198 0
-6193 6198 0
-6188 -6193 6199 0
-6194 6199 0
-6188 -6194 6200 0
-6195 6200 0
-6188 -6195 6201 0
-6196 6201 0
-6188 -6196 6202 0
-6197 6202 0
-6188 -6197 0
-6189 6203 0
-6198 6203 0
-6189 -6198 6204 0
-6199 6204 0
-6189 -6199 6205 0
-6200 6205 0
-6189 -6200 6206 0
-6201 6206 0
-6189 -6201 6207 0
-6202 6207 0
-6189 -6202 0
-6190 6208 0
-6203 6208 0
-6190 -6203 6209 0
-6204 6209 0
-6190 -6204 6210 0
-6205 6210 0
-6190 -6205 6211 0
-6206 6211 0
-6190 -6206 6212 0
-6207 6212 0
-6190 -6207 0
-6191 6213 0
-6208 6213 0
-6191 -6208 6214 0
-6209 6214 0
-6191 -6209 6215 0
-6210 6215 0
-6191 -6210 6216 0
-6211 6216 0
-6191 -6211 6217 0
-6212 6217 0
-6191 -6212 0
-6192 -6217 0
-6223 3 0
-3 6223 0
6223 1 2 4 5 6 0
-6224 45 0
-45 6224 0
6224 43 44 46 47 48 0
-6225 87 0
-87 6225 0
6225 85 86 88 89 90 0
-6226 129 0
-129 6226 0
6226 127 128 130 131 132 0
-6227 171 0
-171 6227 0
6227 169 170 172 173 174 0
-6228 213 0
-213 6228 0
6228 211 212 214 215 216 0
-6223 6229 0
-6224 6230 0
-6229 6230 0
-6224 -6229 0
-6225 6231 0
-6230 6231 0
-6225 -6230 0
-6226 6232 0
-6231 6232 0
-6226 -6231 0
-6227 6233 0
-6232 6233 0
-6227 -6232 0
-6228 -6233 0
-6235 3 4 0
-3 6235 0
-4 6235 0
6235 1 2 5 6 0
-6236 45 46 0
-45 6236 0
-46 6236 0
6236 43 44 47 48 0
-6237 87 88 0
-87 6237 0
-88 6237 0
6237 85 86 89 90 0
-6238 129 130 0
-129 6238 0
-130 6238 0
6238 127 128 131 132 0
-6239 171 172 0
-171 6239 0
-172 6239 0
6239 169 170 173 174 0
-6240 213 214 0
-213 6240 0
-214 6240 0
6240 211 212 215 216 0
-6235 6241 0
-6242 0
-6236 6243 0
-6241 6243 0
-6236 -6241 6244 0
-6242 6244 0
-6236 -6242 0
-6237 6245 0
-6243 6245 0
-6237 -6243 6246 0
-6244 6246 0
-6237 -6244 0
-6238 6247 0
-6245 6247 0
-6238 -6245 6248 0
-6246 6248 0
-6238 -6246 0
-6239 6249 0
-6247 6249 0
-6239 -6247 6250 0
-6248 6250 0
-6239 -6248 0
-6240 -6250 0
-6253 3 4 5 0
-3 6253 0
-4 6253 0
-5 6253 0
6253 1 2 6 0
-6254 45 46 47 0
-45 6254 0
-46 6254 0
-47 6254 0
6254 43 44 48 0
-6255 87 88 89 0
-87 6255 0
-88 6255 0
-89 6255 0
6255 85 86 90 0
-6256 129 130 131 0
-129 6256 0
-130 6256 0
-131 6256 0
6256 127 128 132 0
-6257 171 172 173 0
-171 6257 0
-172 6257 0
-173 6257 0
6257 169 170 174 0
-6258 213 214 215 0
-213 6258 0
-214 6258 0
-215 6258 0
6258 211 212 216 0
-6253 6259 0
-6260 0
-6261 0
-6254 6262 0
-6259 6262 0
-6254 -6259 6263 0
-6260 6263 0
-6254 -6260 6264 0
-6261 6264 0
-6254 -6261 0
-6255 6265 0
-6262 6265 0
-6255 -6262 6266 0
-6263 6266 0
-6255 -6263 6267 0
-6264 6267 0
-6255 -6264 0
-6256 6268 0
-6265 6268 0
-6256 -6265 6269 0
-6266 6269 0
-6256 -6266 6270 0
-6267 6270 0
-6256 -6267 0
-6257 6271 0
-6268 6271 0
-6257 -6268 6272 0
-6269 6272 0
-6257 -6269 6273 0
-6270 6273 0
-6257 -6270 0
-6258 -6273 0
-6277 3 4 5 6 0
-3 6277 0
-4 6277 0
-5 6277 0
-6 6277 0
6277 1 2 0
-6278 45 46 47 48 0
-45 6278 0
-46 6278 0
-47 6278 0
-48 6278 0
6278 43 44 0
-6279 87 88 89 90 0
-87 6279 0
-88 6279 0
-89 6279 0
-90 6279 0
6279 85 86 0
-6280 129 130 131 132 0
-129 6280 0
-130 6280 0
-131 6280 0
-132 6280 0
6280 127 128 0
-6281 171 172 173 174 0
-171 6281 0
-172 6281 0
-173 6281 0
-174 6281 0
6281 169 170 0
-6282 213 214 215 216 0
-213 6282 0
-214 6282 0
-215 6282 0
-216 6282 0
6282 211 212 0
-6277 6283 0
-6284 0
-6285 0
-6286 0
-6278 6287 0
-6283 6287 0
-6278 -6283 6288 0
-6284 6288 0
-6278 -6284 6289 0
-6285 6289 0
-6278 -6285 6290 0
-6286 6290 0
-6278 -6286 0
-6279 6291 0
-6287 6291 0
-6279 -6287 6292 0
-6288 6292 0
-6279 -6288 6293 0
-6289 6293 0
-6279 -6289 6294 0
-6290 6294 0
-6279 -6290 0
-6280 6295 0
-6291 6295 0
-6280 -6291 6296 0
-6292 6296 0
-6280 -6292 6297 0
-6293 6297 0
-6280 -6293 6298 0
-6294 6298 0
-6280 -6294 0
-6281 6299 0
-6295 6299 0
-6281 -6295 6300 0
-6296 6300 0
-6281 -6296 6301 0
-6297 6301 0
-6281 -6297 6302 0
-6298 6302 0
-6281 -6298 0
-6282 -6302 0
-6307 4 0
-4 6307 0
6307 1 2 3 5 6 0
-6308 46 0
-46 6308 0
6308 43 44 45 47 48 0
-6309 88 0
-88 6309 0
6309 85 86 87 89 90 0
-6310 130 0
-130 6310 0
6310 127 128 129 131 132 0
-6311 172 0
-172 6311 0
6311 169 170 171 173 174 0
-6312 214 0
-214 6312 0
6312 211 212 213 215 216 0
-6307 6313 0
-6308 6314 0
-6313 6314 0
-6308 -6313 0
-6309 6315 0
-6314 6315 0
-6309 -6314 0
-6310 6316 0
-6315 6316 0
-6310 -6315 0
-6311 6317 0
-6316 6317 0
-6311 -6316 0
-6312 -6317 0
-6319 4 5 0
-4 6319 0
-5 6319 0
6319 1 2 3 6 0
-6320 46 47 0
-46 6320 0
-47 6320 0
6320 43 44 45 48 0
-6321 88 89 0
-88 6321 0
-89 6321 0
6321 85 86 87 90 0
-6322 130 131 0
-130 6322 0
-131 6322 0
6322 127 128 129 132 0
-6323 172 173 0
-172 6323 0
-173 6323 0
6323 169 170 171 174 0
-6324 214 215 0
-214 6324 0
-215 6324 0
6324 211 212 213 216 0
-6319 6325 0
-6326 0
-6320 6327 0
-6325 6327 0
-6320 -6325 6328 0
-6326 6328 0
-6320 -6326 0
-6321 6329 0
-6327 6329 0
-6321 -6327 6330 0
-6328 6330 0
-6321 -6328 0
-6322 6331 0
-6329 6331 0
-6322 -6329 6332 0
-6330 6332 0
-6322 -6330 0
-6323 6333 0
-6331 6333 0
-6323 -6331 6334 0
-6332 6334 0
-6323 -6332 0
-6324 -6334 0
-6337 4 5 6 0
-4 6337 0
-5 6337 0
-6 6337 0
6337 1 2 3 0
-6338 46 47 48 0
-46 6338 0
-47 6338 0
-48 6338 0
6338 43 44 45 0
-6339 88 89 90 0
-88 6339 0
-89 6339 0
-90 6339 0
6339 85 86 87 0
-6340 130 131 132 0
-130 6340 0
-131 6340 0
-132 6340 0
6340 127 128 129 0
-6341 172 173 174 0
-172 6341 0
-173 6341 0
-174 6341 0
6341 169 170 171 0
-6342 214 215 216 0
-214 6342 0
-215 6342 0
-216 6342 0
6342 211 212 213 0
-6337 6343 0
-6344 0
-6345 0
-6338 6346 0
-6343 6346 0
-6338 -6343 6347 0
-6344 6347 0
-6338 -6344 6348 0
-6345 6348 0
-6338 -6345 0
-6339 6349 0
-6346 6349 0
-6339 -6346 6350 0
-6347 6350 0
-6339 -6347 6351 0
-6348 6351 0
-6339 -6348 0
-6340 6352 0
-6349 6352 0
-6340 -6349 6353 0
-6350 6353 0
-6340 -6350 6354 0
-6351 6354 0
-6340 -6351 0
-6341 6355 0
-6352 6355 0
-6341 -6352 6356 0
-6353 6356 0
-6341 -6353 6357 0
-6354 6357 0
-6341 -6354 0
-6342 -6357 0
-6361 5 0
-5 6361 0
6361 1 2 3 4 6 0
-6362 47 0
-47 6362 0
6362 43 44 45 46 48 0
-6363 89 0
-89 6363 0
6363 85 86 87 88 90 0
-6364 131 0
-131 6364 0
6364 127 128 129 130 132 0
-6365 173 0
-173 6365 0
6365 169 170 171 172 174 0
-6366 215 0
-215 6366 0
6366 211 212 213 214 216 0
-6361 6367 0
-6362 6368 0
-6367 6368 0
-6362 -6367 0
-6363 6369 0
-6368 6369 0
-6363 -6368 0
-6364 6370 0
-6369 6370 0
-6364 -6369 0
-6365 6371 0
-6370 6371 0
-6365 -6370 0
-6366 -6371 0
-6373 5 6 0
-5 6373 0
-6 6373 0
6373 1 2 3 4 0
-6374 47 48 0
-47 6374 0
-48 6374 0
6374 43 44 45 46 0
-6375 89 90 0
-89 6375 0
-90 6375 0
6375 85 86 87 88 0
-6376 131 132 0
-131 6376 0
-132 6376 0
6376 127 128 129 130 0
-6377 173 174 0
-173 6377 0
-174 6377 0
6377 169 170 171 172 0
-6378 215 216 0
-215 6378 0
-216 6378 0
6378 211 212 213 214 0
-6373 6379 0
-6380 0
-6374 6381 0
-6379 6381 0
-6374 -6379 6382 0
-6380 6382 0
-6374 -6380 0
-6375 6383 0
-6381 6383 0
-6375 -6381 6384 0
-6382 6384 0
-6375 -6382 0
-6376 6385 0
-6383 6385 0
-6376 -6383 6386 0
-6384 6386 0
-6376 -6384 0
-6377 6387 0
-6385 6387 0
-6377 -6385 6388 0
-6386 6388 0
-6377 -6386 0
-6378 -6388 0
-6391 6 0
-6 6391 0
6391 1 2 3 4 5 0
-6392 48 0
-48 6392 0
6392 43 44 45 46 47 0
-6393 90 0
-90 6393 0
6393 85 86 87 88 89 0
-6394 132 0
-132 6394 0
6394 127 128 129 130 131 0
-6395 174 0
-174 6395 0
6395 169 170 171 172 173 0
-6396 216 0
-216 6396 0
6396 211 212 213 214 215 0
-6391 6397 0
-6392 6398 0
-6397 6398 0
-6392 -6397 0
-6393 6399 0
-6398 6399 0
-6393 -6398 0
-6394 6400 0
-6399 6400 0
-6394 -6399 0
-6395 6401 0
-6400 6401 0
-6395 -6400 0
-6396 -6401 0
-1 6403 0
-43 6404 0
-6403 6404 0
-43 -6403 0
-85 6405 0
-6404 6405 0
-85 -6404 0
-127 6406 0
-6405 6406 0
-127 -6405 0
-169 6407 0
-6406 6407 0
-169 -6406 0
-211 -6407 0
1 43 85 127 169 211 0
-2 6409 0
-44 6410 0
-6409 6410 0
-44 -6409 0
-86 6411 0
-6410 6411 0
-86 -6410 0
-128 6412 0
-6411 6412 0
-128 -6411 0
-170 6413 0
-6412 6413 0
-170 -6412 0
-212 -6413 0
2 44 86 128 170 212 0
-3 6415 0
-45 6416 0
-6415 6416 0
-45 -6415 0
-87 6417 0
-6416 6417 0
-87 -6416 0
-129 6418 0
-6417 6418 0
-129 -6417 0
-171 6419 0
-6418 6419 0
-171 -6418 0
-213 -6419 0
3 45 87 129 171 213 0
-4 6421 0
-46 6422 0
-6421 6422 0
-46 -6421 0
-88 6423 0
-6422 6423 0
-88 -6422 0
-130 6424 0
-6423 6424 0
-130 -6423 0
-172 6425 0
-6424 6425 0
-172 -6424 0
-214 -6425 0
4 46 88 130 172 214 0
-5 6427 0
-47 6428 0
-6427 6428 0
-47 -6427 0
-89 6429 0
-6428 6429 0
-89 -6428 0
-131 6430 0
-6429 6430 0
-131 -6429 0
-173 6431 0
-6430 6431 0
-173 -6430 0
-215 -6431 0
5 47 89 131 173 215 0
-6 6433 0
-48 6434 0
-6433 6434 0
-48 -6433 0
-90 6435 0
-6434 6435 0
-90 -6434 0
-132 6436 0
-6435 6436 0
-132 -6435 0
-174 6437 0
-6436 6437 0
-174 -6436 0
-216 -6437 0
6 48 90 132 174 216 0
-6439 7 0
-7 6439 0
6439 8 9 10 11 12 0
-6440 49 0
-49 6440 0
6440 50 51 52 53 54 0
-6441 91 0
-91 6441 0
6441 92 93 94 95 96 0
-6442 133 0
-133 6442 0
6442 134 135 136 137 138 0
-6443 175 0
-175 6443 0
6443 176 177 178 179 180 0
-6444 181 0
-181 6444 0
6444 182 183 184 185 186 0
-6439 6445 0
-6440 6446 0
-6445 6446 0
-6440 -6445 0
-6441 6447 0
-6446 6447 0
-6441 -6446 0
-6442 6448 0
-6447 6448 0
-6442 -6447 0
-6443 6449 0
-6448 6449 0
-6443 -6448 0
-6444 -6449 0
-6451 7 8 0
-7 6451 0
-8 6451 0
6451 9 10 11 12 0
-6452 49 50 0
-49 6452 0
-50 6452 0
6452 51 52 53 54 0
-6453 91 92 0
-91 6453 0
-92 6453 0
6453 93 94 95 96 0
-6454 133 134 0
-133 6454 0
-134 6454 0
6454 135 136 137 138 0
-6455 175 176 0
-175 6455 0
-176 6455 0
6455 177 178 179 180 0
-6456 181 182 0
-181 6456 0
-182 6456 0
6456 183 184 185 186 0
-6451 6457 0
-6458 0
-6452 6459 0
-6457 6459 0
-6452 -6457 6460 0
-6458 6460 0
-6452 -6458 0
-6453 6461 0
-6459 6461 0
-6453 -6459 6462 0
-6460 6462 0
-6453 -6460 0
-6454 6463 0
-6461 6463 0
-6454 -6461 6464 0
-6462 6464 0
-6454 -6462 0
-6455 6465 0
-6463 6465 0
-6455 -6463 6466 0
-6464 6466 0
-6455 -6464 0
-6456 -6466 0
-6469 7 8 9 0
-7 6469 0
-8 6469 0
-9 6469 0
6469 10 11 12 0
-6470 49 50 51 0
-49 6470 0
-50 6470 0
-51 6470 0
6470 52 53 54 0
-6471 91 92 93 0
-91 6471 0
-92 6471 0
-93 6471 0
6471 94 95 96 0
-6472 133 134 135 0
-133 6472 0
-134 6472 0
-135 6472 0
6472 136 137 138 0
-6473 175 176 177 0
-175 6473 0
-176 6473 0
-177 6473 0
6473 178 179 180 0
-6474 181 182 183 0
-181 6474 0
-182 6474 0
-183 6474 0
6474 184 185 186 0
-6469 6475 0
-6476 0
-6477 0
-6470 6478 0
-6475 6478 0
-6470 -6475 6479 0
-6476 6479 0
-6470 -6476 6480 0
-6477 6480 0
-6470 -6477 0
-6471 6481 0
-6478 6481 0
-6471 -6478 6482 0
-6479 6482 0
-6471 -6479 6483 0
-6480 6483 0
-6471 -6480 0
-6472 6484 0
-6481 6484 0
-6472 -6481 6485 0
-6482 6485 0
-6472 -6482 6486 0
-6483 6486 0
-6472 -6483 0
-6473 6487 0
-6484 6487 0
-6473 -6484 6488 0
-6485 6488 0
-6473 -6485 6489 0
-6486 6489 0
-6473 -6486 0
-6474 -6489 0
-6493 7 8 9 10 0
-7 6493 0
-8 6493 0
-9 6493 0
-10 6493 0
6493 11 12 0
-6494 49 50 51 52 0
-49 6494 0
-50 6494 0
-51 6494 0
-52 6494 0
6494 53 54 0
-6495 91 92 93 94 0
-91 6495 0
-92 6495 0
-93 6495 0
-94 6495 0
6495 95 96 0
-6496 133 134 135 136 0
-133 6496 0
-134 6496 0
-135 6496 0
-136 6496 0
6496 137 138 0
-6497 175 176 177 178 0
-175 6497 0
-176 6497 0
-177 6497 0
-178 6497 0
6497 179 180 0
-6498 181 182 183 184 0
-181 6498 0
-182 6498 0
-183 6498 0
-184 6498 0
6498 185 186 0
-6493 6499 0
-6500 0
-6501 0
-6502 0
-6494 6503 0
-6499 6503 0
-6494 -6499 6504 0
-6500 6504 0
-6494 -6500 6505 0
-6501 6505 0
-6494 -6501 6506 0
-6502 6506 0
-6494 -6502 0
-6495 6507 0
-6503 6507 0
-6495 -6503 6508 0
-6504 6508 0
-6495 -6504 6509 0
-6505 6509 0
-6495 -6505 6510 0
-6506 6510 0
-6495 -6506 0
-6496 6511 0
-6507 6511 0
-6496 -6507 6512 0
-6508 6512 0
-6496 -6508 6513 0
-6509 6513 0
-6496 -6509 6514 0
-6510 6514 0
-6496 -6510 0
-6497 6515 0
-6511 6515 0
-6497 -6511 6516 0
-6512 6516 0
-6497 -6512 6517 0
-6513 6517 0
-6497 -6513 6518 0
-6514 6518 0
-6497 -6514 0
-6498 -6518 0
-6523 7 8 9 10 11 0
-7 6523 0
-8 6523 0
-9 6523 0
-10 6523 0
-11 6523 0
6523 12 0
-6524 49 50 51 52 53 0
-49 6524 0
-50 6524 0
-51 6524 0
-52 6524 0
-53 6524 0
6524 54 0
-6525 91 92 93 94 95 0
-91 6525 0
-92 6525 0
-93 6525 0
-94 6525 0
-95 6525 0
6525 96 0
-6526 133 134 135 136 137 0
-133 6526 0
-134 6526 0
-135 6526 0
-136 6526 0
-137 6526 0
6526 138 0
-6527 175 176 177 178 179 0
-175 6527 0
-176 6527 0
-177 6527 0
-178 6527 0
-179 6527 0
6527 180 0
-6528 181 182 183 184 185 0
-181 6528 0
-182 6528 0
-183 6528 0
-184 6528 0
-185 6528 0
6528 186 0
-6523 6529 0
-6530 0
-6531 0
-6532 0
-6533 0
-6524 6534 0
-6529 6534 0
-6524 -6529 6535 0
-6530 6535 0
-6524 -6530 6536 0
-6531 6536 0
-6524 -6531 6537 0
-6532 6537 0
-6524 -6532 6538 0
-6533 6538 0
-6524 -6533 0
-6525 6539 0
-6534 6539 0
-6525 -6534 6540 0
-6535 6540 0
-6525 -6535 6541 0
-6536 6541 0
-6525 -6536 6542 0
-6537 6542 0
-6525 -6537 6543 0
-6538 6543 0
-6525 -6538 0
-6526 6544 0
-6539 6544 0
-6526 -6539 6545 0
-6540 6545 0
-6526 -6540 6546 0
-6541 6546 0
-6526 -6541 6547 0
-6542 6547 0
-6526 -6542 6548 0
-6543 6548 0
-6526 -6543 0
-6527 6549 0
-6544 6549 0
-6527 -6544 6550 0
-6545 6550 0
-6527 -6545 6551 0
-6546 6551 0
-6527 -6546 6552 0
-6547 6552 0
-6527 -6547 6553 0
-6548 6553 0
-6527 -6548 0
-6528 -6553 0
-6559 7 8 9 10 11 12 0
-7 6559 0
-8 6559 0
-9 6559 0
-10 6559 0
-11 6559 0
-12 6559 0
6559 0
-6560 49 50 51 52 53 54 0
-49 6560 0
-50 6560 0
-51 6560 0
-52 6560 0
-53 6560 0
-54 6560 0
6560 0
-6561 91 92 93 94 95 96 0
-91 6561 0
-92 6561 0
-93 6561 0
-94 6561 0
-95 6561 0
-96 6561 0
6561 0
-6562 133 134 135 136 137 138 0
-133 6562 0
-134 6562 0
-135 6562 0
-136 6562 0
-137 6562 0
-138 6562 0
6562 0
-6563 175 176 177 178 179 180 0
-175 6563 0
-176 6563 0
-177 6563 0
-178 6563 0
-179 6563 0
-180 6563 0
6563 0
-6564 181 182 183 184 185 186 0
-181 6564 0
-182 6564 0
-183 6564 0
-184 6564 0
-185 6564 0
-186 6564 0
6564 0
-6565 8 0
-8 6565 0
6565 7 9 10 11 12 0
-6566 50 0
-50 6566 0
6566 49 51 52 53 54 0
-6567 92 0
-92 6567 0
6567 91 93 94 95 96 0
-6568 134 0
-134 6568 0
6568 133 135 136 137 138 0
-6569 176 0
-176 6569 0
6569 175 177 178 179 180 0
-6570 182 0
-182 6570 0
6570 181 183 184 185 186 0
-6565 6571 0
-6566 6572 0
-6571 6572 0
-6566 -6571 0
-6567 6573 0
-6572 6573 0
-6567 -6572 0
-6568 6574 0
-6573 6574 0
-6568 -6573 0
-6569 6575 0
-6574 6575 0
-6569 -6574 0
-6570 -6575 0
-6577 8 9 0
-8 6577 0
-9 6577 0
6577 7 10 11 12 0
-6578 50 51 0
-50 6578 0
-51 6578 0
6578 49 52 53 54 0
-6579 92 93 0
-92 6579 0
-93 6579 0
6579 91 94 95 96 0
-6580 134 135 0
-134 6580 0
-135 6580 0
6580 133 136 137 138 0
-6581 176 177 0
-176 6581 0
-177 6581 0
6581 175 178 179 180 0
-6582 182 183 0
-182 6582 0
-183 6582 0
6582 181 184 185 186 0
-6577 6583 0
-6584 0
-6578 6585 0
-6583 6585 0
-6578 -6583 6586 0
-6584 6586 0
-6578 -6584 0
-6579 6587 0
-6585 6587 0
-6579 -6585 6588 0
-6586 6588 0
-6579 -6586 0
-6580 6589 0
-6587 6589 0
-6580 -6587 6590 0
-6588 6590 0
-6580 -6588 0
-6581 6591 0
-6589 6591 0
-6581 -6589 6592 0
-6590 6592 0
-6581 -6590 0
-6582 -6592 0
-6595 8 9 10 0
-8 6595 0
-9 6595 0
-10 6595 0
6595 7 11 12 0
-6596 50 51 52 0
-50 6596 0
-51 6596 0
-52 6596 0
6596 49 53 54 0
-6597 92 93 94 0
-92 6597 0
-93 6597 0
-94 6597 0
6597 91 95 96 0
-6598 134 135 136 0
-134 6598 0
-135 6598 0
-136 6598 0
6598 133 137 138 0
-6599 176 177 178 0
-176 6599 0
-177 6599 0
-178 6599 0
6599 175 179 180 0
-6600 182 183 184 0
-182 6600 0
-183 6600 0
-184 6600 0
6600 181 185 186 0
-6595 6601 0
-6602 0
-6603 0
-6596 6604 0
-6601 6604 0
-6596 -6601 6605 0
-6602 6605 0
-6596 -6602 6606 0
-6603 6606 0
-6596 -6603 0
-6597 6607 0
-6604 6607 0
-6597 -6604 6608 0
-6605 6608 0
-6597 -6605 6609 0
-6606 6609 0
-6597 -6606 0
-6598 6610 0
-6607 6610 0
-6598 -6607 6611 0
-6608 6611 0
-6598 -6608 6612 0
-6609 6612 0
-6598 -6609 0
-6599 6613 0
-6610 6613 0
-6599 -6610 6614 0
-6611 6614 0
-6599 -6611 6615 0
-6612 6615 0
-6599 -6612 0
-6600 -6615 0
-6619 8 9 10 11 0
-8 6619 0
-9 6619 0
-10 6619 0
-11 6619 0
6619 7 12 0
-6620 50 51 52 53 0
-50 6620 0
-51 6620 0
-52 6620 0
-53 6620 0
6620 49 54 0
-6621 92 93 94 95 0
-92 6621 0
-93 6621 0
-94 6621 0
-95 6621 0
6621 91 96 0
-6622 134 135 136 137 0
-134 6622 0
-135 6622 0
-136 6622 0
-137 6622 0
6622 133 138 0
-6623 176 177 178 179 0
-176 6623 0
-177 6623 0
-178 6623 0
-179 6623 0
6623 175 180 0
-6624 182 183 184 185 0
-182 6624 0
-183 6624 0
-184 6624 0
-185 6624 0
6624 181 186 0
-6619 6625 0
-6626 0
-6627 0
-6628 0
-6620 6629 0
-6625 6629 0
-6620 -6625 6630 0
-6626 6630 0
-6620 -6626 6631 0
-6627 6631 0
-6620 -6627 6632 0
-6628 6632 0
-6620 -6628 0
-6621 6633 0
-6629 6633 0
-6621 -6629 6634 0
-6630 6634 0
-6621 -6630 6635 0
-6631 6635 0
-6621 -6631 6636 0
-6632 6636 0
-6621 -6632 0
-6622 6637 0
-6633 6637 0
-6622 -6633 6638 0
-6634 6638 0
-6622 -6634 6639 0
-6635 6639 0
-6622 -6635 6640 0
-6636 6640 0
-6622 -6636 0
-6623 6641 0
-6637 6641 0
-6623 -6637 6642 0
-6638 6642 0
-6623 -6638 6643 0
-6639 6643 0
-6623 -6639 6644 0
-6640 6644 0
-6623 -6640 0
-6624 -6644 0
-6649 8 9 10 11 12 0
-8 6649 0
-9 6649 0
-10 6649 0
-11 6649 0
-12 6649 0
6649 7 0
-6650 50 51 52 53 54 0
-50 6650 0
-51 6650 0
-52 6650 0
-53 6650 0
-54 6650 0
6650 49 0
-6651 92 93 94 95 96 0
-92 6651 0
-93 6651 0
-94 6651 0
-95 6651 0
-96 6651 0
6651 91 0
-6652 134 135 136 137 138 0
-134 6652 0
-135 6652 0
-136 6652 0
-137 6652 0
-138 6652 0
6652 133 0
-6653 176 177 178 179 180 0
-176 6653 0
-177 6653 0
-178 6653 0
-179 6653 0
-180 6653 0
6653 175 0
-6654 182 183 184 185 186 0
-182 6654 0
-183 6654 0
-184 6654 0
-185 6654 0
-186 6654 0
6654 181 0
-6649 6655 0
-6656 0
-6657 0
-6658 0
-6659 0
-6650 6660 0
-6655 6660 0
-6650 -6655 6661 0
-6656 6661 0
-6650 -6656 6662 0
-6657 6662 0
-6650 -6657 6663 0
-6658 6663 0
-6650 -6658 6664 0
-6659 6664 0
-6650 -6659 0
-6651 6665 0
-6660 6665 0
-6651 -6660 6666 0
-6661 6666 0
-6651 -6661 6667 0
-6662 6667 0
-6651 -6662 6668 0
-6663 6668 0
-6651 -6663 6669 0
-6664 6669 0
-6651 -6664 0
-6652 6670 0
-6665 6670 0
-6652 -6665 6671 0
-6666 6671 0
-6652 -6666 6672 0
-6667 6672 0
-6652 -6667 6673 0
-6668 6673 0
-6652 -6668 6674 0
-6669 6674 0
-6652 -6669 0
-6653 6675 0
-6670 6675 0
-6653 -6670 6676 0
-6671 6676 0
-6653 -6671 6677 0
-6672 6677 0
-6653 -6672 6678 0
-6673 6678 0
-6653 -6673 6679 0
-6674 6679 0
-6653 -6674 0
-6654 -6679 0
-6685 9 0
-9 6685 0
6685 7 8 10 11 12 0
-6686 51 0
-51 6686 0
6686 49 50 52 53 54 0
-6687 93 0
-93 6687 0
6687 91 92 94 95 96 0
-6688 135 0
-135 6688 0
6688 133 134 136 137 138 0
-6689 177 0
-177 6689 0
6689 175 176 178 179 180 0
-6690 183 0
-183 6690 0
6690 181 182 184 185 186 0
-6685 6691 0
-6686 6692 0
-6691 6692 0
-6686 -6691 0
-6687 6693 0
-6692 6693 0
-6687 -6692 0
-6688 6694 0
-6693 6694 0
-6688 -6693 0
-6689 6695 0
-6694 6695 0
-6689 -6694 0
-6690 -6695 0
-6697 9 10 0
-9 6697 0
-10 6697 0
6697 7 8 11 12 0
-6698 51 52 0
-51 6698 0
-52 6698 0
6698 49 50 53 54 0
-6699 93 94 0
-93 6699 0
-94 6699 0
6699 91 92 95 96 0
-6700 135 136 0
-135 6700 0
-136 6700 0
6700 133 134 137 138 0
-6701 177 178 0
-177 6701 0
-178 6701 0
6701 175 176 179 180 0
-6702 183 184 0
-183 6702 0
-184 6702 0
6702 181 182 185 186 0
-6697 6703 0
-6704 0
-6698 6705 0
-6703 6705 0
-6698 -6703 6706 0
-6704 6706 0
-6698 -6704 0
-6699 6707 0
-6705 6707 0
-6699 -6705 6708 0
-6706 6708 0
-6699 -6706 0
-6700 6709 0
-6707 6709 0
-6700 -6707 6710 0
-6708 6710 0
-6700 -6708 0
-6701 6711 0
-6709 6711 0
-6701 -6709 6712 0
-6710 6712 0
-6701 -6710 0
-6702 -6712 0
-6715 9 10 11 0
-9 6715 0
-10 6715 0
-11 6715 0
6715 7 8 12 0
-6716 51 52 53 0
-51 6716 0
-52 6716 0
-53 6716 0
6716 49 50 54 0
-6717 93 94 95 0
-93 6717 0
-94 6717 0
-95 6717 0
6717 91 92 96 0
-6718 135 136 137 0
-135 6718 0
-136 6718 0
-137 6718 0
6718 133 134 138 0
-6719 177 178 179 0
-177 6719 0
-178 6719 0
-179 6719 0
6719 175 176 180 0
-6720 183 184 185 0
-183 6720 0
-184 6720 0
-185 6720 0
6720 181 182 186 0
-6715 6721 0
-6722 0
-6723 0
-6716 6724 0
-6721 6724 0
-6716 -6721 6725 0
-6722 6725 0
-6716 -6722 6726 0
-6723 6726 0
-6716 -6723 0
-6717 6727 0
-6724 6727 0
-6717 -6724 6728 0
-6725 6728 0
-6717 -6725 6729 0
-6726 6729 0
-6717 -6726 0
-6718 6730 0
-6727 6730 0
-6718 -6727 6731 0
-6728 6731 0
-6718 -6728 6732 0
-6729 6732 0
-6718 -6729 0
-6719 6733 0
-6730 6733 0
-6719 -6730 6734 0
-6731 6734 0
-6719 -6731 6735 0
-6732 6735 0
-6719 -6732 0
-6720 -6735 0
-6739 9 10 11 12 0
-9 6739 0
-10 6739 0
-11 6739 0
-12 6739 0
6739 7 8 0
-6740 51 52 53 54 0
-51 6740 0
-52 6740 0
-53 6740 0
-54 6740 0
6740 49 50 0
-6741 93 94 95 96 0
-93 6741 0
-94 6741 0
-95 6741 0
-96 6741 0
6741 91 92 0
-6742 135 136 137 138 0
-135 6742 0
-136 6742 0
-137 6742 0
-138 6742 0
6742 133 134 0
-6743 177 178 179 180 0
-177 6743 0
-178 6743 0
-179 6743 0
-180 6743 0
6743 175 176 0
-6744 183 184 185 186 0
-183 6744 0
-184 6744 0
-185 6744 0
-186 6744 0
6744 181 182 0
-6739 6745 0
-6746 0
-6747 0
-6748 0
-6740 6749 0
-6745 6749 0
-6740 -6745 6750 0
-6746 6750 0
-6740 -6746 6751 0
-6747 6751 0
-6740 -6747 6752 0
-6748 6752 0
-6740 -6748 0
-6741 6753 0
-6749 6753 0
-6741 -6749 6754 0
-6750 6754 0
-6741 -6750 6755 0
-6751 6755 0
-6741 -6751 6756 0
-6752 6756 0
-6741 -6752 0
-6742 6757 0
-6753 6757 0
-6742 -6753 6758 0
-6754 6758 0
-6742 -6754 6759 0
-6755 6759 0
-6742 -6755 6760 0
-6756 6760 0
-6742 -6756 0
-6743 6761 0
-6757 6761 0
-6743 -6757 6762 0
-6758 6762 0
-6743 -6758 6763 0
-6759 6763 0
-6743 -6759 6764 0
-6760 6764 0
-6743 -6760 0
-6744 -6764 0
-6769 10 0
-10 6769 0
6769 7 8 9 11 12 0
-6770 52 0
-52 6770 0
6770 49 50 51 53 54 0
-6771 94 0
-94 6771 0
6771 91 92 93 95 96 0
-6772 136 0
-136 6772 0
6772 133 134 135 137 138 0
-6773 178 0
-178 6773 0
6773 175 176 177 179 180 0
-6774 184 0
-184 6774 0
6774 181 182 183 185 186 0
-6769 6775 0
-6770 6776 0
-6775 6776 0
-6770 -6775 0
-6771 6777 0
-6776 6777 0
-6771 -6776 0
-6772 6778 0
-6777 6778 0
-6772 -6777 0
-6773 6779 0
-6778 6779 0
-6773 -6778 0
-6774 -6779 0
-6781 10 11 0
-10 6781 0
-11 6781 0
6781 7 8 9 12 0
-6782 52 53 0
-52 6782 0
-53 6782 0
6782 49 50 51 54 0
-6783 94 95 0
-94 6783 0
-95 6783 0
6783 91 92 93 96 0
-6784 136 137 0
-136 6784 0
-137 6784 0
6784 133 134 135 138 0
-6785 178 179 0
-178 6785 0
-179 6785 0
6785 175 176 177 180 0
-6786 184 185 0
-184 6786 0
-185 6786 0
6786 181 182 183 186 0
-6781 6787 0
-6788 0
-6782 6789 0
-6787 6789 0
-6782 -6787 6790 0
-6788 6790 0
-6782 -6788 0
-6783 6791 0
-6789 6791 0
-6783 -6789 6792 0
-6790 6792 0
-6783 -6790 0
-6784 6793 0
-6791 6793 0
-6784 -6791 6794 0
-6792 6794 0
-6784 -6792 0
-6785 6795 0
-6793 6795 0
-6785 -6793 6796 0
-6794 6796 0
-6785 -6794 0
-6786 -6796 0
-6799 10 11 12 0
-10 6799 0
-11 6799 0
-12 6799 0
6799 7 8 9 0
-6800 52 53 54 0
-52 6800 0
-53 6800 0
-54 6800 0
6800 49 50 51 0
-6801 94 95 96 0
-94 6801 0
-95 6801 0
-96 6801 0
6801 91 92 93 0
-6802 136 137 138 0
-136 6802 0
-137 6802 0
-138 6802 0
6802 133 134 135 0
-6803 178 179 180 0
-178 6803 0
-179 6803 0
-180 6803 0
6803 175 176 177 0
-6804 184 185 186 0
-184 6804 0
-185 6804 0
-186 6804 0
6804 181 182 183 0
-6799 6805 0
-6806 0
-6807 0
-6800 6808 0
-6805 6808 0
-6800 -6805 6809 0
-6806 6809 0
-6800 -6806 6810 0
-6807 6810 0
-6800 -6807 0
-6801 6811 0
-6808 6811 0
-6801 -6808 6812 0
-6809 6812 0
-6801 -6809 6813 0
-6810 6813 0
-6801 -6810 0
-6802 6814 0
-6811 6814 0
-6802 -6811 6815 0
-6812 6815 0
-6802 -6812 6816 0
-6813 6816 0
-6802 -6813 0
-6803 6817 0
-6814 6817 0
-6803 -6814 6818 0
-6815 6818 0
-6803 -6815 6819 0
-6816 6819 0
-6803 -6816 0
-6804 -6819 0
-6823 11 0
-11 6823 0
6823 7 8 9 10 12 0
-6824 53 0
-53 6824 0
6824 49 50 51 52 54 0
-6825 95 0
-95 6825 0
6825 91 92 93 94 96 0
-6826 137 0
-137 6826 0
6826 133 134 135 136 138 0
-6827 179 0
-179 6827 0
6827 175 176 177 178 180 0
-6828 185 0
-185 6828 0
6828 181 182 183 184 186 0
-6823 6829 0
-6824 6830 0
-6829 6830 0
-6824 -6829 0
-6825 6831 0
-6830 6831 0
-6825 -6830 0
-6826 6832 0
-6831 6832 0
-6826 -6831 0
-6827 6833 0
-6832 6833 0
-6827 -6832 0
-6828 -6833 0
-6835 11 12 0
-11 6835 0
-12 6835 0
6835 7 8 9 10 0
-6836 53 54 0
-53 6836 0
-54 6836 0
6836 49 50 51 52 0
-6837 95 96 0
-95 6837 0
-96 6837 0
6837 91 92 93 94 0
-6838 137 138 0
-137 6838 0
-138 6838 0
6838 133 134 135 136 0
-6839 179 180 0
-179 6839 0
-180 6839 0
6839 175 176 177 178 0
-6840 185 186 0
-185 6840 0
-186 6840 0
6840 181 182 183 184 0
-6835 6841 0
-6842 0
-6836 6843 0
-6841 6843 0
-6836 -6841 6844 0
-6842 6844 0
-6836 -6842 0
-6837 6845 0
-6843 6845 0
-6837 -6843 6846 0
-6844 6846 0
-6837 -6844 0
-6838 6847 0
-6845 6847 0
-6838 -6845 6848 0
-6846 6848 0
-6838 -6846 0
-6839 6849 0
-6847 6849 0
-6839 -6847 6850 0
-6848 6850 0
-6839 -6848 0
-6840 -6850 0
-6853 12 0
-12 6853 0
6853 7 8 9 10 11 0
-6854 54 0
-54 6854 0
6854 49 50 51 52 53 0
-6855 96 0
-96 6855 0
6855 91 92 93 94 95 0
-6856 138 0
-138 6856 0
6856 133 134 135 136 137 0
-6857 180 0
-180 6857 0
6857 175 176 177 178 179 0
-6858 186 0
-186 6858 0
6858 181 182 183 184 185 0
-6853 6859 0
-6854 6860 0
-6859 6860 0
-6854 -6859 0
-6855 6861 0
-6860 6861 0
-6855 -6860 0
-6856 6862 0
-6861 6862 0
-6856 -6861 0
-6857 6863 0
-6862 6863 0
-6857 -6862 0
-6858 -6863 0
-7 6865 0
-49 6866 0
-6865 6866 0
-49 -6865 0
-91 6867 0
-6866 6867 0
-91 -6866 0
-133 6868 0
-6867 6868 0
-133 -6867 0
-175 6869 0
-6868 6869 0
-175 -6868 0
-181 -6869 0
7 49 91 133 175 181 0
-8 6871 0
-50 6872 0
-6871 6872 0
-50 -6871 0
-92 6873 0
-6872 6873 0
-92 -6872 0
-134 6874 0
-6873 6874 0
-134 -6873 0
-176 6875 0
-6874 6875 0
-176 -6874 0
-182 -6875 0
8 50 92 134 176 182 0
-9 6877 0
-51 6878 0
-6877 6878 0
-51 -6877 0
-93 6879 0
-6878 6879 0
-93 -6878 0
-135 6880 0
-6879 6880 0
-135 -6879 0
-177 6881 0
-6880 6881 0
-177 -6880 0
-183 -6881 0
9 51 93 135 177 183 0
-10 6883 0
-52 6884 0
-6883 6884 0
-52 -6883 0
-94 6885 0
-6884 6885 0
-94 -6884 0
-136 6886 0
-6885 6886 0
-136 -6885 0
-178 6887 0
-6886 6887 0
-178 -6886 0
-184 -6887 0
10 52 94 136 178 184 0
-11 6889 0
-53 6890 0
-6889 6890 0
-53 -6889 0
-95 6891 0
-6890 6891 0
-95 -6890 0
-137 6892 0
-6891 6892 0
-137 -6891 0
-179 6893 0
-6892 6893 0
-179 -6892 0
-185 -6893 0
11 53 95 137 179 185 0
-12 6895 0
-54 6896 0
-6895 6896 0
-54 -6895 0
-96 6897 0
-6896 6897 0
-96 -6896 0
-138 6898 0
-6897 6898 0
-138 -6897 0
-180 6899 0
-6898 6899 0
-180 -6898 0
-186 -6899 0
12 54 96 138 180 186 0
-6901 13 0
-13 6901 0
6901 14 15 16 17 18 0
-6902 55 0
-55 6902 0
6902 56 57 58 59 60 0
-6903 97 0
-97 6903 0
6903 98 99 100 101 102 0
-6904 139 0
-139 6904 0
6904 140 141 142 143 144 0
-6905 145 0
-145 6905 0
6905 146 147 148 149 150 0
-6906 187 0
-187 6906 0
6906 188 189 190 191 192 0
-6901 6907 0
-6902 6908 0
-6907 6908 0
-6902 -6907 0
-6903 6909 0
-6908 6909 0
-6903 -6908 0
-6904 6910 0
-6909 6910 0
-6904 -6909 0
-6905 6911 0
-6910 6911 0
-6905 -6910 0
-6906 -6911 0
-6913 13 14 0
-13 6913 0
-14 6913 0
6913 15 16 17 18 0
-6914 55 56 0
-55 6914 0
-56 6914 0
6914 57 58 59 60 0
-6915 97 98 0
-97 6915 0
-98 6915 0
6915 99 100 101 102 0
-6916 139 140 0
-139 6916 0
-140 6916 0
6916 141 142 143 144 0
-6917 145 146 0
-145 6917 0
-146 6917 0
6917 147 148 149 150 0
-6918 187 188 0
-187 6918 0
-188 6918 0
6918 189 190 191 192 0
-6913 6919 0
-6920 0
-6914 6921 0
-6919 6921 0
-6914 -6919 6922 0
-6920 6922 0
-6914 -6920 0
-6915 6923 0
-6921 6923 0
-6915 -6921 6924 0
-6922 6924 0
-6915 -6922 0
-6916 6925 0
-6923 6925 0
-6916 -6923 6926 0
-6924 6926 0
-6916 -6924 0
-6917 6927 0
-6925 6927 0
-6917 -6925 6928 0
-6926 6928 0
-6917 -6926 0
-6918 -6928 0
-6931 13 14 15 0
-13 6931 0
-14 6931 0
-15 6931 0
6931 16 17 18 0
-6932 55 56 57 0
-55 6932 0
-56 6932 0
-57 6932 0
6932 58 59 60 0
-6933 97 98 99 0
-97 6933 0
-98 6933 0
-99 6933 0
6933 100 101 102 0
-6934 139 140 141 0
-139 6934 0
-140 6934 0
-141 6934 0
6934 142 143 144 0
-6935 145 146 147 0
-145 6935 0
-146 6935 0
-147 6935 0
6935 148 149 150 0
-6936 187 188 189 0
-187 6936 0
-188 6936 0
-189 6936 0
6936 190 191 192 0
-6931 6937 0
-6938 0
-6939 0
-6932 6940 0
-6937 6940 0
-6932 -6937 6941 0
-6938 6941 0
-6932 -6938 6942 0
-6939 6942 0
-6932 -6939 0
-6933 6943 0
-6940 6943 0
-6933 -6940 6944 0
-6941 6944 0
-6933 -6941 6945 0
-6942 6945 0
-6933 -6942 0
-6934 6946 0
-6943 6946 0
-6934 -6943 6947 0
-6944 6947 0
-6934 -6944 6948 0
-6945 6948 0
-6934 -6945 0
-6935 6949 0
-6946 6949 0
-6935 -6946 6950 0
-6947 6950 0
-6935 -6947 6951 0
-6948 6951 0
-6935 -6948 0
-6936 -6951 0
-6955 13 14 15 16 0
-13 6955 0
-14 6955 0
-15 6955 0
-16 6955 0
6955 17 18 0
-6956 55 56 57 58 0
-55 6956 0
-56 6956 0
-57 6956 0
-58 6956 0
6956 59 60 0
-6957 97 98 99 100 0
-97 6957 0
-98 6957 0
-99 6957 0
-100 6957 0
6957 101 102 0
-6958 139 140 141 142 0
-139 6958 0
-140 6958 0
-141 6958 0
-142 6958 0
6958 143 144 0
-6959 145 146 147 148 0
-145 6959 0
-146 6959 0
-147 6959 0
-148 6959 0
6959 149 150 0
-6960 187 188 189 190 0
-187 6960 0
-188 6960 0
-189 6960 0
-190 6960 0
6960 191 192 0
-6955 6961 0
-6962 0
-6963 0
-6964 0
-6956 6965 0
-6961 6965 0
-6956 -6961 6966 0
-6962 6966 0
-6956 -6962 6967 0
-6963 6967 0
-6956 -6963 6968 0
-6964 6968 0
-6956 -6964 0
-6957 6969 0
-6965 6969 0
-6957 -6965 6970 0
-6966 6970 0
-6957 -6966 6971 0
-6967 6971 0
-6957 -6967 6972 0
-6968 6972 0
-6957 -6968 0
-6958 6973 0
-6969 6973 0
-6958 -6969 6974 0
-6970 6974 0
-6958 -6970 6975 0
-6971 6975 0
-6958 -6971 6976 0
-6972 6976 0
-6958 -6972 0
-6959 6977 0
-6973 6977 0
-6959 -6973 6978 0
-6974 6978 0
-6959 -6974 6979 0
-6975 6979 0
-6959 -6975 6980 0
-6976 6980 0
-6959 -6976 0
-6960 -6980 0
-6985 13 14 15 16 17 0
-13 6985 0
-14 6985 0
-15 6985 0
-16 6985 0
-17 6985 0
6985 18 0
-6986 55 56 57 58 59 0
-55 6986 0
-56 6986 0
-57 6986 0
-58 6986 0
-59 6986 0
6986 60 0
-6987 97 98 99 100 101 0
-97 6987 0
-98 6987 0
-99 6987 0
-100 6987 0
-101 6987 0
6987 102 0
-6988 139 140 141 142 143 0
-139 6988 0
-140 6988 0
-141 6988 0
-142 6988 0
-143 6988 0
6988 144 0
-6989 145 146 147 148 149 0
-145 6989 0
-146 6989 0
-147 6989 0
-148 6989 0
-149 6989 0
6989 150 0
-6990 187 188 189 190 191 0
-187 6990 0
-188 6990 0
-189 6990 0
-190 6990 0
-191 6990 0
6990 192 0
-6985 6991 0
-6992 0
-6993 0
-6994 0
-6995 0
-6986 6996 0
-6991 6996 0
-6986 -6991 6997 0
-6992 6997 0
-6986 -6992 6998 0
-6993 6998 0
-6986 -6993 6999 0
-6994 6999 0
-6986 -6994 7000 0
-6995 7000 0
-6986 -6995 0
-6987 7001 0
-6996 7001 0
-6987 -6996 7002 0
-6997 7002 0
-6987 -6997 7003 0
-6998 7003 0
-6987 -6998 7004 0
-6999 7004 0
-6987 -6999 7005 0
-7000 7005 0
-6987 -7000 0
-6988 7006 0
-7001 7006 0
-6988 -7001 7007 0
-7002 7007 0
-6988 -7002 7008 0
-7003 7008 0
-6988 -7003 7009 0
-7004 7009 0
-6988 -7004 7010 0
-7005 7010 0
-6988 -7005 0
-6989 7011 0
-7006 7011 0
-6989 -7006 7012 0
-7007 7012 0
-6989 -7007 7013 0
-7008 7013 0
-6989 -7008 7014 0
-7009 7014 0
-6989 -7009 7015 0
-7010 7015 0
-6989 -7010 0
-6990 -7015 0
-7021 13 14 15 16 17 18 0
-13 7021 0
-14 7021 0
-15 7021 0
-16 7021 0
-17 7021 0
-18 7021 0
7021 0
-7022 55 56 57 58 59 60 0
-55 7022 0
-56 7022 0
-57 7022 0
-58 7022 0
-59 7022 0
-60 7022 0
7022 0
-7023 97 98 99 100 101 102 0
-97 7023 0
-98 7023 0
-99 7023 0
-100 7023 0
-101 7023 0
-102 7023 0
7023 0
-7024 139 140 141 142 143 144 0
-139 7024 0
-140 7024 0
-141 7024 0
-142 7024 0
-143 7024 0
-144 7024 0
7024 0
-7025 145 146 147 148 149 150 0
-145 7025 0
-146 7025 0
-147 7025 0
-148 7025 0
-149 7025 0
-150 7025 0
7025 0
-7026 187 188 189 190 191 192 0
-187 7026 0
-188 7026 0
-189 7026 0
-190 7026 0
-191 7026 0
-192 7026 0
7026 0
-7027 14 0
-14 7027 0
7027 13 15 16 17 18 0
-7028 56 0
-56 7028 0
7028 55 57 58 59 60 0
-7029 98 0
-98 7029 0
7029 97 99 100 101 102 0
-7030 140 0
-140 7030 0
7030 139 141 142 143 144 0
-7031 146 0
-146 7031 0
7031 145 147 148 149 150 0
-7032 188 0
-188 7032 0
7032 187 189 190 191 192 0
-7027 7033 0
-7028 7034 0
-7033 7034 0
-7028 -7033 0
-7029 7035 0
-7034 7035 0
-7029 -7034 0
-7030 7036 0
-7035 7036 0
-7030 -7035 0
-7031 7037 0
-7036 7037 0
-7031 -7036 0
-7032 -7037 0
-7039 14 15 0
-14 7039 0
-15 7039 0
7039 13 16 17 18 0
-7040 56 57 0
-56 7040 0
-57 7040 0
7040 55 58 59 60 0
-7041 98 99 0
-98 7041 0
-99 7041 0
7041 97 100 101 102 0
-7042 140 141 0
-140 7042 0
-141 7042 0
7042 139 142 143 144 0
-7043 146 147 0
-146 7043 0
-147 7043 0
7043 145 148 149 150 0
-7044 188 189 0
-188 7044 0
-189 7044 0
7044 187 190 191 192 0
-7039 7045 0
-7046 0
-7040 7047 0
-7045 7047 0
-7040 -7045 7048 0
-7046 7048 0
-7040 -7046 0
-7041 7049 0
-7047 7049 0
-7041 -7047 7050 0
-7048 7050 0
-7041 -7048 0
-7042 7051 0
-7049 7051 0
-7042 -7049 7052 0
-7050 7052 0
-7042 -7050 0
-7043 7053 0
-7051 7053 0
-7043 -7051 7054 0
-7052 7054 0
-7043 -7052 0
-7044 -7054 0
-7057 14 15 16 0
-14 7057 0
-15 7057 0
-16 7057 0
7057 13 17 18 0
-7058 56 57 58 0
-56 7058 0
-57 7058 0
-58 7058 0
7058 55 59 60 0
-7059 98 99 100 0
-98 7059 0
-99 7059 0
-100 7059 0
7059 97 101 102 0
-7060 140 141 142 0
-140 7060 0
-141 7060 0
-142 7060 0
7060 139 143 144 0
-7061 146 147 148 0
-146 7061 0
-147 7061 0
-148 7061 0
7061 145 149 150 0
-7062 188 189 190 0
-188 7062 0
-189 7062 0
-190 7062 0
7062 187 191 192 0
-7057 7063 0
-7064 0
-7065 0
-7058 7066 0
-7063 7066 0
-7058 -7063 7067 0
-7064 7067 0
-7058 -7064 7068 0
-7065 7068 0
-7058 -7065 0
-7059 7069 0
-7066 7069 0
-7059 -7066 7070 0
-7067 7070 0
-7059 -7067 7071 0
-7068 7071 0
-7059 -7068 0
-7060 7072 0
-7069 7072 0
-7060 -7069 7073 0
-7070 7073 0
-7060 -7070 7074 0
-7071 7074 0
-7060 -7071 0
-7061 7075 0
-7072 7075 0
-7061 -7072 7076 0
-7073 7076 0
-7061 -7073 7077 0
-7074 7077 0
-7061 -7074 0
-7062 -7077 0
-7081 14 15 16 17 0
-14 7081 0
-15 7081 0
-16 7081 0
-17 7081 0
7081 13 18 0
-7082 56 57 58 59 0
-56 7082 0
-57 7082 0
-58 7082 0
-59 7082 0
7082 55 60 0
-7083 98 99 100 101 0
-98 7083 0
-99 7083 0
-100 7083 0
-101 7083 0
7083 97 102 0
-7084 140 141 142 143 0
-140 7084 0
-141 7084 0
-142 7084 0
-143 7084 0
7084 139 144 0
-7085 146 147 148 149 0
-146 7085 0
-147 7085 0
-148 7085 0
-149 7085 0
7085 145 150 0
-7086 188 189 190 191 0
-188 7086 0
-189 7086 0
-190 7086 0
-191 7086 0
7086 187 192 0
-7081 7087 0
-7088 0
-7089 0
-7090 0
-7082 7091 0
-7087 7091 0
-7082 -7087 7092 0
-7088 7092 0
-7082 -7088 7093 0
-7089 7093 0
-7082 -7089 7094 0
-7090 7094 0
-7082 -7090 0
-7083 7095 0
-7091 7095 0
-7083 -7091 7096 0
-7092 7096 0
-7083 -7092 7097 0
-7093 7097 0
-7083 -7093 7098 0
-7094 7098 0
-7083 -7094 0
-7084 7099 0
-7095 7099 0
-7084 -7095 7100 0
-7096 7100 0
-7084 -7096 7101 0
-7097 7101 0
-7084 -7097 7102 0
-7098 7102 0
-7084 -7098 0
-7085 7103 0
-7099 7103 0
-7085 -7099 7104 0
-7100 7104 0
-7085 -7100 7105 0
-7101 7105 0
-7085 -7101 7106 0
-7102 7106 0
-7085 -7102 0
-7086 -7106 0
-7111 14 15 16 17 18 0
-14 7111 0
-15 7111 0
-16 7111 0
-17 7111 0
-18 7111 0
7111 13 0
-7112 56 57 58 59 60 0
-56 7112 0
-57 7112 0
-58 7112 0
-59 7112 0
-60 7112 0
7112 55 0
-7113 98 99 100 101 102 0
-98 7113 0
-99 7113 0
-100 7113 0
-101 7113 0
-102 7113 0
7113 97 0
-7114 140 141 142 143 144 0
-140 7114 0
-141 7114 0
-142 7114 0
-143 7114 0
-144 7114 0
7114 139 0
-7115 146 147 148 149 150 0
-146 7115 0
-147 7115 0
-148 7115 0
-149 7115 0
-150 7115 0
7115 145 0
-7116 188 189 190 191 192 0
-188 7116 0
-189 7116 0
-190 7116 0
-191 7116 0
-192 7116 0
7116 187 0
-7111 7117 0
-7118 0
-7119 0
-7120 0
-7121 0
-7112 7122 0
-7117 7122 0
-7112 -7117 7123 0
-7118 7123 0
-7112 -7118 7124 0
-7119 7124 0
-7112 -7119 7125 0
-7120 7125 0
-7112 -7120 7126 0
-7121 7126 0
-7112 -7121 0
-7113 7127 0
-7122 7127 0
-7113 -7122 7128 0
-7123 7128 0
-7113 -7123 7129 0
-7124 7129 0
-7113 -7124 7130 0
-7125 7130 0
-7113 -7125 7131 0
-7126 7131 0
-7113 -7126 0
-7114 7132 0
-7127 7132 0
-7114 -7127 7133 0
-7128 7133 0
-7114 -7128 7134 0
-7129 7134 0
-7114 -7129 7135 0
-7130 7135 0
-7114 -7130 7136 0
-7131 7136 0
-7114 -7131 0
-7115 7137 0
-7132 7137 0
-7115 -7132 7138 0
-7133 7138 0
-7115 -7133 7139 0
-7134 7139 0
-7115 -7134 7140 0
-7135 7140 0
-7115 -7135 7141 0
-7136 7141 0
-7115 -7136 0
-7116 -7141 0
-7147 15 0
-15 7147 0
7147 13 14 16 17 18 0
-7148 57 0
-57 7148 0
7148 55 56 58 59 60 0
-7149 99 0
-99 7149 0
7149 97 98 100 101 102 0
-7150 141 0
-141 7150 0
7150 139 140 142 143 144 0
-7151 147 0
-147 7151 0
7151 145 146 148 149 150 0
-7152 189 0
-189 7152 0
7152 187 188 190 191 192 0
-7147 7153 0
-7148 7154 0
-7153 7154 0
-7148 -7153 0
-7149 7155 0
-7154 7155 0
-7149 -7154 0
-7150 7156 0
-7155 7156 0
-7150 -7155 0
-7151 7157 0
-7156 7157 0
-7151 -7156 0
-7152 -7157 0
-7159 15 16 0
-15 7159 0
-16 7159 0
7159 13 14 17 18 0
-7160 57 58 0
-57 7160 0
-58 7160 0
7160 55 56 59 60 0
-7161 99 100 0
-99 7161 0
-100 7161 0
7161 97 98 101 102 0
-7162 141 142 0
-141 7162 0
-142 7162 0
7162 139 140 143 144 0
-7163 147 148 0
-147 7163 0
-148 7163 0
7163 145 146 149 150 0
-7164 189 190 0
-189 7164 0
-190 7164 0
7164 187 188 191 192 0
-7159 7165 0
-7166 0
-7160 7167 0
-7165 7167 0
-7160 -7165 7168 0
-7166 7168 0
-7160 -7166 0
-7161 7169 0
-7167 7169 0
-7161 -7167 7170 0
-7168 7170 0
-7161 -7168 0
-7162 7171 0
-7169 7171 0
-7162 -7169 7172 0
-7170 7172 0
-7162 -7170 0
-7163 7173 0
-7171 7173 0
-7163 -7171 7174 0
-7172 7174 0
-7163 -7172 0
-7164 -7174 0
-7177 15 16 17 0
-15 7177 0
-16 7177 0
-17 7177 0
7177 13 14 18 0
-7178 57 58 59 0
-57 7178 0
-58 7178 0
-59 7178 0
7178 55 56 60 0
-7179 99 100 101 0
-99 7179 0
-100 7179 0
-101 7179 0
7179 97 98 102 0
-7180 141 142 143 0
-141 7180 0
-142 7180 0
-143 7180 0
7180 139 140 144 0
-7181 147 148 149 0
-147 7181 0
-148 7181 0
-149 7181 0
7181 145 146 150 0
-7182 189 190 191 0
-189 7182 0
-190 7182 0
-191 7182 0
7182 187 188 192 0
-7177 7183 0
-7184 0
-7185 0
-7178 7186 0
-7183 7186 0
-7178 -7183 7187 0
-7184 7187 0
-7178 -7184 7188 0
-7185 7188 0
-7178 -7185 0
-7179 7189 0
-7186 7189 0
-7179 -7186 7190 0
-7187 7190 0
-7179 -7187 7191 0
-7188 7191 0
-7179 -7188 0
-7180 7192 0
-7189 7192 0
-7180 -7189 7193 0
-7190 7193 0
-7180 -7190 7194 0
-7191 7194 0
-7180 -7191 0
-7181 7195 0
-7192 7195 0
-7181 -7192 7196 0
-7193 7196 0
-7181 -7193 7197 0
-7194 7197 0
-7181 -7194 0
-7182 -7197 0
-7201 15 16 17 18 0
-15 7201 0
-16 7201 0
-17 7201 0
-18 7201 0
7201 13 14 0
-7202 57 58 59 60 0
-57 7202 0
-58 7202 0
-59 7202 0
-60 7202 0
7202 55 56 0
-7203 99 100 101 102 0
-99 7203 0
-100 7203 0
-101 7203 0
-102 7203 0
7203 97 98 0
-7204 141 142 143 144 0
-141 7204 0
-142 7204 0
-143 7204 0
-144 7204 0
7204 139 140 0
-7205 147 148 149 150 0
-147 7205 0
-148 7205 0
-149 7205 0
-150 7205 0
7205 145 146 0
-7206 189 190 191 192 0
-189 7206 0
-190 7206 0
-191 7206 0
-192 7206 0
7206 187 188 0
-7201 7207 0
-7208 0
-7209 0
-7210 0
-7202 7211 0
-7207 7211 0
-7202 -7207 7212 0
-7208 7212 0
-7202 -7208 7213 0
-7209 7213 0
-7202 -7209 7214 0
-7210 7214 0
-7202 -7210 0
-7203 7215 0
-7211 7215 0
-7203 -7211 7216 0
-7212 7216 0
-7203 -7212 7217 0
-7213 7217 0
-7203 -7213 7218 0
-7214 7218 0
-7203 -7214 0
-7204 7219 0
-7215 7219 0
-7204 -7215 7220 0
-7216 7220 0
-7204 -7216 7221 0
-7217 7221 0
-7204 -7217 7222 0
-7218 7222 0
-7204 -7218 0
-7205 7223 0
-7219 7223 0
-7205 -7219 7224 0
-7220 7224 0
-7205 -7220 7225 0
-7221 7225 0
-7205 -7221 7226 0
-7222 7226 0
-7205 -7222 0
-7206 -7226 0
-7231 16 0
-16 7231 0
7231 13 14 15 17 18 0
-7232 58 0
-58 7232 0
7232 55 56 57 59 60 0
-7233 100 0
-100 7233 0
7233 97 98 99 101 102 0
-7234 142 0
-142 7234 0
7234 139 140 141 143 144 0
-7235 148 0
-148 7235 0
7235 145 146 147 149 150 0
-7236 190 0
-190 7236 0
7236 187 188 189 191 192 0
-7231 7237 0
-7232 7238 0
-7237 7238 0
-7232 -7237 0
-7233 7239 0
-7238 7239 0
-7233 -7238 0
-7234 7240 0
-7239 7240 0
-7234 -7239 0
-7235 7241 0
-7240 7241 0
-7235 -7240 0
-7236 -7241 0
-7243 16 17 0
-16 7243 0
-17 7243 0
7243 13 14 15 18 0
-7244 58 59 0
-58 7244 0
-59 7244 0
7244 55 56 57 60 0
-7245 100 101 0
-100 7245 0
-101 7245 0
7245 97 98 99 102 0
-7246 142 143 0
-142 7246 0
-143 7246 0
7246 139 140 141 144 0
-7247 148 149 0
-148 7247 0
-149 7247 0
7247 145 146 147 150 0
-7248 190 191 0
-190 7248 0
-191 7248 0
7248 187 188 189 192 0
-7243 7249 0
-7250 0
-7244 7251 0
-7249 7251 0
-7244 -7249 7252 0
-7250 7252 0
-7244 -7250 0
-7245 7253 0
-7251 7253 0
-7245 -7251 7254 0
-7252 7254 0
-7245 -7252 0
-7246 7255 0
-7253 7255 0
-7246 -7253 7256 0
-7254 7256 0
-7246 -7254 0
-7247 7257 0
-7255 7257 0
-7247 -7255 7258 0
-7256 7258 0
-7247 -7256 0
-7248 -7258 0
-7261 16 17 18 0
-16 7261 0
-17 7261 0
-18 7261 0
7261 13 14 15 0
-7262 58 59 60 0
-58 7262 0
-59 7262 0
-60 7262 0
7262 55 56 57 0
-7263 100 101 102 0
-100 7263 0
-101 7263 0
-102 7263 0
7263 97 98 99 0
-7264 142 143 144 0
-142 7264 0
-143 7264 0
-144 7264 0
7264 139 140 141 0
-7265 148 149 150 0
-148 7265 0
-149 7265 0
-150 7265 0
7265 145 146 147 0
-7266 190 191 192 0
-190 7266 0
-191 7266 0
-192 7266 0
7266 187 188 189 0
-7261 7267 0
-7268 0
-7269 0
-7262 7270 0
-7267 7270 0
-7262 -7267 7271 0
-7268 7271 0
-7262 -7268 7272 0
-7269 7272 0
-7262 -7269 0
-7263 7273 0
-7270 7273 0
-7263 -7270 7274 0
-7271 7274 0
-7263 -7271 7275 0
-7272 7275 0
-7263 -7272 0
-7264 7276 0
-7273 7276 0
-7264 -7273 7277 0
-7274 7277 0
-7264 -7274 7278 0
-7275 7278 0
-7264 -7275 0
-7265 7279 0
-7276 7279 0
-7265 -7276 7280 0
-7277 7280 0
-7265 -7277 7281 0
-7278 7281 0
-7265 -7278 0
-7266 -7281 0
-7285 17 0
-17 7285 0
7285 13 14 15 16 18 0
-7286 59 0
-59 7286 0
7286 55 56 57 58 60 0
-7287 101 0
-101 7287 0
7287 97 98 99 100 102 0
-7288 143 0
-143 7288 0
7288 139 140 141 142 144 0
-7289 149 0
-149 7289 0
7289 145 146 147 148 150 0
-7290 191 0
-191 7290 0
7290 187 188 189 190 192 0
-7285 7291 0
-7286 7292 0
-7291 7292 0
-7286 -7291 0
-7287 7293 0
-7292 7293 0
-7287 -7292 0
-7288 7294 0
-7293 7294 0
-7288 -7293 0
-7289 7295 0
-7294 7295 0
-7289 -7294 0
-7290 -7295 0
-7297 17 18 0
-17 7297 0
-18 7297 0
7297 13 14 15 16 0
-7298 59 60 0
-59 7298 0
-60 7298 0
7298 55 56 57 58 0
-7299 101 102 0
-101 7299 0
-102 7299 0
7299 97 98 99 100 0
-7300 143 144 0
-143 7300 0
-144 7300 0
7300 139 140 141 142 0
-7301 149 150 0
-149 7301 0
-150 7301 0
7301 145 146 147 148 0
-7302 191 192 0
-191 7302 0
-192 7302 0
7302 187 188 189 190 0
-7297 7303 0
-7304 0
-7298 7305 0
-7303 7305 0
-7298 -7303 7306 0
-7304 7306 0
-7298 -7304 0
-7299 7307 0
-7305 7307 0
-7299 -7305 7308 0
-7306 7308 0
-7299 -7306 0
-7300 7309 0
-7307 7309 0
-7300 -7307 7310 0
-7308 7310 0
-7300 -7308 0
-7301 7311 0
-7309 7311 0
-7301 -7309 7312 0
-7310 7312 0
-7301 -7310 0
-7302 -7312 0
-7315 18 0
-18 7315 0
7315 13 14 15 16 17 0
-7316 60 0
-60 7316 0
7316 55 56 57 58 59 0
-7317 102 0
-102 7317 0
7317 97 98 99 100 101 0
-7318 144 0
-144 7318 0
7318 139 140 141 142 143 0
-7319 150 0
-150 7319 0
7319 145 146 147 148 149 0
-7320 192 0
-192 7320 0
7320 187 188 189 190 191 0
-7315 7321 0
-7316 7322 0
-7321 7322 0
-7316 -7321 0
-7317 7323 0
-7322 7323 0
-7317 -7322 0
-7318 7324 0
-7323 7324 0
-7318 -7323 0
-7319 7325 0
-7324 7325 0
-7319 -7324 0
-7320 -7325 0
-13 7327 0
-55 7328 0
-7327 7328 0
-55 -7327 0
-97 7329 0
-7328 7329 0
-97 -7328 0
-139 7330 0
-7329 7330 0
-139 -7329 0
-145 7331 0
-7330 7331 0
-145 -7330 0
-187 -7331 0
13 55 97 139 145 187 0
-14 7333 0
-56 7334 0
-7333 7334 0
-56 -7333 0
-98 7335 0
-7334 7335 0
-98 -7334 0
-140 7336 0
-7335 7336 0
-140 -7335 0
-146 7337 0
-7336 7337 0
-146 -7336 0
-188 -7337 0
14 56 98 140 146 188 0
-15 7339 0
-57 7340 0
-7339 7340 0
-57 -7339 0
-99 7341 0
-7340 7341 0
-99 -7340 0
-141 7342 0
-7341 7342 0
-141 -7341 0
-147 7343 0
-7342 7343 0
-147 -7342 0
-189 -7343 0
15 57 99 141 147 189 0
-16 7345 0
-58 7346 0
-7345 7346 0
-58 -7345 0
-100 7347 0
-7346 7347 0
-100 -7346 0
-142 7348 0
-7347 7348 0
-142 -7347 0
-148 7349 0
-7348 7349 0
-148 -7348 0
-190 -7349 0
16 58 100 142 148 190 0
-17 7351 0
-59 7352 0
-7351 7352 0
-59 -7351 0
-101 7353 0
-7352 7353 0
-101 -7352 0
-143 7354 0
-7353 7354 0
-143 -7353 0
-149 7355 0
-7354 7355 0
-149 -7354 0
-191 -7355 0
17 59 101 143 149 191 0
-18 7357 0
-60 7358 0
-7357 7358 0
-60 -7357 0
-102 7359 0
-7358 7359 0
-102 -7358 0
-144 7360 0
-7359 7360 0
-144 -7359 0
-150 7361 0
-7360 7361 0
-150 -7360 0
-192 -7361 0
18 60 102 144 150 192 0
-7363 19 0
-19 7363 0
7363 20 21 22 23 24 0
-7364 61 0
-61 7364 0
7364 62 63 64 65 66 0
-7365 103 0
-103 7365 0
7365 104 105 106 107 108 0
-7366 109 0
-109 7366 0
7366 110 111 112 113 114 0
-7367 151 0
-151 7367 0
7367 152 153 154 155 156 0
-7368 193 0
-193 7368 0
7368 194 195 196 197 198 0
-7363 7369 0
-7364 7370 0
-7369 7370 0
-7364 -7369 0
-7365 7371 0
-7370 7371 0
-7365 -7370 0
-7366 7372 0
-7371 7372 0
-7366 -7371 0
-7367 7373 0
-7372 7373 0
-7367 -7372 0
-7368 -7373 0
-7375 19 20 0
-19 7375 0
-20 7375 0
7375 21 22 23 24 0
-7376 61 62 0
-61 7376 0
-62 7376 0
7376 63 64 65 66 0
-7377 103 104 0
-103 7377 0
-104 7377 0
7377 105 106 107 108 0
-7378 109 110 0
-109 7378 0
-110 7378 0
7378 111 112 113 114 0
-7379 151 152 0
-151 7379 0
-152 7379 0
7379 153 154 155 156 0
-7380 193 194 0
-193 7380 0
-194 7380 0
7380 195 196 197 198 0
-7375 7381 0
-7382 0
-7376 7383 0
-7381 7383 0
-7376 -7381 7384 0
-7382 7384 0
-7376 -7382 0
-7377 7385 0
-7383 7385 0
-7377 -7383 7386 0
-7384 7386 0
-7377 -7384 0
-7378 7387 0
-7385 7387 0
-7378 -7385 7388 0
-7386 7388 0
-7378 -7386 0
-7379 7389 0
-7387 7389 0
-7379 -7387 7390 0
-7388 7390 0
-7379 -7388 0
-7380 -7390 0
-7393 19 20 21 0
-19 7393 0
-20 7393 0
-21 7393 0
7393 22 23 24 0
-7394 61 62 63 0
-61 7394 0
-62 7394 0
-63 7394 0
7394 64 65 66 0
-7395 103 104 105 0
-103 7395 0
-104 7395 0
-105 7395 0
7395 106 107 108 0
-7396 109 110 111 0
-109 7396 0
-110 7396 0
-111 7396 0
7396 112 113 114 0
-7397 151 152 153 0
-151 7397 0
-152 7397 0
-153 7397 0
7397 154 155 156 0
-7398 193 194 195 0
-193 7398 0
-194 7398 0
-195 7398 0
7398 196 197 198 0
-7393 7399 0
-7400 0
-7401 0
-7394 7402 0
-7399 7402 0
-7394 -7399 7403 0
-7400 7403 0
-7394 -7400 7404 0
-7401 7404 0
-7394 -7401 0
-7395 7405 0
-7402 7405 0
-7395 -7402 7406 0
-7403 7406 0
-7395 -7403 7407 0
-7404 7407 0
-7395 -7404 0
-7396 7408 0
-7405 7408 0
-7396 -7405 7409 0
-7406 7409 0
-7396 -7406 7410 0
-7407 7410 0
-7396 -7407 0
-7397 7411 0
-7408 7411 0
-7397 -7408 7412 0
-7409 7412 0
-7397 -7409 7413 0
-7410 7413 0
-7397 -7410 0
-7398 -7413 0
-7417 19 20 21 22 0
-19 7417 0
-20 7417 0
-21 7417 0
-22 7417 0
7417 23 24 0
-7418 61 62 63 64 0
-61 7418 0
-62 7418 0
-63 7418 0
-64 7418 0
7418 65 66 0
-7419 103 104 105 106 0
-103 7419 0
-104 7419 0
-105 7419 0
-106 7419 0
7419 107 108 0
-7420 109 110 111 112 0
-109 7420 0
-110 7420 0
-111 7420 0
-112 7420 0
7420 113 114 0
-7421 151 152 153 154 0
-151 7421 0
-152 7421 0
-153 7421 0
-154 7421 0
7421 155 156 0
-7422 193 194 195 196 0
-193 7422 0
-194 7422 0
-195 7422 0
-196 7422 0
7422 197 198 0
-7417 7423 0
-7424 0
-7425 0
-7426 0
-7418 7427 0
-7423 7427 0
-7418 -7423 7428 0
-7424 7428 0
-7418 -7424 7429 0
-7425 7429 0
-7418 -7425 7430 0
-7426 7430 0
-7418 -7426 0
-7419 7431 0
-7427 7431 0
-7419 -7427 7432 0
-7428 7432 0
-7419 -7428 7433 0
-7429 7433 0
-7419 -7429 7434 0
-7430 7434 0
-7419 -7430 0
-7420 7435 0
-7431 7435 0
-7420 -7431 7436 0
-7432 7436 0
-7420 -7432 7437 0
-7433 7437 0
-7420 -7433 7438 0
-7434 7438 0
-7420 -7434 0
-7421 7439 0
-7435 7439 0
-7421 -7435 7440 0
-7436 7440 0
-7421 -7436 7441 0
-7437 7441 0
-7421 -7437 7442 0
-7438 7442 0
-7421 -7438 0
-7422 -7442 0
-7447 19 20 21 22 23 0
-19 7447 0
-20 7447 0
-21 7447 0
-22 7447 0
-23 7447 0
7447 24 0
-7448 61 62 63 64 65 0
-61 7448 0
-62 7448 0
-63 7448 0
-64 7448 0
-65 7448 0
7448 66 0
-7449 103 104 105 106 107 0
-103 7449 0
-104 7449 0
-105 7449 0
-106 7449 0
-107 7449 0
7449 108 0
-7450 109 110 111 112 113 0
-109 7450 0
-110 7450 0
-111 7450 0
-112 7450 0
-113 7450 0
7450 114 0
-7451 151 152 153 154 155 0
-151 7451 0
-152 7451 0
-153 7451 0
-154 7451 0
-155 7451 0
7451 156 0
-7452 193 194 195 196 197 0
-193 7452 0
-194 7452 0
-195 7452 0
-196 7452 0
-197 7452 0
7452 198 0
-7447 7453 0
-7454 0
-7455 0
-7456 0
-7457 0
-7448 7458 0
-7453 7458 0
-7448 -7453 7459 0
-7454 7459 0
-7448 -7454 7460 0
-7455 7460 0
-7448 -7455 7461 0
-7456 7461 0
-7448 -7456 7462 0
-7457 7462 0
-7448 -7457 0
-7449 7463 0
-7458 7463 0
-7449 -7458 7464 0
-7459 7464 0
-7449 -7459 7465 0
-7460 7465 0
-7449 -7460 7466 0
-7461 7466 0
-7449 -7461 7467 0
-7462 7467 0
-7449 -7462 0
-7450 7468 0
-7463 7468 0
-7450 -7463 7469 0
-7464 7469 0
-7450 -7464 7470 0
-7465 7470 0
-7450 -7465 7471 0
-7466 7471 0
-7450 -7466 7472 0
-7467 7472 0
-7450 -7467 0
-7451 7473 0
-7468 7473 0
-7451 -7468 7474 0
-7469 7474 0
-7451 -7469 7475 0
-7470 7475 0
-7451 -7470 7476 0
-7471 7476 0
-7451 -7471 7477 0
-7472 7477 0
-7451 -7472 0
-7452 -7477 0
-7483 19 20 21 22 23 24 0
-19 7483 0
-20 7483 0
-21 7483 0
-22 7483 0
-23 7483 0
-24 7483 0
7483 0
-7484 61 62 63 64 65 66 0
-61 7484 0
-62 7484 0
-63 7484 0
-64 7484 0
-65 7484 0
-66 7484 0
7484 0
-7485 103 104 105 106 107 108 0
-103 7485 0
-104 7485 0
-105 7485 0
-106 7485 0
-107 7485 0
-108 7485 0
7485 0
-7486 109 110 111 112 113 114 0
-109 7486 0
-110 7486 0
-111 7486 0
-112 7486 0
-113 7486 0
-114 7486 0
7486 0
-7487 151 152 153 154 155 156 0
-151 7487 0
-152 7487 0
-153 7487 0
-154 7487 0
-155 7487 0
-156 7487 0
7487 0
-7488 193 194 195 196 197 198 0
-193 7488 0
-194 7488 0
-195 7488 0
-196 7488 0
-197 7488 0
-198 7488 0
7488 0
-7489 20 0
-20 7489 0
7489 19 21 22 23 24 0
-7490 62 0
-62 7490 0
7490 61 63 64 65 66 0
-7491 104 0
-104 7491 0
7491 103 105 106 107 108 0
-7492 110 0
-110 7492 0
7492 109 111 112 113 114 0
-7493 152 0
-152 7493 0
7493 151 153 154 155 156 0
-7494 194 0
-194 7494 0
7494 193 195 196 197 198 0
-7489 7495 0
-7490 7496 0
-7495 7496 0
-7490 -7495 0
-7491 7497 0
-7496 7497 0
-7491 -7496 0
-7492 7498 0
-7497 7498 0
-7492 -7497 0
-7493 7499 0
-7498 7499 0
-7493 -7498 0
-7494 -7499 0
-7501 20 21 0
-20 7501 0
-21 7501 0
7501 19 22 23 24 0
-7502 62 63 0
-62 7502 0
-63 7502 0
7502 61 64 65 66 0
-7503 104 105 0
-104 7503 0
-105 7503 0
7503 103 106 107 108 0
-7504 110 111 0
-110 7504 0
-111 7504 0
7504 109 112 113 114 0
-7505 152 153 0
-152 7505 0
-153 7505 0
7505 151 154 155 156 0
-7506 194 195 0
-194 7506 0
-195 7506 0
7506 193 196 197 198 0
-7501 7507 0
-7508 0
-7502 7509 0
-7507 7509 0
-7502 -7507 7510 0
-7508 7510 0
-7502 -7508 0
-7503 7511 0
-7509 7511 0
-7503 -7509 7512 0
-7510 7512 0
-7503 -7510 0
-7504 7513 0
-7511 7513 0
-7504 -7511 7514 0
-7512 7514 0
-7504 -7512 0
-7505 7515 0
-7513 7515 0
-7505 -7513 7516 0
-7514 7516 0
-7505 -7514 0
-7506 -7516 0
-7519 20 21 22 0
-20 7519 0
-21 7519 0
-22 7519 0
7519 19 23 24 0
-7520 62 63 64 0
-62 7520 0
-63 7520 0
-64 7520 0
7520 61 65 66 0
-7521 104 105 106 0
-104 7521 0
-105 7521 0
-106 7521 0
7521 103 107 108 0
-7522 110 111 112 0
-110 7522 0
-111 7522 0
-112 7522 0
7522 109 113 114 0
-7523 152 153 154 0
-152 7523 0
-153 7523 0
-154 7523 0
7523 151 155 156 0
-7524 194 195 196 0
-194 7524 0
-195 7524 0
-196 7524 0
7524 193 197 198 0
-7519 7525 0
-7526 0
-7527 0
-7520 7528 0
-7525 7528 0
-7520 -7525 7529 0
-7526 7529 0
-7520 -7526 7530 0
-7527 7530 0
-7520 -7527 0
-7521 7531 0
-7528 7531 0
-7521 -7528 7532 0
-7529 7532 0
-7521 -7529 7533 0
-7530 7533 0
-7521 -7530 0
-7522 7534 0
-7531 7534 0
-7522 -7531 7535 0
-7532 7535 0
-7522 -7532 7536 0
-7533 7536 0
-7522 -7533 0
-7523 7537 0
-7534 7537 0
-7523 -7534 7538 0
-7535 7538 0
-7523 -7535 7539 0
-7536 7539 0
-7523 -7536 0
-7524 -7539 0
-7543 20 21 22 23 0
-20 7543 0
-21 7543 0
-22 7543 0
-23 7543 0
7543 19 24 0
-7544 62 63 64 65 0
-62 7544 0
-63 7544 0
-64 7544 0
-65 7544 0
7544 61 66 0
-7545 104 105 106 107 0
-104 7545 0
-105 7545 0
-106 7545 0
-107 7545 0
7545 103 108 0
-7546 110 111 112 113 0
-110 7546 0
-111 7546 0
-112 7546 0
-113 7546 0
7546 109 114 0
-7547 152 153 154 155 0
-152 7547 0
-153 7547 0
-154 7547 0
-155 7547 0
7547 151 156 0
-7548 194 195 196 197 0
-194 7548 0
-195 7548 0
-196 7548 0
-197 7548 0
7548 193 198 0
-7543 7549 0
-7550 0
-7551 0
-7552 0
-7544 7553 0
-7549 7553 0
-7544 -7549 7554 0
-7550 7554 0
-7544 -7550 7555 0
-7551 7555 0
-7544 -7551 7556 0
-7552 7556 0
-7544 -7552 0
-7545 7557 0
-7553 7557 0
-7545 -7553 7558 0
-7554 7558 0
-7545 -7554 7559 0
-7555 7559 0
-7545 -7555 7560 0
-7556 7560 0
-7545 -7556 0
-7546 7561 0
-7557 7561 0
-7546 -7557 7562 0
-7558 7562 0
-7546 -7558 7563 0
-7559 7563 0
-7546 -7559 7564 0
-7560 7564 0
-7546 -7560 0
-7547 7565 0
-7561 7565 0
-7547 -7561 7566 0
-7562 7566 0
-7547 -7562 7567 0
-7563 7567 0
-7547 -7563 7568 0
-7564 7568 0
-7547 -7564 0
-7548 -7568 0
-7573 20 21 22 23 24 0
-20 7573 0
-21 7573 0
-22 7573 0
-23 7573 0
-24 7573 0
7573 19 0
-7574 62 63 64 65 66 0
-62 7574 0
-63 7574 0
-64 7574 0
-65 7574 0
-66 7574 0
7574 61 0
-7575 104 105 106 107 108 0
-104 7575 0
-105 7575 0
-106 7575 0
-107 7575 0
-108 7575 0
7575 103 0
-7576 110 111 112 113 114 0
-110 7576 0
-111 7576 0
-112 7576 0
-113 7576 0
-114 7576 0
7576 109 0
-7577 152 153 154 155 156 0
-152 7577 0
-153 7577 0
-154 7577 0
-155 7577 0
-156 7577 0
7577 151 0
-7578 194 195 196 197 198 0
-194 7578 0
-195 7578 0
-196 7578 0
-197 7578 0
-198 7578 0
7578 193 0
-7573 7579 0
-7580 0
-7581 0
-7582 0
-7583 0
-7574 7584 0
-7579 7584 0
-7574 -7579 7585 0
-7580 7585 0
-7574 -7580 7586 0
-7581 7586 0
-7574 -7581 7587 0
-7582 7587 0
-7574 -7582 7588 0
-7583 7588 0
-7574 -7583 0
-7575 7589 0
-7584 7589 0
-7575 -7584 7590 0
-7585 7590 0
-7575 -7585 7591 0
-7586 7591 0
-7575 -7586 7592 0
-7587 7592 0
-7575 -7587 7593 0
-7588 7593 0
-7575 -7588 0
-7576 7594 0
-7589 7594 0
-7576 -7589 7595 0
-7590 7595 0
-7576 -7590 7596 0
-7591 7596 0
-7576 -7591 7597 0
-7592 7597 0
-7576 -7592 7598 0
-7593 7598 0
-7576 -7593 0
-7577 7599 0
-7594 7599 0
-7577 -7594 7600 0
-7595 7600 0
-7577 -7595 7601 0
-7596 7601 0
-7577 -7596 7602 0
-7597 7602 0
-7577 -7597 7603 0
-7598 7603 0
-7577 -7598 0
-7578 -7603 0
-7609 21 0
-21 7609 0
7609 19 20 22 23 24 0
-7610 63 0
-63 7610 0
7610 61 62 64 65 66 0
-7611 105 0
-105 7611 0
7611 103 104 106 107 108 0
-7612 111 0
-111 7612 0
7612 109 110 112 113 114 0
-7613 153 0
-153 7613 0
7613 151 152 154 155 156 0
-7614 195 0
-195 7614 0
7614 193 194 196 197 198 0
-7609 7615 0
-7610 7616 0
-7615 7616 0
-7610 -7615 0
-7611 7617 0
-7616 7617 0
-7611 -7616 0
-7612 7618 0
-7617 7618 0
-7612 -7617 0
-7613 7619 0
-7618 7619 0
-7613 -7618 0
-7614 -7619 0
-7621 21 22 0
-21 7621 0
-22 7621 0
7621 19 20 23 24 0
-7622 63 64 0
-63 7622 0
-64 7622 0
7622 61 62 65 66 0
-7623 105 106 0
-105 7623 0
-106 7623 0
7623 103 104 107 108 0
-7624 111 112 0
-111 7624 0
-112 7624 0
7624 109 110 113 114 0
-7625 153 154 0
-153 7625 0
-154 7625 0
7625 151 152 155 156 0
-7626 195 196 0
-195 7626 0
-196 7626 0
7626 193 194 197 198 0
-7621 7627 0
-7628 0
-7622 7629 0
-7627 7629 0
-7622 -7627 7630 0
-7628 7630 0
-7622 -7628 0
-7623 7631 0
-7629 7631 0
-7623 -7629 7632 0
-7630 7632 0
-7623 -7630 0
-7624 7633 0
-7631 7633 0
-7624 -7631 7634 0
-7632 7634 0
-7624 -7632 0
-7625 7635 0
-7633 7635 0
-7625 -7633 7636 0
-7634 7636 0
-7625 -7634 0
-7626 -7636 0
-7639 21 22 23 0
-21 7639 0
-22 7639 0
-23 7639 0
7639 19 20 24 0
-7640 63 64 65 0
-63 7640 0
-64 7640 0
-65 7640 0
7640 61 62 66 0
-7641 105 106 107 0
-105 7641 0
-106 7641 0
-107 7641 0
7641 103 104 108 0
-7642 111 112 113 0
-111 7642 0
-112 7642 0
-113 7642 0
7642 109 110 114 0
-7643 153 154 155 0
-153 7643 0
-154 7643 0
-155 7643 0
7643 151 152 156 0
-7644 195 196 197 0
-195 7644 0
-196 7644 0
-197 7644 0
7644 193 194 198 0
-7639 7645 0
-7646 0
-7647 0
-7640 7648 0
-7645 7648 0
-7640 -7645 7649 0
-7646 7649 0
-7640 -7646 7650 0
-7647 7650 0
-7640 -7647 0
-7641 7651 0
-7648 7651 0
-7641 -7648 7652 0
-7649 7652 0
-7641 -7649 7653 0
-7650 7653 0
-7641 -7650 0
-7642 7654 0
-7651 7654 0
-7642 -7651 7655 0
-7652 7655 0
-7642 -7652 7656 0
-7653 7656 0
-7642 -7653 0
-7643 7657 0
-7654 7657 0
-7643 -7654 7658 0
-7655 7658 0
-7643 -7655 7659 0
-7656 7659 0
-7643 -7656 0
-7644 -7659 0
-7663 21 22 23 24 0
-21 7663 0
-22 7663 0
-23 7663 0
-24 7663 0
7663 19 20 0
-7664 63 64 65 66 0
-63 7664 0
-64 7664 0
-65 7664 0
-66 7664 0
7664 61 62 0
-7665 105 106 107 108 0
-105 7665 0
-106 7665 0
-107 7665 0
-108 7665 0
7665 103 104 0
-7666 111 112 113 114 0
-111 7666 0
-112 7666 0
-113 7666 0
-114 7666 0
7666 109 110 0
-7667 153 154 155 156 0
-153 7667 0
-154 7667 0
-155 7667 0
-156 7667 0
7667 151 152 0
-7668 195 196 197 198 0
-195 7668 0
-196 7668 0
-197 7668 0
-198 7668 0
7668 193 194 0
-7663 7669 0
-7670 0
-7671 0
-7672 0
-7664 7673 0
-7669 7673 0
-7664 -7669 7674 0
-7670 7674 0
-7664 -7670 7675 0
-7671 7675 0
-7664 -7671 7676 0
-7672 7676 0
-7664 -7672 0
-7665 7677 0
-7673 7677 0
-7665 -7673 7678 0
-7674 7678 0
-7665 -7674 7679 0
-7675 7679 0
-7665 -7675 7680 0
-7676 7680 0
-7665 -7676 0
-7666 7681 0
-7677 7681 0
-7666 -7677 7682 0
-7678 7682 0
-7666 -7678 7683 0
-7679 7683 0
-7666 -7679 7684 0
-7680 7684 0
-7666 -7680 0
-7667 7685 0
-7681 7685 0
-7667 -7681 7686 0
-7682 7686 0
-7667 -7682 7687 0
-7683 7687 0
-7667 -7683 7688 0
-7684 7688 0
-7667 -7684 0
-7668 -7688 0
-7693 22 0
-22 7693 0
7693 19 20 21 23 24 0
-7694 64 0
-64 7694 0
7694 61 62 63 65 66 0
-7695 106 0
-106 7695 0
7695 103 104 105 107 108 0
-7696 112 0
-112 7696 0
7696 109 110 111 113 114 0
-7697 154 0
-154 7697 0
7697 151 152 153 155 156 0
-7698 196 0
-196 7698 0
7698 193 194 195 197 198 0
-7693 7699 0
-7694 7700 0
-7699 7700 0
-7694 -7699 0
-7695 7701 0
-7700 7701 0
-7695 -7700 0
-7696 7702 0
-7701 7702 0
-7696 -7701 0
-7697 7703 0
-7702 7703 0
-7697 -7702 0
-7698 -7703 0
-7705 22 23 0
-22 7705 0
-23 7705 0
7705 19 20 21 24 0
-7706 64 65 0
-64 7706 0
-65 7706 0
7706 61 62 63 66 0
-7707 106 107 0
-106 7707 0
-107 7707 0
7707 103 104 105 108 0
-7708 112 113 0
-112 7708 0
-113 7708 0
7708 109 110 111 114 0
-7709 154 155 0
-154 7709 0
-155 7709 0
7709 151 152 153 156 0
-7710 196 197 0
-196 7710 0
-197 7710 0
7710 193 194 195 198 0
-7705 7711 0
-7712 0
-7706 7713 0
-7711 7713 0
-7706 -7711 7714 0
-7712 7714 0
-7706 -7712 0
-7707 7715 0
-7713 7715 0
-7707 -7713 7716 0
-7714 7716 0
-7707 -7714 0
-7708 7717 0
-7715 7717 0
-7708 -7715 7718 0
-7716 7718 0
-7708 -7716 0
-7709 7719 0
-7717 7719 0
-7709 -7717 7720 0
-7718 7720 0
-7709 -7718 0
-7710 -7720 0
-7723 22 23 24 0
-22 7723 0
-23 7723 0
-24 7723 0
7723 19 20 21 0
-7724 64 65 66 0
-64 7724 0
-65 7724 0
-66 7724 0
7724 61 62 63 0
-7725 106 107 108 0
-106 7725 0
-107 7725 0
-108 7725 0
7725 103 104 105 0
-7726 112 113 114 0
-112 7726 0
-113 7726 0
-114 7726 0
7726 109 110 111 0
-7727 154 155 156 0
-154 7727 0
-155 7727 0
-156 7727 0
7727 151 152 153 0
-7728 196 197 198 0
-196 7728 0
-197 7728 0
-198 7728 0
7728 193 194 195 0
-7723 7729 0
-7730 0
-7731 0
-7724 7732 0
-7729 7732 0
-7724 -7729 7733 0
-7730 7733 0
-7724 -7730 7734 0
-7731 7734 0
-7724 -7731 0
-7725 7735 0
-7732 7735 0
-7725 -7732 7736 0
-7733 7736 0
-7725 -7733 7737 0
-7734 7737 0
-7725 -7734 0
-7726 7738 0
-7735 7738 0
-7726 -7735 7739 0
-7736 7739 0
-7726 -7736 7740 0
-7737 7740 0
-7726 -7737 0
-7727 7741 0
-7738 7741 0
-7727 -7738 7742 0
-7739 7742 0
-7727 -7739 7743 0
-7740 7743 0
-7727 -7740 0
-7728 -7743 0
-7747 23 0
-23 7747 0
7747 19 20 21 22 24 0
-7748 65 0
-65 7748 0
7748 61 62 63 64 66 0
-7749 107 0
-107 7749 0
7749 103 104 105 106 108 0
-7750 113 0
-113 7750 0
7750 109 110 111 112 114 0
-7751 155 0
-155 7751 0
7751 151 152 153 154 156 0
-7752 197 0
-197 7752 0
7752 193 194 195 196 198 0
-7747 7753 0
-7748 7754 0
-7753 7754 0
-7748 -7753 0
-7749 7755 0
-7754 7755 0
-7749 -7754 0
-7750 7756 0
-7755 7756 0
-7750 -7755 0
-7751 7757 0
-7756 7757 0
-7751 -7756 0
-7752 -7757 0
-7759 23 24 0
-23 7759 0
-24 7759 0
7759 19 20 21 22 0
-7760 65 66 0
-65 7760 0
-66 7760 0
7760 61 62 63 64 0
-7761 107 108 0
-107 7761 0
-108 7761 0
7761 103 104 105 106 0
-7762 113 114 0
-113 7762 0
-114 7762 0
7762 109 110 111 112 0
-7763 155 156 0
-155 7763 0
-156 7763 0
7763 151 152 153 154 0
-7764 197 198 0
-197 7764 0
-198 7764 0
7764 193 194 195 196 0
-7759 7765 0
-7766 0
-7760 7767 0
-7765 7767 0
-7760 -7765 7768 0
-7766 7768 0
-7760 -7766 0
-7761 7769 0
-7767 7769 0
-7761 -7767 7770 0
-7768 7770 0
-7761 -7768 0
-7762 7771 0
-7769 7771 0
-7762 -7769 7772 0
-7770 7772 0
-7762 -7770 0
-7763 7773 0
-7771 7773 0
-7763 -7771 7774 0
-7772 7774 0
-7763 -7772 0
-7764 -7774 0
-7777 24 0
-24 7777 0
7777 19 20 21 22 23 0
-7778 66 0
-66 7778 0
7778 61 62 63 64 65 0
-7779 108 0
-108 7779 0
7779 103 104 105 106 107 0
-7780 114 0
-114 7780 0
7780 109 110 111 112 113 0
-7781 156 0
-156 7781 0
7781 151 152 153 154 155 0
-7782 198 0
-198 7782 0
7782 193 194 195 196 197 0
-7777 7783 0
-7778 7784 0
-7783 7784 0
-7778 -7783 0
-7779 7785 0
-7784 7785 0
-7779 -7784 0
-7780 7786 0
-7785 7786 0
-7780 -7785 0
-7781 7787 0
-7786 7787 0
-7781 -7786 0
-7782 -7787 0
-19 7789 0
-61 7790 0
-7789 7790 0
-61 -7789 0
-103 7791 0
-7790 7791 0
-103 -7790 0
-109 7792 0
-7791 7792 0
-109 -7791 0
-151 7793 0
-7792 7793 0
-151 -7792 0
-193 -7793 0
19 61 103 109 151 193 0
-20 7795 0
-62 7796 0
-7795 7796 0
-62 -7795 0
-104 7797 0
-7796 7797 0
-104 -7796 0
-110 7798 0
-7797 7798 0
-110 -7797 0
-152 7799 0
-7798 7799 0
-152 -7798 0
-194 -7799 0
20 62 104 110 152 194 0
-21 7801 0
-63 7802 0
-7801 7802 0
-63 -7801 0
-105 7803 0
-7802 7803 0
-105 -7802 0
-111 7804 0
-7803 7804 0
-111 -7803 0
-153 7805 0
-7804 7805 0
-153 -7804 0
-195 -7805 0
21 63 105 111 153 195 0
-22 7807 0
-64 7808 0
-7807 7808 0
-64 -7807 0
-106 7809 0
-7808 7809 0
-106 -7808 0
-112 7810 0
-7809 7810 0
-112 -7809 0
-154 7811 0
-7810 7811 0
-154 -7810 0
-196 -7811 0
22 64 106 112 154 196 0
-23 7813 0
-65 7814 0
-7813 7814 0
-65 -7813 0
-107 7815 0
-7814 7815 0
-107 -7814 0
-113 7816 0
-7815 7816 0
-113 -7815 0
-155 7817 0
-7816 7817 0
-155 -7816 0
-197 -7817 0
23 65 107 113 155 197 0
-24 7819 0
-66 7820 0
-7819 7820 0
-66 -7819 0
-108 7821 0
-7820 7821 0
-108 -7820 0
-114 7822 0
-7821 7822 0
-114 -7821 0
-156 7823 0
-7822 7823 0
-156 -7822 0
-198 -7823 0
24 66 108 114 156 198 0
-7825 25 0
-25 7825 0
7825 26 27 28 29 30 0
-7826 67 0
-67 7826 0
7826 68 69 70 71 72 0
-7827 73 0
-73 7827 0
7827 74 75 76 77 78 0
-7828 115 0
-115 7828 0
7828 116 117 118 119 120 0
-7829 157 0
-157 7829 0
7829 158 159 160 161 162 0
-7830 199 0
-199 7830 0
7830 200 201 202 203 204 0
-7825 7831 0
-7826 7832 0
-7831 7832 0
-7826 -7831 0
-7827 7833 0
-7832 7833 0
-7827 -7832 0
-7828 7834 0
-7833 7834 0
-7828 -7833 0
-7829 7835 0
-7834 7835 0
-7829 -7834 0
-7830 -7835 0
-7837 25 26 0
-25 7837 0
-26 7837 0
7837 27 28 29 30 0
-7838 67 68 0
-67 7838 0
-68 7838 0
7838 69 70 71 72 0
-7839 73 74 0
-73 7839 0
-74 7839 0
7839 75 76 77 78 0
-7840 115 116 0
-115 7840 0
-116 7840 0
7840 117 118 119 120 0
-7841 157 158 0
-157 7841 0
-158 7841 0
7841 159 160 161 162 0
-7842 199 200 0
-199 7842 0
-200 7842 0
7842 201 202 203 204 0
-7837 7843 0
-7844 0
-7838 7845 0
-7843 7845 0
-7838 -7843 7846 0
-7844 7846 0
-7838 -7844 0
-7839 7847 0
-7845 7847 0
-7839 -7845 7848 0
-7846 7848 0
-7839 -7846 0
-7840 7849 0
-7847 7849 0
-7840 -7847 7850 0
-7848 7850 0
-7840 -7848 0
-7841 7851 0
-7849 7851 0
-7841 -7849 7852 0
-7850 7852 0
-7841 -7850 0
-7842 -7852 0
-7855 25 26 27 0
-25 7855 0
-26 7855 0
-27 7855 0
7855 28 29 30 0
-7856 67 68 69 0
-67 7856 0
-68 7856 0
-69 7856 0
7856 70 71 72 0
-7857 73 74 75 0
-73 7857 0
-74 7857 0
-75 7857 0
7857 76 77 78 0
-7858 115 116 117 0
-115 7858 0
-116 7858 0
-117 7858 0
7858 118 119 120 0
-7859 157 158 159 0
-157 7859 0
-158 7859 0
-159 7859 0
7859 160 161 162 0
-7860 199 200 201 0
-199 7860 0
-200 7860 0
-201 7860 0
7860 202 203 204 0
-7855 7861 0
-7862 0
-7863 0
-7856 7864 0
-7861 7864 0
-7856 -7861 7865 0
-7862 7865 0
-7856 -7862 7866 0
-7863 7866 0
-7856 -7863 0
-7857 7867 0
-7864 7867 0
-7857 -7864 7868 0
-7865 7868 0
-7857 -7865 7869 0
-7866 7869 0
-7857 -7866 0
-7858 7870 0
-7867 7870 0
-7858 -7867 7871 0
-7868 7871 0
-7858 -7868 7872 0
-7869 7872 0
-7858 -7869 0
-7859 7873 0
-7870 7873 0
-7859 -7870 7874 0
-7871 7874 0
-7859 -7871 7875 0
-7872 7875 0
-7859 -7872 0
-7860 -7875 0
-7879 25 26 27 28 0
-25 7879 0
-26 7879 0
-27 7879 0
-28 7879 0
7879 29 30 0
-7880 67 68 69 70 0
-67 7880 0
-68 7880 0
-69 7880 0
-70 7880 0
7880 71 72 0
-7881 73 74 75 76 0
-73 7881 0
-74 7881 0
-75 7881 0
-76 7881 0
7881 77 78 0
-7882 115 116 117 118 0
-115 7882 0
-116 7882 0
-117 7882 0
-118 7882 0
7882 119 120 0
-7883 157 158 159 160 0
-157 7883 0
-158 7883 0
-159 7883 0
-160 7883 0
7883 161 162 0
-7884 199 200 201 202 0
-199 7884 0
-200 7884 0
-201 7884 0
-202 7884 0
7884 203 204 0
-7879 7885 0
-7886 0
-7887 0
-7888 0
-7880 7889 0
-7885 7889 0
-7880 -7885 7890 0
-7886 7890 0
-7880 -7886 7891 0
-7887 7891 0
-7880 -7887 7892 0
-7888 7892 0
-7880 -7888 0
-7881 7893 0
-7889 7893 0
-7881 -7889 7894 0
-7890 7894 0
-7881 -7890 7895 0
-7891 7895 0
-7881 -7891 7896 0
-7892 7896 0
-7881 -7892 0
-7882 7897 0
-7893 7897 0
-7882 -7893 7898 0
-7894 7898 0
-7882 -7894 7899 0
-7895 7899 0
-7882 -7895 7900 0
-7896 7900 0
-7882 -7896 0
-7883 7901 0
-7897 7901 0
-7883 -7897 7902 0
-7898 7902 0
-7883 -7898 7903 0
-7899 7903 0
-7883 -7899 7904 0
-7900 7904 0
-7883 -7900 0
-7884 -7904 0
-7909 25 26 27 28 29 0
-25 7909 0
-26 7909 0
-27 7909 0
-28 7909 0
-29 7909 0
7909 30 0
-7910 67 68 69 70 71 0
-67 7910 0
-68 7910 0
-69 7910 0
-70 7910 0
-71 7910 0
7910 72 0
-7911 73 74 75 76 77 0
-73 7911 0
-74 7911 0
-75 7911 0
-76 7911 0
-77 7911 0
7911 78 0
-7912 115 116 117 118 119 0
-115 7912 0
-116 7912 0
-117 7912 0
-118 7912 0
-119 7912 0
7912 120 0
-7913 157 158 159 160 161 0
-157 7913 0
-158 7913 0
-159 7913 0
-160 7913 0
-161 7913 0
7913 162 0
-7914 199 200 201 202 203 0
-199 7914 0
-200 7914 0
-201 7914 0
-202 7914 0
-203 7914 0
7914 204 0
-7909 7915 0
-7916 0
-7917 0
-7918 0
-7919 0
-7910 7920 0
-7915 7920 0
-7910 -7915 7921 0
-7916 7921 0
-7910 -7916 7922 0
-7917 7922 0
-7910 -7917 7923 0
-7918 7923 0
-7910 -7918 7924 0
-7919 7924 0
-7910 -7919 0
-7911 7925 0
-7920 7925 0
-7911 -7920 7926 0
-7921 7926 0
-7911 -7921 7927 0
-7922 7927 0
-7911 -7922 7928 0
-7923 7928 0
-7911 -7923 7929 0
-7924 7929 0
-7911 -7924 0
-7912 7930 0
-7925 7930 0
-7912 -7925 7931 0
-7926 7931 0
-7912 -7926 7932 0
-7927 7932 0
-7912 -7927 7933 0
-7928 7933 0
-7912 -7928 7934 0
-7929 7934 0
-7912 -7929 0
-7913 7935 0
-7930 7935 0
-7913 -7930 7936 0
-7931 7936 0
-7913 -7931 7937 0
-7932 7937 0
-7913 -7932 7938 0
-7933 7938 0
-7913 -7933 7939 0
-7934 7939 0
-7913 -7934 0
-7914 -7939 0
-7945 25 26 27 28 29 30 0
-25 7945 0
-26 7945 0
-27 7945 0
-28 7945 0
-29 7945 0
-30 7945 0
7945 0
-7946 67 68 69 70 71 72 0
-67 7946 0
-68 7946 0
-69 7946 0
-70 7946 0
-71 7946 0
-72 7946 0
7946 0
-7947 73 74 75 76 77 78 0
-73 7947 0
-74 7947 0
-75 7947 0
-76 7947 0
-77 7947 0
-78 7947 0
7947 0
-7948 115 116 117 118 119 120 0
-115 7948 0
-116 7948 0
-117 7948 0
-118 7948 0
-119 7948 0
-120 7948 0
7948 0
-7949 157 158 159 160 161 162 0
-157 7949 0
-158 7949 0
-159 7949 0
-160 7949 0
-161 7949 0
-162 7949 0
7949 0
-7950 199 200 201 202 203 204 0
-199 7950 0
-200 7950 0
-201 7950 0
-202 7950 0
-203 7950 0
-204 7950 0
7950 0
-7951 26 0
-26 7951 0
7951 25 27 28 29 30 0
-7952 68 0
-68 7952 0
7952 67 69 70 71 72 0
-7953 74 0
-74 7953 0
7953 73 75 76 77 78 0
-7954 116 0
-116 7954 0
7954 115 117 118 119 120 0
-7955 158 0
-158 7955 0
7955 157 159 160 161 162 0
-7956 200 0
-200 7956 0
7956 199 201 202 203 204 0
-7951 7957 0
-7952 7958 0
-7957 7958 0
-7952 -7957 0
-7953 7959 0
-7958 7959 0
-7953 -7958 0
-7954 7960 0
-7959 7960 0
-7954 -7959 0
-7955 7961 0
-7960 7961 0
-7955 -7960 0
-7956 -7961 0
-7963 26 27 0
-26 7963 0
-27 7963 0
7963 25 28 29 30 0
-7964 68 69 0
-68 7964 0
-69 7964 0
7964 67 70 71 72 0
-7965 74 75 0
-74 7965 0
-75 7965 0
7965 73 76 77 78 0
-7966 116 117 0
-116 7966 0
-117 7966 0
7966 115 118 119 120 0
-7967 158 159 0
-158 7967 0
-159 7967 0
7967 157 160 161 162 0
-7968 200 201 0
-200 7968 0
-201 7968 0
7968 199 202 203 204 0
-7963 7969 0
-7970 0
-7964 7971 0
-7969 7971 0
-7964 -7969 7972 0
-7970 7972 0
-7964 -7970 0
-7965 7973 0
-7971 7973 0
-7965 -7971 7974 0
-7972 7974 0
-7965 -7972 0
-7966 7975 0
-7973 7975 0
-7966 -7973 7976 0
-7974 7976 0
-7966 -7974 0
-7967 7977 0
-7975 7977 0
-7967 -7975 7978 0
-7976 7978 0
-7967 -7976 0
-7968 -7978 0
-7981 26 27 28 0
-26 7981 0
-27 7981 0
-28 7981 0
7981 25 29 30 0
-7982 68 69 70 0
-68 7982 0
-69 7982 0
-70 7982 0
7982 67 71 72 0
-7983 74 75 76 0
-74 7983 0
-75 7983 0
-76 7983 0
7983 73 77 78 0
-7984 116 117 118 0
-116 7984 0
-117 7984 0
-118 7984 0
7984 115 119 120 0
-7985 158 159 160 0
-158 7985 0
-159 7985 0
-160 7985 0
7985 157 161 162 0
-7986 200 201 202 0
-200 7986 0
-201 7986 0
-202 7986 0
7986 199 203 204 0
-7981 7987 0
-7988 0
-7989 0
-7982 7990 0
-7987 7990 0
-7982 -7987 7991 0
-7988 7991 0
-7982 -7988 7992 0
-7989 7992 0
-7982 -7989 0
-7983 7993 0
-7990 7993 0
-7983 -7990 7994 0
-7991 7994 0
-7983 -7991 7995 0
-7992 7995 0
-7983 -7992 0
-7984 7996 0
-7993 7996 0
-7984 -7993 7997 0
-7994 7997 0
-7984 -7994 7998 0
-7995 7998 0
-7984 -7995 0
-7985 7999 0
-7996 7999 0
-7985 -7996 8000 0
-7997 8000 0
-7985 -7997 8001 0
-7998 8001 0
-7985 -7998 0
-7986 -8001 0
-8005 26 27 28 29 0
-26 8005 0
-27 8005 0
-28 8005 0
-29 8005 0
8005 25 30 0
-8006 68 69 70 71 0
-68 8006 0
-69 8006 0
-70 8006 0
-71 8006 0
8006 67 72 0
-8007 74 75 76 77 0
-74 8007 0
-75 8007 0
-76 8007 0
-77 8007 0
8007 73 78 0
-8008 116 117 118 119 0
-116 8008 0
-117 8008 0
-118 8008 0
-119 8008 0
8008 115 120 0
-8009 158 159 160 161 0
-158 8009 0
-159 8009 0
-160 8009 0
-161 8009 0
8009 157 162 0
-8010 200 201 202 203 0
-200 8010 0
-201 8010 0
-202 8010 0
-203 8010 0
8010 199 204 0
-8005 8011 0
-8012 0
-8013 0
-8014 0
-8006 8015 0
-8011 8015 0
-8006 -8011 8016 0
-8012 8016 0
-8006 -8012 8017 0
-8013 8017 0
-8006 -8013 8018 0
-8014 8018 0
-8006 -8014 0
-8007 8019 0
-8015 8019 0
-8007 -8015 8020 0
-8016 8020 0
-8007 -8016 8021 0
-8017 8021 0
-8007 -8017 8022 0
-8018 8022 0
-8007 -8018 0
-8008 8023 0
-8019 8023 0
-8008 -8019 8024 0
-8020 8024 0
-8008 -8020 8025 0
-8021 8025 0
-8008 -8021 8026 0
-8022 8026 0
-8008 -8022 0
-8009 8027 0
-8023 8027 0
-8009 -8023 8028 0
-8024 8028 0
-8009 -8024 8029 0
-8025 8029 0
-8009 -8025 8030 0
-8026 8030 0
-8009 -8026 0
-8010 -8030 0
-8035 26 27 28 29 30 0
-26 8035 0
-27 8035 0
-28 8035 0
-29 8035 0
-30 8035 0
8035 25 0
-8036 68 69 70 71 72 0
-68 8036 0
-69 8036 0
-70 8036 0
-71 8036 0
-72 8036 0
8036 67 0
-8037 74 75 76 77 78 0
-74 8037 0
-75 8037 0
-76 8037 0
-77 8037 0
-78 8037 0
8037 73 0
-8038 116 117 118 119 120 0
-116 8038 0
-117 8038 0
-118 8038 0
-119 8038 0
-120 8038 0
8038 115 0
-8039 158 159 160 161 162 0
-158 8039 0
-159 8039 0
-160 8039 0
-161 8039 0
-162 8039 0
8039 157 0
-8040 200 201 202 203 204 0
-200 8040 0
-201 8040 0
-202 8040 0
-203 8040 0
-204 8040 0
8040 199 0
-8035 8041 0
-8042 0
-8043 0
-8044 0
-8045 0
-8036 8046 0
-8041 8046 0
-8036 -8041 8047 0
-8042 8047 0
-8036 -8042 8048 0
-8043 8048 0
-8036 -8043 8049 0
-8044 8049 0
-8036 -8044 8050 0
-8045 8050 0
-8036 -8045 0
-8037 8051 0
-8046 8051 0
-8037 -8046 8052 0
-8047 8052 0
-8037 -8047 8053 0
-8048 8053 0
-8037 -8048 8054 0
-8049 8054 0
-8037 -8049 8055 0
-8050 8055 0
-8037 -8050 0
-8038 8056 0
-8051 8056 0
-8038 -8051 8057 0
-8052 8057 0
-8038 -8052 8058 0
-8053 8058 0
-8038 -8053 8059 0
-8054 8059 0
-8038 -8054 8060 0
-8055 8060 0
-8038 -8055 0
-8039 8061 0
-8056 8061 0
-8039 -8056 8062 0
-8057 8062 0
-8039 -8057 8063 0
-8058 8063 0
-8039 -8058 8064 0
-8059 8064 0
-8039 -8059 8065 0
-8060 8065 0
-8039 -8060 0
-8040 -8065 0
-8071 27 0
-27 8071 0
8071 25 26 28 29 30 0
-8072 69 0
-69 8072 0
8072 67 68 70 71 72 0
-8073 75 0
-75 8073 0
8073 73 74 76 77 78 0
-8074 117 0
-117 8074 0
8074 115 116 118 119 120 0
-8075 159 0
-159 8075 0
8075 157 158 160 161 162 0
-8076 201 0
-201 8076 0
8076 199 200 202 203 204 0
-8071 8077 0
-8072 8078 0
-8077 8078 0
-8072 -8077 0
-8073 8079 0
-8078 8079 0
-8073 -8078 0
-8074 8080 0
-8079 8080 0
-8074 -8079 0
-8075 8081 0
-8080 8081 0
-8075 -8080 0
-8076 -8081 0
-8083 27 28 0
-27 8083 0
-28 8083 0
8083 25 26 29 30 0
-8084 69 70 0
-69 8084 0
-70 8084 0
8084 67 68 71 72 0
-8085 75 76 0
-75 8085 0
-76 8085 0
8085 73 74 77 78 0
-8086 117 118 0
-117 8086 0
-118 8086 0
8086 115 116 119 120 0
-8087 159 160 0
-159 8087 0
-160 8087 0
8087 157 158 161 162 0
-8088 201 202 0
-201 8088 0
-202 8088 0
8088 199 200 203 204 0
-8083 8089 0
-8090 0
-8084 8091 0
-8089 8091 0
-8084 -8089 8092 0
-8090 8092 0
-8084 -8090 0
-8085 8093 0
-8091 8093 0
-8085 -8091 8094 0
-8092 8094 0
-8085 -8092 0
-8086 8095 0
-8093 8095 0
-8086 -8093 8096 0
-8094 8096 0
-8086 -8094 0
-8087 8097 0
-8095 8097 0
-8087 -8095 8098 0
-8096 8098 0
-8087 -8096 0
-8088 -8098 0
-8101 27 28 29 0
-27 8101 0
-28 8101 0
-29 8101 0
8101 25 26 30 0
-8102 69 70 71 0
-69 8102 0
-70 8102 0
-71 8102 0
8102 67 68 72 0
-8103 75 76 77 0
-75 8103 0
-76 8103 0
-77 8103 0
8103 73 74 78 0
-8104 117 118 119 0
-117 8104 0
-118 8104 0
-119 8104 0
8104 115 116 120 0
-8105 159 160 161 0
-159 8105 0
-160 8105 0
-161 8105 0
8105 157 158 162 0
-8106 201 202 203 0
-201 8106 0
-202 8106 0
-203 8106 0
8106 199 200 204 0
-8101 8107 0
-8108 0
-8109 0
-8102 8110 0
-8107 8110 0
-8102 -8107 8111 0
-8108 8111 0
-8102 -8108 8112 0
-8109 8112 0
-8102 -8109 0
-8103 8113 0
-8110 8113 0
-8103 -8110 8114 0
-8111 8114 0
-8103 -8111 8115 0
-8112 8115 0
-8103 -8112 0
-8104 8116 0
-8113 8116 0
-8104 -8113 8117 0
-8114 8117 0
-8104 -8114 8118 0
-8115 8118 0
-8104 -8115 0
-8105 8119 0
-8116 8119 0
-8105 -8116 8120 0
-8117 8120 0
-8105 -8117 8121 0
-8118 8121 0
-8105 -8118 0
-8106 -8121 0
-8125 27 28 29 30 0
-27 8125 0
-28 8125 0
-29 8125 0
-30 8125 0
8125 25 26 0
-8126 69 70 71 72 0
-69 8126 0
-70 8126 0
-71 8126 0
-72 8126 0
8126 67 68 0
-8127 75 76 77 78 0
-75 8127 0
-76 8127 0
-77 8127 0
-78 8127 0
8127 73 74 0
-8128 117 118 119 120 0
-117 8128 0
-118 8128 0
-119 8128 0
-120 8128 0
8128 115 116 0
-8129 159 160 161 162 0
-159 8129 0
-160 8129 0
-161 8129 0
-162 8129 0
8129 157 158 0
-8130 201 202 203 204 0
-201 8130 0
-202 8130 0
-203 8130 0
-204 8130 0
8130 199 200 0
-8125 8131 0
-8132 0
-8133 0
-8134 0
-8126 8135 0
-8131 8135 0
-8126 -8131 8136 0
-8132 8136 0
-8126 -8132 8137 0
-8133 8137 0
-8126 -8133 8138 0
-8134 8138 0
-8126 -8134 0
-8127 8139 0
-8135 8139 0
-8127 -8135 8140 0
-8136 8140 0
-8127 -8136 8141 0
-8137 8141 0
-8127 -8137 8142 0
-8138 8142 0
-8127 -8138 0
-8128 8143 0
-8139 8143 0
-8128 -8139 8144 0
-8140 8144 0
-8128 -8140 8145 0
-8141 8145 0
-8128 -8141 8146 0
-8142 8146 0
-8128 -8142 0
-8129 8147 0
-8143 8147 0
-8129 -8143 8148 0
-8144 8148 0
-8129 -8144 8149 0
-8145 8149 0
-8129 -8145 8150 0
-8146 8150 0
-8129 -8146 0
-8130 -8150 0
-8155 28 0
-28 8155 0
8155 25 26 27 29 30 0
-8156 70 0
-70 8156 0
8156 67 68 69 71 72 0
-8157 76 0
-76 8157 0
8157 73 74 75 77 78 0
-8158 118 0
-118 8158 0
8158 115 116 117 119 120 0
-8159 160 0
-160 8159 0
8159 157 158 159 161 162 0
-8160 202 0
-202 8160 0
8160 199 200 201 203 204 0
-8155 8161 0
-8156 8162 0
-8161 8162 0
-8156 -8161 0
-8157 8163 0
-8162 8163 0
-8157 -8162 0
-8158 8164 0
-8163 8164 0
-8158 -8163 0
-8159 8165 0
-8164 8165 0
-8159 -8164 0
-8160 -8165 0
-8167 28 29 0
-28 8167 0
-29 8167 0
8167 25 26 27 30 0
-8168 70 71 0
-70 8168 0
-71 8168 0
8168 67 68 69 72 0
-8169 76 77 0
-76 8169 0
-77 8169 0
8169 73 74 75 78 0
-8170 118 119 0
-118 8170 0
-119 8170 0
8170 115 116 117 120 0
-8171 160 161 0
-160 8171 0
-161 8171 0
8171 157 158 159 162 0
-8172 202 203 0
-202 8172 0
-203 8172 0
8172 199 200 201 204 0
-8167 8173 0
-8174 0
-8168 8175 0
-8173 8175 0
-8168 -8173 8176 0
-8174 8176 0
-8168 -8174 0
-8169 8177 0
-8175 8177 0
-8169 -8175 8178 0
-8176 8178 0
-8169 -8176 0
-8170 8179 0
-8177 8179 0
-8170 -8177 8180 0
-8178 8180 0
-8170 -8178 0
-8171 8181 0
-8179 8181 0
-8171 -8179 8182 0
-8180 8182 0
-8171 -8180 0
-8172 -8182 0
-8185 28 29 30 0
-28 8185 0
-29 8185 0
-30 8185 0
8185 25 26 27 0
-8186 70 71 72 0
-70 8186 0
-71 8186 0
-72 8186 0
8186 67 68 69 0
-8187 76 77 78 0
-76 8187 0
-77 8187 0
-78 8187 0
8187 73 74 75 0
-8188 118 119 120 0
-118 8188 0
-119 8188 0
-120 8188 0
8188 115 116 117 0
-8189 160 161 162 0
-160 8189 0
-161 8189 0
-162 8189 0
8189 157 158 159 0
-8190 202 203 204 0
-202 8190 0
-203 8190 0
-204 8190 0
8190 199 200 201 0
-8185 8191 0
-8192 0
-8193 0
-8186 8194 0
-8191 8194 0
-8186 -8191 8195 0
-8192 8195 0
-8186 -8192 8196 0
-8193 8196 0
-8186 -8193 0
-8187 8197 0
-8194 8197 0
-8187 -8194 8198 0
-8195 8198 0
-8187 -8195 8199 0
-8196 8199 0
-8187 -8196 0
-8188 8200 0
-8197 8200 0
-8188 -8197 8201 0
-8198 8201 0
-8188 -8198 8202 0
-8199 8202 0
-8188 -8199 0
-8189 8203 0
-8200 8203 0
-8189 -8200 8204 0
-8201 8204 0
-8189 -8201 8205 0
-8202 8205 0
-8189 -8202 0
-8190 -8205 0
-8209 29 0
-29 8209 0
8209 25 26 27 28 30 0
-8210 71 0
-71 8210 0
8210 67 68 69 70 72 0
-8211 77 0
-77 8211 0
8211 73 74 75 76 78 0
-8212 119 0
-119 8212 0
8212 115 116 117 118 120 0
-8213 161 0
-161 8213 0
8213 157 158 159 160 162 0
-8214 203 0
-203 8214 0
8214 199 200 201 202 204 0
-8209 8215 0
-8210 8216 0
-8215 8216 0
-8210 -8215 0
-8211 8217 0
-8216 8217 0
-8211 -8216 0
-8212 8218 0
-8217 8218 0
-8212 -8217 0
-8213 8219 0
-8218 8219 0
-8213 -8218 0
-8214 -8219 0
-8221 29 30 0
-29 8221 0
-30 8221 0
8221 25 26 27 28 0
-8222 71 72 0
-71 8222 0
-72 8222 0
8222 67 68 69 70 0
-8223 77 78 0
-77 8223 0
-78 8223 0
8223 73 74 75 76 0
-8224 119 120 0
-119 8224 0
-120 8224 0
8224 115 116 117 118 0
-8225 161 162 0
-161 8225 0
-162 8225 0
8225 157 158 159 160 0
-8226 203 204 0
-203 8226 0
-204 8226 0
8226 199 200 201 202 0
-8221 8227 0
-8228 0
-8222 8229 0
-8227 8229 0
-8222 -8227 8230 0
-8228 8230 0
-8222 -8228 0
-8223 8231 0
-8229 8231 0
-8223 -8229 8232 0
-8230 8232 0
-8223 -8230 0
-8224 8233 0
-8231 8233 0
-8224 -8231 8234 0
-8232 8234 0
-8224 -8232 0
-8225 8235 0
-8233 8235 0
-8225 -8233 8236 0
-8234 8236 0
-8225 -8234 0
-8226 -8236 0
-8239 30 0
-30 8239 0
8239 25 26 27 28 29 0
-8240 72 0
-72 8240 0
8240 67 68 69 70 71 0
-8241 78 0
-78 8241 0
8241 73 74 75 76 77 0
-8242 120 0
-120 8242 0
8242 115 116 117 118 119 0
-8243 162 0
-162 8243 0
8243 157 158 159 160 161 0
-8244 204 0
-204 8244 0
8244 199 200 201 202 203 0
-8239 8245 0
-8240 8246 0
-8245 8246 0
-8240 -8245 0
-8241 8247 0
-8246 8247 0
-8241 -8246 0
-8242 8248 0
-8247 8248 0
-8242 -8247 0
-8243 8249 0
-8248 8249 0
-8243 -8248 0
-8244 -8249 0
-25 8251 0
-67 8252 0
-8251 8252 0
-67 -8251 0
-73 8253 0
-8252 8253 0
-73 -8252 0
-115 8254 0
-8253 8254 0
-115 -8253 0
-157 8255 0
-8254 8255 0
-157 -8254 0
-199 -8255 0
25 67 73 115 157 199 0
-26 8257 0
-68 8258 0
-8257 8258 0
-68 -8257 0
-74 8259 0
-8258 8259 0
-74 -8258 0
-116 8260 0
-8259 8260 0
-116 -8259 0
-158 8261 0
-8260 8261 0
-158 -8260 0
-200 -8261 0
26 68 74 116 158 200 0
-27 8263 0
-69 8264 0
-8263 8264 0
-69 -8263 0
-75 8265 0
-8264 8265 0
-75 -8264 0
-117 8266 0
-8265 8266 0
-117 -8265 0
-159 8267 0
-8266 8267 0
-159 -8266 0
-201 -8267 0
27 69 75 117 159 201 0
-28 8269 0
-70 8270 0
-8269 8270 0
-70 -8269 0
-76 8271 0
-8270 8271 0
-76 -8270 0
-118 8272 0
-8271 8272 0
-118 -8271 0
-160 8273 0
-8272 8273 0
-160 -8272 0
-202 -8273 0
28 70 76 118 160 202 0
-29 8275 0
-71 8276 0
-8275 8276 0
-71 -8275 0
-77 8277 0
-8276 8277 0
-77 -8276 0
-119 8278 0
-8277 8278 0
-119 -8277 0
-161 8279 0
-8278 8279 0
-161 -8278 0
-203 -8279 0
29 71 77 119 161 203 0
-30 8281 0
-72 8282 0
-8281 8282 0
-72 -8281 0
-78 8283 0
-8282 8283 0
-78 -8282 0
-120 8284 0
-8283 8284 0
-120 -8283 0
-162 8285 0
-8284 8285 0
-162 -8284 0
-204 -8285 0
30 72 78 120 162 204 0
-8287 31 0
-31 8287 0
8287 32 33 34 35 36 0
-8288 37 0
-37 8288 0
8288 38 39 40 41 42 0
-8289 79 0
-79 8289 0
8289 80 81 82 83 84 0
-8290 121 0
-121 8290 0
8290 122 123 124 125 126 0
-8291 163 0
-163 8291 0
8291 164 165 166 167 168 0
-8292 205 0
-205 8292 0
8292 206 207 208 209 210 0
-8287 8293 0
-8288 8294 0
-8293 8294 0
-8288 -8293 0
-8289 8295 0
-8294 8295 0
-8289 -8294 0
-8290 8296 0
-8295 8296 0
-8290 -8295 0
-8291 8297 0
-8296 8297 0
-8291 -8296 0
-8292 -8297 0
-8299 31 32 0
-31 8299 0
-32 8299 0
8299 33 34 35 36 0
-8300 37 38 0
-37 8300 0
-38 8300 0
8300 39 40 41 42 0
-8301 79 80 0
-79 8301 0
-80 8301 0
8301 81 82 83 84 0
-8302 121 122 0
-121 8302 0
-122 8302 0
8302 123 124 125 126 0
-8303 163 164 0
-163 8303 0
-164 8303 0
8303 165 166 167 168 0
-8304 205 206 0
-205 8304 0
-206 8304 0
8304 207 208 209 210 0
-8299 8305 0
-8306 0
-8300 8307 0
-8305 8307 0
-8300 -8305 8308 0
-8306 8308 0
-8300 -8306 0
-8301 8309 0
-8307 8309 0
-8301 -8307 8310 0
-8308 8310 0
-8301 -8308 0
-8302 8311 0
-8309 8311 0
-8302 -8309 8312 0
-8310 8312 0
-8302 -8310 0
-8303 8313 0
-8311 8313 0
-8303 -8311 8314 0
-8312 8314 0
-8303 -8312 0
-8304 -8314 0
-8317 31 32 33 0
-31 8317 0
-32 8317 0
-33 8317 0
8317 34 35 36 0
-8318 37 38 39 0
-37 8318 0
-38 8318 0
-39 8318 0
8318 40 41 42 0
-8319 79 80 81 0
-79 8319 0
-80 8319 0
-81 8319 0
8319 82 83 84 0
-8320 121 122 123 0
-121 8320 0
-122 8320 0
-123 8320 0
8320 124 125 126 0
-8321 163 164 165 0
-163 8321 0
-164 8321 0
-165 8321 0
8321 166 167 168 0
-8322 205 206 207 0
-205 8322 0
-206 8322 0
-207 8322 0
8322 208 209 210 0
-8317 8323 0
-8324 0
-8325 0
-8318 8326 0
-8323 8326 0
-8318 -8323 8327 0
-8324 8327 0
-8318 -8324 8328 0
-8325 8328 0
-8318 -8325 0
-8319 8329 0
-8326 8329 0
-8319 -8326 8330 0
-8327 8330 0
-8319 -8327 8331 0
-8328 8331 0
-8319 -8328 0
-8320 8332 0
-8329 8332 0
-8320 -8329 8333 0
-8330 8333 0
-8320 -8330 8334 0
-8331 8334 0
-8320 -8331 0
-8321 8335 0
-8332 8335 0
-8321 -8332 8336 0
-8333 8336 0
-8321 -8333 8337 0
-8334 8337 0
-8321 -8334 0
-8322 -8337 0
-8341 31 32 33 34 0
-31 8341 0
-32 8341 0
-33 8341 0
-34 8341 0
8341 35 36 0
-8342 37 38 39 40 0
-37 8342 0
-38 8342 0
-39 8342 0
-40 8342 0
8342 41 42 0
-8343 79 80 81 82 0
-79 8343 0
-80 8343 0
-81 8343 0
-82 8343 0
8343 83 84 0
-8344 121 122 123 124 0
-121 8344 0
-122 8344 0
-123 8344 0
-124 8344 0
8344 125 126 0
-8345 163 164 165 166 0
-163 8345 0
-164 8345 0
-165 8345 0
-166 8345 0
8345 167 168 0
-8346 205 206 207 208 0
-205 8346 0
-206 8346 0
-207 8346 0
-208 8346 0
8346 209 210 0
-8341 8347 0
-8348 0
-8349 0
-8350 0
-8342 8351 0
-8347 8351 0
-8342 -8347 8352 0
-8348 8352 0
-8342 -8348 8353 0
-8349 8353 0
-8342 -8349 8354 0
-8350 8354 0
-8342 -8350 0
-8343 8355 0
-8351 8355 0
-8343 -8351 8356 0
-8352 8356 0
-8343 -8352 8357 0
-8353 8357 0
-8343 -8353 8358 0
-8354 8358 0
-8343 -8354 0
-8344 8359 0
-8355 8359 0
-8344 -8355 8360 0
-8356 8360 0
-8344 -8356 8361 0
-8357 8361 0
-8344 -8357 8362 0
-8358 8362 0
-8344 -8358 0
-8345 8363 0
-8359 8363 0
-8345 -8359 8364 0
-8360 8364 0
-8345 -8360 8365 0
-8361 8365 0
-8345 -8361 8366 0
-8362 8366 0
-8345 -8362 0
-8346 -8366 0
-8371 31 32 33 34 35 0
-31 8371 0
-32 8371 0
-33 8371 0
-34 8371 0
-35 8371 0
8371 36 0
-8372 37 38 39 40 41 0
-37 8372 0
-38 8372 0
-39 8372 0
-40 8372 0
-41 8372 0
8372 42 0
-8373 79 80 81 82 83 0
-79 8373 0
-80 8373 0
-81 8373 0
-82 8373 0
-83 8373 0
8373 84 0
-8374 121 122 123 124 125 0
-121 8374 0
-122 8374 0
-123 8374 0
-124 8374 0
-125 8374 0
8374 126 0
-8375 163 164 165 166 167 0
-163 8375 0
-164 8375 0
-165 8375 0
-166 8375 0
-167 8375 0
8375 168 0
-8376 205 206 207 208 209 0
-205 8376 0
-206 8376 0
-207 8376 0
-208 8376 0
-209 8376 0
8376 210 0
-8371 8377 0
-8378 0
-8379 0
-8380 0
-8381 0
-8372 8382 0
-8377 8382 0
-8372 -8377 8383 0
-8378 8383 0
-8372 -8378 8384 0
-8379 8384 0
-8372 -8379 8385 0
-8380 8385 0
-8372 -8380 8386 0
-8381 8386 0
-8372 -8381 0
-8373 8387 0
-8382 8387 0
-8373 -8382 8388 0
-8383 8388 0
-8373 -8383 8389 0
-8384 8389 0
-8373 -8384 8390 0
-8385 8390 0
-8373 -8385 8391 0
-8386 8391 0
-8373 -8386 0
-8374 8392 0
-8387 8392 0
-8374 -8387 8393 0
-8388 8393 0
-8374 -8388 8394 0
-8389 8394 0
-8374 -8389 8395 0
-8390 8395 0
-8374 -8390 8396 0
-8391 8396 0
-8374 -8391 0
-8375 8397 0
-8392 8397 0
-8375 -8392 8398 0
-8393 8398 0
-8375 -8393 8399 0
-8394 8399 0
-8375 -8394 8400 0
-8395 8400 0
-8375 -8395 8401 0
-8396 8401 0
-8375 -8396 0
-8376 -8401 0
-8407 31 32 33 34 35 36 0
-31 8407 0
-32 8407 0
-33 8407 0
-34 8407 0
-35 8407 0
-36 8407 0
8407 0
-8408 37 38 39 40 41 42 0
-37 8408 0
-38 8408 0
-39 8408 0
-40 8408 0
-41 8408 0
-42 8408 0
8408 0
-8409 79 80 81 82 83 84 0
-79 8409 0
-80 8409 0
-81 8409 0
-82 8409 0
-83 8409 0
-84 8409 0
8409 0
-8410 121 122 123 124 125 126 0
-121 8410 0
-122 8410 0
-123 8410 0
-124 8410 0
-125 8410 0
-126 8410 0
8410 0
-8411 163 164 165 166 167 168 0
-163 8411 0
-164 8411 0
-165 8411 0
-166 8411 0
-167 8411 0
-168 8411 0
8411 0
-8412 205 206 207 208 209 210 0
-205 8412 0
-206 8412 0
-207 8412 0
-208 8412 0
-209 8412 0
-210 8412 0
8412 0
-8413 32 0
-32 8413 0
8413 31 33 34 35 36 0
-8414 38 0
-38 8414 0
8414 37 39 40 41 42 0
-8415 80 0
-80 8415 0
8415 79 81 82 83 84 0
-8416 122 0
-122 8416 0
8416 121 123 124 125 126 0
-8417 164 0
-164 8417 0
8417 163 165 166 167 168 0
-8418 206 0
-206 8418 0
8418 205 207 208 209 210 0
-8413 8419 0
-8414 8420 0
-8419 8420 0
-8414 -8419 0
-8415 8421 0
-8420 8421 0
-8415 -8420 0
-8416 8422 0
-8421 8422 0
-8416 -8421 0
-8417 8423 0
-8422 8423 0
-8417 -8422 0
-8418 -8423 0
-8425 32 33 0
-32 8425 0
-33 8425 0
8425 31 34 35 36 0
-8426 38 39 0
-38 8426 0
-39 8426 0
8426 37 40 41 42 0
-8427 80 81 0
-80 8427 0
-81 8427 0
8427 79 82 83 84 0
-8428 122 123 0
-122 8428 0
-123 8428 0
8428 121 124 125 126 0
-8429 164 165 0
-164 8429 0
-165 8429 0
8429 163 166 167 168 0
-8430 206 207 0
-206 8430 0
-207 8430 0
8430 205 208 209 210 0
-8425 8431 0
-8432 0
-8426 8433 0
-8431 8433 0
-8426 -8431 8434 0
-8432 8434 0
-8426 -8432 0
-8427 8435 0
-8433 8435 0
-8427 -8433 8436 0
-8434 8436 0
-8427 -8434 0
-8428 8437 0
-8435 8437 0
-8428 -8435 8438 0
-8436 8438 0
-8428 -8436 0
-8429 8439 0
-8437 8439 0
-8429 -8437 8440 0
-8438 8440 0
-8429 -8438 0
-8430 -8440 0
-8443 32 33 34 0
-32 8443 0
-33 8443 0
-34 8443 0
8443 31 35 36 0
-8444 38 39 40 0
-38 8444 0
-39 8444 0
-40 8444 0
8444 37 41 42 0
-8445 80 81 82 0
-80 8445 0
-81 8445 0
-82 8445 0
8445 79 83 84 0
-8446 122 123 124 0
-122 8446 0
-123 8446 0
-124 8446 0
8446 121 125 126 0
-8447 164 165 166 0
-164 8447 0
-165 8447 0
-166 8447 0
8447 163 167 168 0
-8448 206 207 208 0
-206 8448 0
-207 8448 0
-208 8448 0
8448 205 209 210 0
-8443 8449 0
-8450 0
-8451 0
-8444 8452 0
-8449 8452 0
-8444 -8449 8453 0
-8450 8453 0
-8444 -8450 8454 0
-8451 8454 0
-8444 -8451 0
-8445 8455 0
-8452 8455 0
-8445 -8452 8456 0
-8453 8456 0
-8445 -8453 8457 0
-8454 8457 0
-8445 -8454 0
-8446 8458 0
-8455 8458 0
-8446 -8455 8459 0
-8456 8459 0
-8446 -8456 8460 0
-8457 8460 0
-8446 -8457 0
-8447 8461 0
-8458 8461 0
-8447 -8458 8462 0
-8459 8462 0
-8447 -8459 8463 0
-8460 8463 0
-8447 -8460 0
-8448 -8463 0
-8467 32 33 34 35 0
-32 8467 0
-33 8467 0
-34 8467 0
-35 8467 0
8467 31 36 0
-8468 38 39 40 41 0
-38 8468 0
-39 8468 0
-40 8468 0
-41 8468 0
8468 37 42 0
-8469 80 81 82 83 0
-80 8469 0
-81 8469 0
-82 8469 0
-83 8469 0
8469 79 84 0
-8470 122 123 124 125 0
-122 8470 0
-123 8470 0
-124 8470 0
-125 8470 0
8470 121 126 0
-8471 164 165 166 167 0
-164 8471 0
-165 8471 0
-166 8471 0
-167 8471 0
8471 163 168 0
-8472 206 207 208 209 0
-206 8472 0
-207 8472 0
-208 8472 0
-209 8472 0
8472 205 210 0
-8467 8473 0
-8474 0
-8475 0
-8476 0
-8468 8477 0
-8473 8477 0
-8468 -8473 8478 0
-8474 8478 0
-8468 -8474 8479 0
-8475 8479 0
-8468 -8475 8480 0
-8476 8480 0
-8468 -8476 0
-8469 8481 0
-8477 8481 0
-8469 -8477 8482 0
-8478 8482 0
-8469 -8478 8483 0
-8479 8483 0
-8469 -8479 8484 0
-8480 8484 0
-8469 -8480 0
-8470 8485 0
-8481 8485 0
-8470 -8481 8486 0
-8482 8486 0
-8470 -8482 8487 0
-8483 8487 0
-8470 -8483 8488 0
-8484 8488 0
-8470 -8484 0
-8471 8489 0
-8485 8489 0
-8471 -8485 8490 0
-8486 8490 0
-8471 -8486 8491 0
-8487 8491 0
-8471 -8487 8492 0
-8488 8492 0
-8471 -8488 0
-8472 -8492 0
-8497 32 33 34 35 36 0
-32 8497 0
-33 8497 0
-34 8497 0
-35 8497 0
-36 8497 0
8497 31 0
-8498 38 39 40 41 42 0
-38 8498 0
-39 8498 0
-40 8498 0
-41 8498 0
-42 8498 0
8498 37 0
-8499 80 81 82 83 84 0
-80 8499 0
-81 8499 0
-82 8499 0
-83 8499 0
-84 8499 0
8499 79 0
-8500 122 123 124 125 126 0
-122 8500 0
-123 8500 0
-124 8500 0
-125 8500 0
-126 8500 0
8500 121 0
-8501 164 165 166 167 168 0
-164 8501 0
-165 8501 0
-166 8501 0
-167 8501 0
-168 8501 0
8501 163 0
-8502 206 207 208 209 210 0
-206 8502 0
-207 8502 0
-208 8502 0
-209 8502 0
-210 8502 0
8502 205 0
-8497 8503 0
-8504 0
-8505 0
-8506 0
-8507 0
-8498 8508 0
-8503 8508 0
-8498 -8503 8509 0
-8504 8509 0
-8498 -8504 8510 0
-8505 8510 0
-8498 -8505 8511 0
-8506 8511 0
-8498 -8506 8512 0
-8507 8512 0
-8498 -8507 0
-8499 8513 0
-8508 8513 0
-8499 -8508 8514 0
-8509 8514 0
-8499 -8509 8515 0
-8510 8515 0
-8499 -8510 8516 0
-8511 8516 0
-8499 -8511 8517 0
-8512 8517 0
-8499 -8512 0
-8500 8518 0
-8513 8518 0
-8500 -8513 8519 0
-8514 8519 0
-8500 -8514 8520 0
-8515 8520 0
-8500 -8515 8521 0
-8516 8521 0
-8500 -8516 8522 0
-8517 8522 0
-8500 -8517 0
-8501 8523 0
-8518 8523 0
-8501 -8518 8524 0
-8519 8524 0
-8501 -8519 8525 0
-8520 8525 0
-8501 -8520 8526 0
-8521 8526 0
-8501 -8521 8527 0
-8522 8527 0
-8501 -8522 0
-8502 -8527 0
-8533 33 0
-33 8533 0
8533 31 32 34 35 36 0
-8534 39 0
-39 8534 0
8534 37 38 40 41 42 0
-8535 81 0
-81 8535 0
8535 79 80 82 83 84 0
-8536 123 0
-123 8536 0
8536 121 122 124 125 126 0
-8537 165 0
-165 8537 0
8537 163 164 166 167 168 0
-8538 207 0
-207 8538 0
8538 205 206 208 209 210 0
-8533 8539 0
-8534 8540 0
-8539 8540 0
-8534 -8539 0
-8535 8541 0
-8540 8541 0
-8535 -8540 0
-8536 8542 0
-8541 8542 0
-8536 -8541 0
-8537 8543 0
-8542 8543 0
-8537 -8542 0
-8538 -8543 0
-8545 33 34 0
-33 8545 0
-34 8545 0
8545 31 32 35 36 0
-8546 39 40 0
-39 8546 0
-40 8546 0
8546 37 38 41 42 0
-8547 81 82 0
-81 8547 0
-82 8547 0
8547 79 80 83 84 0
-8548 123 124 0
-123 8548 0
-124 8548 0
8548 121 122 125 126 0
-8549 165 166 0
-165 8549 0
-166 8549 0
8549 163 164 167 168 0
-8550 207 208 0
-207 8550 0
-208 8550 0
8550 205 206 209 210 0
-8545 8551 0
-8552 0
-8546 8553 0
-8551 8553 0
-8546 -8551 8554 0
-8552 8554 0
-8546 -8552 0
-8547 8555 0
-8553 8555 0
-8547 -8553 8556 0
-8554 8556 0
-8547 -8554 0
-8548 8557 0
-8555 8557 0
-8548 -8555 8558 0
-8556 8558 0
-8548 -8556 0
-8549 8559 0
-8557 8559 0
-8549 -8557 8560 0
-8558 8560 0
-8549 -8558 0
-8550 -8560 0
-8563 33 34 35 0
-33 8563 0
-34 8563 0
-35 8563 0
8563 31 32 36 0
-8564 39 40 41 0
-39 8564 0
-40 8564 0
-41 8564 0
8564 37 38 42 0
-8565 81 82 83 0
-81 8565 0
-82 8565 0
-83 8565 0
8565 79 80 84 0
-8566 123 124 125 0
-123 8566 0
-124 8566 0
-125 8566 0
8566 121 122 126 0
-8567 165 166 167 0
-165 8567 0
-166 8567 0
-167 8567 0
8567 163 164 168 0
-8568 207 208 209 0
-207 8568 0
-208 8568 0
-209 8568 0
8568 205 206 210 0
-8563 8569 0
-8570 0
-8571 0
-8564 8572 0
-8569 8572 0
-8564 -8569 8573 0
-8570 8573 0
-8564 -8570 8574 0
-8571 8574 0
-8564 -8571 0
-8565 8575 0
-8572 8575 0
-8565 -8572 8576 0
-8573 8576 0
-8565 -8573 8577 0
-8574 8577 0
-8565 -8574 0
-8566 8578 0
-8575 8578 0
-8566 -8575 8579 0
-8576 8579 0
-8566 -8576 8580 0
-8577 8580 0
-8566 -8577 0
-8567 8581 0
-8578 8581 0
-8567 -8578 8582 0
-8579 8582 0
-8567 -8579 8583 0
-8580 8583 0
-8567 -8580 0
-8568 -8583 0
-8587 33 34 35 36 0
-33 8587 0
-34 8587 0
-35 8587 0
-36 8587 0
8587 31 32 0
-8588 39 40 41 42 0
-39 8588 0
-40 8588 0
-41 8588 0
-42 8588 0
8588 37 38 0
-8589 81 82 83 84 0
-81 8589 0
-82 8589 0
-83 8589 0
-84 8589 0
8589 79 80 0
-8590 123 124 125 126 0
-123 8590 0
-124 8590 0
-125 8590 0
-126 8590 0
8590 121 122 0
-8591 165 166 167 168 0
-165 8591 0
-166 8591 0
-167 8591 0
-168 8591 0
8591 163 164 0
-8592 207 208 209 210 0
-207 8592 0
-208 8592 0
-209 8592 0
-210 8592 0
8592 205 206 0
-8587 8593 0
-8594 0
-8595 0
-8596 0
-8588 8597 0
-8593 8597 0
-8588 -8593 8598 0
-8594 8598 0
-8588 -8594 8599 0
-8595 8599 0
-8588 -8595 8600 0
-8596 8600 0
-8588 -8596 0
-8589 8601 0
-8597 8601 0
-8589 -8597 8602 0
-8598 8602 0
-8589 -8598 8603 0
-8599 8603 0
-8589 -8599 8604 0
-8600 8604 0
-8589 -8600 0
-8590 8605 0
-8601 8605 0
-8590 -8601 8606 0
-8602 8606 0
-8590 -8602 8607 0
-8603 8607 0
-8590 -8603 8608 0
-8604 8608 0
-8590 -8604 0
-8591 8609 0
-8605 8609 0
-8591 -8605 8610 0
-8606 8610 0
-8591 -8606 8611 0
-8607 8611 0
-8591 -8607 8612 0
-8608 8612 0
-8591 -8608 0
-8592 -8612 0
-8617 34 0
-34 8617 0
8617 31 32 33 35 36 0
-8618 40 0
-40 8618 0
8618 37 38 39 41 42 0
-8619 82 0
-82 8619 0
8619 79 80 81 83 84 0
-8620 124 0
-124 8620 0
8620 121 122 123 125 126 0
-8621 166 0
-166 8621 0
8621 163 164 165 167 168 0
-8622 208 0
-208 8622 0
8622 205 206 207 209 210 0
-8617 8623 0
-8618 8624 0
-8623 8624 0
-8618 -8623 0
-8619 8625 0
-8624 8625 0
-8619 -8624 0
-8620 8626 0
-8625 8626 0
-8620 -8625 0
-8621 8627 0
-8626 8627 0
-8621 -8626 0
-8622 -8627 0
-8629 34 35 0
-34 8629 0
-35 8629 0
8629 31 32 33 36 0
-8630 40 41 0
-40 8630 0
-41 8630 0
8630 37 38 39 42 0
-8631 82 83 0
-82 8631 0
-83 8631 0
8631 79 80 81 84 0
-8632 124 125 0
-124 8632 0
-125 8632 0
8632 121 122 123 126 0
-8633 166 167 0
-166 8633 0
-167 8633 0
8633 163 164 165 168 0
-8634 208 209 0
-208 8634 0
-209 8634 0
8634 205 206 207 210 0
-8629 8635 0
-8636 0
-8630 8637 0
-8635 8637 0
-8630 -8635 8638 0
-8636 8638 0
-8630 -8636 0
-8631 8639 0
-8637 8639 0
-8631 -8637 8640 0
-8638 8640 0
-8631 -8638 0
-8632 8641 0
-8639 8641 0
-8632 -8639 8642 0
-8640 8642 0
-8632 -8640 0
-8633 8643 0
-8641 8643 0
-8633 -8641 8644 0
-8642 8644 0
-8633 -8642 0
-8634 -8644 0
-8647 34 35 36 0
-34 8647 0
-35 8647 0
-36 8647 0
8647 31 32 33 0
-8648 40 41 42 0
-40 8648 0
-41 8648 0
-42 8648 0
8648 37 38 39 0
-8649 82 83 84 0
-82 8649 0
-83 8649 0
-84 8649 0
8649 79 80 81 0
-8650 124 125 126 0
-124 8650 0
-125 8650 0
-126 8650 0
8650 121 122 123 0
-8651 166 167 168 0
-166 8651 0
-167 8651 0
-168 8651 0
8651 163 164 165 0
-8652 208 209 210 0
-208 8652 0
-209 8652 0
-210 8652 0
8652 205 206 207 0
-8647 8653 0
-8654 0
-8655 0
-8648 8656 0
-8653 8656 0
-8648 -8653 8657 0
-8654 8657 0
-8648 -8654 8658 0
-8655 8658 0
-8648 -8655 0
-8649 8659 0
-8656 8659 0
-8649 -8656 8660 0
-8657 8660 0
-8649 -8657 8661 0
-8658 8661 0
-8649 -8658 0
-8650 8662 0
-8659 8662 0
-8650 -8659 8663 0
-8660 8663 0
-8650 -8660 8664 0
-8661 8664 0
-8650 -8661 0
-8651 8665 0
-8662 8665 0
-8651 -8662 8666 0
-8663 8666 0
-8651 -8663 8667 0
-8664 8667 0
-8651 -8664 0
-8652 -8667 0
-8671 35 0
-35 8671 0
8671 31 32 33 34 36 0
-8672 41 0
-41 8672 0
8672 37 38 39 40 42 0
-8673 83 0
-83 8673 0
8673 79 80 81 82 84 0
-8674 125 0
-125 8674 0
8674 121 122 123 124 126 0
-8675 167 0
-167 8675 0
8675 163 164 165 166 168 0
-8676 209 0
-209 8676 0
8676 205 206 207 208 210 0
-8671 8677 0
-8672 8678 0
-8677 8678 0
-8672 -8677 0
-8673 8679 0
-8678 8679 0
-8673 -8678 0
-8674 8680 0
-8679 8680 0
-8674 -8679 0
-8675 8681 0
-8680 8681 0
-8675 -8680 0
-8676 -8681 0
-8683 35 36 0
-35 8683 0
-36 8683 0
8683 31 32 33 34 0
-8684 41 42 0
-41 8684 0
-42 8684 0
8684 37 38 39 40 0
-8685 83 84 0
-83 8685 0
-84 8685 0
8685 79 80 81 82 0
-8686 125 126 0
-125 8686 0
-126 8686 0
8686 121 122 123 124 0
-8687 167 168 0
-167 8687 0
-168 8687 0
8687 163 164 165 166 0
-8688 209 210 0
-209 8688 0
-210 8688 0
8688 205 206 207 208 0
-8683 8689 0
-8690 0
-8684 8691 0
-8689 8691 0
-8684 -8689 8692 0
-8690 8692 0
-8684 -8690 0
-8685 8693 0
-8691 8693 0
-8685 -8691 8694 0
-8692 8694 0
-8685 -8692 0
-8686 8695 0
-8693 8695 0
-8686 -8693 8696 0
-8694 8696 0
-8686 -8694 0
-8687 8697 0
-8695 8697 0
-8687 -8695 8698 0
-8696 8698 0
-8687 -8696 0
-8688 -8698 0
-8701 36 0
-36 8701 0
8701 31 32 33 34 35 0
-8702 42 0
-42 8702 0
8702 37 38 39 40 41 0
-8703 84 0
-84 8703 0
8703 79 80 81 82 83 0
-8704 126 0
-126 8704 0
8704 121 122 123 124 125 0
-8705 168 0
-168 8705 0
8705 163 164 165 166 167 0
-8706 210 0
-210 8706 0
8706 205 206 207 208 209 0
-8701 8707 0
-8702 8708 0
-8707 8708 0
-8702 -8707 0
-8703 8709 0
-8708 8709 0
-8703 -8708 0
-8704 8710 0
-8709 8710 0
-8704 -8709 0
-8705 8711 0
-8710 8711 0
-8705 -8710 0
-8706 -8711 0
-31 8713 0
-37 8714 0
-8713 8714 0
-37 -8713 0
-79 8715 0
-8714 8715 0
-79 -8714 0
-121 8716 0
-8715 8716 0
-121 -8715 0
-163 8717 0
-8716 8717 0
-163 -8716 0
-205 -8717 0
31 37 79 121 163 205 0
-32 8719 0
-38 8720 0
-8719 8720 0
-38 -8719 0
-80 8721 0
-8720 8721 0
-80 -8720 0
-122 8722 0
-8721 8722 0
-122 -8721 0
-164 8723 0
-8722 8723 0
-164 -8722 0
-206 -8723 0
32 38 80 122 164 206 0
-33 8725 0
-39 8726 0
-8725 8726 0
-39 -8725 0
-81 8727 0
-8726 8727 0
-81 -8726 0
-123 8728 0
-8727 8728 0
-123 -8727 0
-165 8729 0
-8728 8729 0
-165 -8728 0
-207 -8729 0
33 39 81 123 165 207 0
-34 8731 0
-40 8732 0
-8731 8732 0
-40 -8731 0
-82 8733 0
-8732 8733 0
-82 -8732 0
-124 8734 0
-8733 8734 0
-124 -8733 0
-166 8735 0
-8734 8735 0
-166 -8734 0
-208 -8735 0
34 40 82 124 166 208 0
-35 8737 0
-41 8738 0
-8737 8738 0
-41 -8737 0
-83 8739 0
-8738 8739 0
-83 -8738 0
-125 8740 0
-8739 8740 0
-125 -8739 0
-167 8741 0
-8740 8741 0
-167 -8740 0
-209 -8741 0
35 41 83 125 167 209 0
-36 8743 0
-42 8744 0
-8743 8744 0
-42 -8743 0
-84 8745 0
-8744 8745 0
-84 -8744 0
-126 8746 0
-8745 8746 0
-126 -8745 0
-168 8747 0
-8746 8747 0
-168 -8746 0
-210 -8747 0
36 42 84 126 168 210 0
-8749 1 0
-1 8749 0
8749 2 3 4 5 6 0
-8750 67 0
-67 8750 0
8750 68 69 70 71 72 0
-8751 97 0
-97 8751 0
8751 98 99 100 101 102 0
-8752 127 0
-127 8752 0
8752 128 129 130 131 132 0
-8753 157 0
-157 8753 0
8753 158 159 160 161 162 0
-8754 187 0
-187 8754 0
8754 188 189 190 191 192 0
-8749 8755 0
-8750 8756 0
-8755 8756 0
-8750 -8755 0
-8751 8757 0
-8756 8757 0
-8751 -8756 0
-8752 8758 0
-8757 8758 0
-8752 -8757 0
-8753 8759 0
-8758 8759 0
-8753 -8758 0
-8754 -8759 0
-8761 1 2 0
-1 8761 0
-2 8761 0
8761 3 4 5 6 0
-8762 67 68 0
-67 8762 0
-68 8762 0
8762 69 70 71 72 0
-8763 97 98 0
-97 8763 0
-98 8763 0
8763 99 100 101 102 0
-8764 127 128 0
-127 8764 0
-128 8764 0
8764 129 130 131 132 0
-8765 157 158 0
-157 8765 0
-158 8765 0
8765 159 160 161 162 0
-8766 187 188 0
-187 8766 0
-188 8766 0
8766 189 190 191 192 0
-8761 8767 0
-8768 0
-8762 8769 0
-8767 8769 0
-8762 -8767 8770 0
-8768 8770 0
-8762 -8768 0
-8763 8771 0
-8769 8771 0
-8763 -8769 8772 0
-8770 8772 0
-8763 -8770 0
-8764 8773 0
-8771 8773 0
-8764 -8771 8774 0
-8772 8774 0
-8764 -8772 0
-8765 8775 0
-8773 8775 0
-8765 -8773 8776 0
-8774 8776 0
-8765 -8774 0
-8766 -8776 0
-8779 1 2 3 0
-1 8779 0
-2 8779 0
-3 8779 0
8779 4 5 6 0
-8780 67 68 69 0
-67 8780 0
-68 8780 0
-69 8780 0
8780 70 71 72 0
-8781 97 98 99 0
-97 8781 0
-98 8781 0
-99 8781 0
8781 100 101 102 0
-8782 127 128 129 0
-127 8782 0
-128 8782 0
-129 8782 0
8782 130 131 132 0
-8783 157 158 159 0
-157 8783 0
-158 8783 0
-159 8783 0
8783 160 161 162 0
-8784 187 188 189 0
-187 8784 0
-188 8784 0
-189 8784 0
8784 190 191 192 0
-8779 8785 0
-8786 0
-8787 0
-8780 8788 0
-8785 8788 0
-8780 -8785 8789 0
-8786 8789 0
-8780 -8786 8790 0
-8787 8790 0
-8780 -8787 0
-8781 8791 0
-8788 8791 0
-8781 -8788 8792 0
-8789 8792 0
-8781 -8789 8793 0
-8790 8793 0
-8781 -8790 0
-8782 8794 0
-8791 8794 0
-8782 -8791 8795 0
-8792 8795 0
-8782 -8792 8796 0
-8793 8796 0
-8782 -8793 0
-8783 8797 0
-8794 8797 0
-8783 -8794 8798 0
-8795 8798 0
-8783 -8795 8799 0
-8796 8799 0
-8783 -8796 0
-8784 -8799 0
-8803 1 2 3 4 0
-1 8803 0
-2 8803 0
-3 8803 0
-4 8803 0
8803 5 6 0
-8804 67 68 69 70 0
-67 8804 0
-68 8804 0
-69 8804 0
-70 8804 0
8804 71 72 0
-8805 97 98 99 100 0
-97 8805 0
-98 8805 0
-99 8805 0
-100 8805 0
8805 101 102 0
-8806 127 128 129 130 0
-127 8806 0
-128 8806 0
-129 8806 0
-130 8806 0
8806 131 132 0
-8807 157 158 159 160 0
-157 8807 0
-158 8807 0
-159 8807 0
-160 8807 0
8807 161 162 0
-8808 187 188 189 190 0
-187 8808 0
-188 8808 0
-189 8808 0
-190 8808 0
8808 191 192 0
-8803 8809 0
-8810 0
-8811 0
-8812 0
-8804 8813 0
-8809 8813 0
-8804 -8809 8814 0
-8810 8814 0
-8804 -8810 8815 0
-8811 8815 0
-8804 -8811 8816 0
-8812 8816 0
-8804 -8812 0
-8805 8817 0
-8813 8817 0
-8805 -8813 8818 0
-8814 8818 0
-8805 -8814 8819 0
-8815 8819 0
-8805 -8815 8820 0
-8816 8820 0
-8805 -8816 0
-8806 8821 0
-8817 8821 0
-8806 -8817 8822 0
-8818 8822 0
-8806 -8818 8823 0
-8819 8823 0
-8806 -8819 8824 0
-8820 8824 0
-8806 -8820 0
-8807 8825 0
-8821 8825 0
-8807 -8821 8826 0
-8822 8826 0
-8807 -8822 8827 0
-8823 8827 0
-8807 -8823 8828 0
-8824 8828 0
-8807 -8824 0
-8808 -8828 0
-8833 1 2 3 4 5 0
-1 8833 0
-2 8833 0
-3 8833 0
-4 8833 0
-5 8833 0
8833 6 0
-8834 67 68 69 70 71 0
-67 8834 0
-68 8834 0
-69 8834 0
-70 8834 0
-71 8834 0
8834 72 0
-8835 97 98 99 100 101 0
-97 8835 0
-98 8835 0
-99 8835 0
-100 8835 0
-101 8835 0
8835 102 0
-8836 127 128 129 130 131 0
-127 8836 0
-128 8836 0
-129 8836 0
-130 8836 0
-131 8836 0
8836 132 0
-8837 157 158 159 160 161 0
-157 8837 0
-158 8837 0
-159 8837 0
-160 8837 0
-161 8837 0
8837 162 0
-8838 187 188 189 190 191 0
-187 8838 0
-188 8838 0
-189 8838 0
-190 8838 0
-191 8838 0
8838 192 0
-8833 8839 0
-8840 0
-8841 0
-8842 0
-8843 0
-8834 8844 0
-8839 8844 0
-8834 -8839 8845 0
-8840 8845 0
-8834 -8840 8846 0
-8841 8846 0
-8834 -8841 8847 0
-8842 8847 0
-8834 -8842 8848 0
-8843 8848 0
-8834 -8843 0
-8835 8849 0
-8844 8849 0
-8835 -8844 8850 0
-8845 8850 0
-8835 -8845 8851 0
-8846 8851 0
-8835 -8846 8852 0
-8847 8852 0
-8835 -8847 8853 0
-8848 8853 0
-8835 -8848 0
-8836 8854 0
-8849 8854 0
-8836 -8849 8855 0
-8850 8855 0
-8836 -8850 8856 0
-8851 8856 0
-8836 -8851 8857 0
-8852 8857 0
-8836 -8852 8858 0
-8853 8858 0
-8836 -8853 0
-8837 8859 0
-8854 8859 0
-8837 -8854 8860 0
-8855 8860 0
-8837 -8855 8861 0
-8856 8861 0
-8837 -8856 8862 0
-8857 8862 0
-8837 -8857 8863 0
-8858 8863 0
-8837 -8858 0
-8838 -8863 0
-8869 1 2 3 4 5 6 0
-1 8869 0
-2 8869 0
-3 8869 0
-4 8869 0
-5 8869 0
-6 8869 0
8869 0
-8870 67 68 69 70 71 72 0
-67 8870 0
-68 8870 0
-69 8870 0
-70 8870 0
-71 8870 0
-72 8870 0
8870 0
-8871 97 98 99 100 101 102 0
-97 8871 0
-98 8871 0
-99 8871 0
-100 8871 0
-101 8871 0
-102 8871 0
8871 0
-8872 127 128 129 130 131 132 0
-127 8872 0
-128 8872 0
-129 8872 0
-130 8872 0
-131 8872 0
-132 8872 0
8872 0
-8873 157 158 159 160 161 162 0
-157 8873 0
-158 8873 0
-159 8873 0
-160 8873 0
-161 8873 0
-162 8873 0
8873 0
-8874 187 188 189 190 191 192 0
-187 8874 0
-188 8874 0
-189 8874 0
-190 8874 0
-191 8874 0
-192 8874 0
8874 0
-8875 2 0
-2 8875 0
8875 1 3 4 5 6 0
-8876 68 0
-68 8876 0
8876 67 69 70 71 72 0
-8877 98 0
-98 8877 0
8877 97 99 100 101 102 0
-8878 128 0
-128 8878 0
8878 127 129 130 131 132 0
-8879 158 0
-158 8879 0
8879 157 159 160 161 162 0
-8880 188 0
-188 8880 0
8880 187 189 190 191 192 0
-8875 8881 0
-8876 8882 0
-8881 8882 0
-8876 -8881 0
-8877 8883 0
-8882 8883 0
-8877 -8882 0
-8878 8884 0
-8883 8884 0
-8878 -8883 0
-8879 8885 0
-8884 8885 0
-8879 -8884 0
-8880 -8885 0
-8887 2 3 0
-2 8887 0
-3 8887 0
8887 1 4 5 6 0
-8888 68 69 0
-68 8888 0
-69 8888 0
8888 67 70 71 72 0
-8889 98 99 0
-98 8889 0
-99 8889 0
8889 97 100 101 102 0
-8890 128 129 0
-128 8890 0
-129 8890 0
8890 127 130 131 132 0
-8891 158 159 0
-158 8891 0
-159 8891 0
8891 157 160 161 162 0
-8892 188 189 0
-188 8892 0
-189 8892 0
8892 187 190 191 192 0
-8887 8893 0
-8894 0
-8888 8895 0
-8893 8895 0
-8888 -8893 8896 0
-8894 8896 0
-8888 -8894 0
-8889 8897 0
-8895 8897 0
-8889 -8895 8898 0
-8896 8898 0
-8889 -8896 0
-8890 8899 0
-8897 8899 0
-8890 -8897 8900 0
-8898 8900 0
-8890 -8898 0
-8891 8901 0
-8899 8901 0
-8891 -8899 8902 0
-8900 8902 0
-8891 -8900 0
-8892 -8902 0
-8905 2 3 4 0
-2 8905 0
-3 8905 0
-4 8905 0
8905 1 5 6 0
-8906 68 69 70 0
-68 8906 0
-69 8906 0
-70 8906 0
8906 67 71 72 0
-8907 98 99 100 0
-98 8907 0
-99 8907 0
-100 8907 0
8907 97 101 102 0
-8908 128 129 130 0
-128 8908 0
-129 8908 0
-130 8908 0
8908 127 131 132 0
-8909 158 159 160 0
-158 8909 0
-159 8909 0
-160 8909 0
8909 157 161 162 0
-8910 188 189 190 0
-188 8910 0
-189 8910 0
-190 8910 0
8910 187 191 192 0
-8905 8911 0
-8912 0
-8913 0
-8906 8914 0
-8911 8914 0
-8906 -8911 8915 0
-8912 8915 0
-8906 -8912 8916 0
-8913 8916 0
-8906 -8913 0
-8907 8917 0
-8914 8917 0
-8907 -8914 8918 0
-8915 8918 0
-8907 -8915 8919 0
-8916 8919 0
-8907 -8916 0
-8908 8920 0
-8917 8920 0
-8908 -8917 8921 0
-8918 8921 0
-8908 -8918 8922 0
-8919 8922 0
-8908 -8919 0
-8909 8923 0
-8920 8923 0
-8909 -8920 8924 0
-8921 8924 0
-8909 -8921 8925 0
-8922 8925 0
-8909 -8922 0
-8910 -8925 0
-8929 2 3 4 5 0
-2 8929 0
-3 8929 0
-4 8929 0
-5 8929 0
8929 1 6 0
-8930 68 69 70 71 0
-68 8930 0
-69 8930 0
-70 8930 0
-71 8930 0
8930 67 72 0
-8931 98 99 100 101 0
-98 8931 0
-99 8931 0
-100 8931 0
-101 8931 0
8931 97 102 0
-8932 128 129 130 131 0
-128 8932 0
-129 8932 0
-130 8932 0
-131 8932 0
8932 127 132 0
-8933 158 159 160 161 0
-158 8933 0
-159 8933 0
-160 8933 0
-161 8933 0
8933 157 162 0
-8934 188 189 190 191 0
-188 8934 0
-189 8934 0
-190 8934 0
-191 8934 0
8934 187 192 0
-8929 8935 0
-8936 0
-8937 0
-8938 0
-8930 8939 0
-8935 8939 0
-8930 -8935 8940 0
-8936 8940 0
-8930 -8936 8941 0
-8937 8941 0
-8930 -8937 8942 0
-8938 8942 0
-8930 -8938 0
-8931 8943 0
-8939 8943 0
-8931 -8939 8944 0
-8940 8944 0
-8931 -8940 8945 0
-8941 8945 0
-8931 -8941 8946 0
-8942 8946 0
-8931 -8942 0
-8932 8947 0
-8943 8947 0
-8932 -8943 8948 0
-8944 8948 0
-8932 -8944 8949 0
-8945 8949 0
-8932 -8945 8950 0
-8946 8950 0
-8932 -8946 0
-8933 8951 0
-8947 8951 0
-8933 -8947 8952 0
-8948 8952 0
-8933 -8948 8953 0
-8949 8953 0
-8933 -8949 8954 0
-8950 8954 0
-8933 -8950 0
-8934 -8954 0
-8959 2 3 4 5 6 0
-2 8959 0
-3 8959 0
-4 8959 0
-5 8959 0
-6 8959 0
8959 1 0
-8960 68 69 70 71 72 0
-68 8960 0
-69 8960 0
-70 8960 0
-71 8960 0
-72 8960 0
8960 67 0
-8961 98 99 100 101 102 0
-98 8961 0
-99 8961 0
-100 8961 0
-101 8961 0
-102 8961 0
8961 97 0
-8962 128 129 130 131 132 0
-128 8962 0
-129 8962 0
-130 8962 0
-131 8962 0
-132 8962 0
8962 127 0
-8963 158 159 160 161 162 0
-158 8963 0
-159 8963 0
-160 8963 0
-161 8963 0
-162 8963 0
8963 157 0
-8964 188 189 190 191 192 0
-188 8964 0
-189 8964 0
-190 8964 0
-191 8964 0
-192 8964 0
8964 187 0
-8959 8965 0
-8966 0
-8967 0
-8968 0
-8969 0
-8960 8970 0
-8965 8970 0
-8960 -8965 8971 0
-8966 8971 0
-8960 -8966 8972 0
-8967 8972 0
-8960 -8967 8973 0
-8968 8973 0
-8960 -8968 8974 0
-8969 8974 0
-8960 -8969 0
-8961 8975 0
-8970 8975 0
-8961 -8970 8976 0
-8971 8976 0
-8961 -8971 8977 0
-8972 8977 0
-8961 -8972 8978 0
-8973 8978 0
-8961 -8973 8979 0
-8974 8979 0
-8961 -8974 0
-8962 8980 0
-8975 8980 0
-8962 -8975 8981 0
-8976 8981 0
-8962 -8976 8982 0
-8977 8982 0
-8962 -8977 8983 0
-8978 8983 0
-8962 -8978 8984 0
-8979 8984 0
-8962 -8979 0
-8963 8985 0
-8980 8985 0
-8963 -8980 8986 0
-8981 8986 0
-8963 -8981 8987 0
-8982 8987 0
-8963 -8982 8988 0
-8983 8988 0
-8963 -8983 8989 0
-8984 8989 0
-8963 -8984 0
-8964 -8989 0
-8995 3 0
-3 8995 0
8995 1 2 4 5 6 0
-8996 69 0
-69 8996 0
8996 67 68 70 71 72 0
-8997 99 0
-99 8997 0
8997 97 98 100 101 102 0
-8998 129 0
-129 8998 0
8998 127 128 130 131 132 0
-8999 159 0
-159 8999 0
8999 157 158 160 161 162 0
-9000 189 0
-189 9000 0
9000 187 188 190 191 192 0
-8995 9001 0
-8996 9002 0
-9001 9002 0
-8996 -9001 0
-8997 9003 0
-9002 9003 0
-8997 -9002 0
-8998 9004 0
-9003 9004 0
-8998 -9003 0
-8999 9005 0
-9004 9005 0
-8999 -9004 0
-9000 -9005 0
-9007 3 4 0
-3 9007 0
-4 9007 0
9007 1 2 5 6 0
-9008 69 70 0
-69 9008 0
-70 9008 0
9008 67 68 71 72 0
-9009 99 100 0
-99 9009 0
-100 9009 0
9009 97 98 101 102 0
-9010 129 130 0
-129 9010 0
-130 9010 0
9010 127 128 131 132 0
-9011 159 160 0
-159 9011 0
-160 9011 0
9011 157 158 161 162 0
-9012 189 190 0
-189 9012 0
-190 9012 0
9012 187 188 191 192 0
-9007 9013 0
-9014 0
-9008 9015 0
-9013 9015 0
-9008 -9013 9016 0
-9014 9016 0
-9008 -9014 0
-9009 9017 0
-9015 9017 0
-9009 -9015 9018 0
-9016 9018 0
-9009 -9016 0
-9010 9019 0
-9017 9019 0
-9010 -9017 9020 0
-9018 9020 0
-9010 -9018 0
-9011 9021 0
-9019 9021 0
-9011 -9019 9022 0
-9020 9022 0
-9011 -9020 0
-9012 -9022 0
-9025 3 4 5 0
-3 9025 0
-4 9025 0
-5 9025 0
9025 1 2 6 0
-9026 69 70 71 0
-69 9026 0
-70 9026 0
-71 9026 0
9026 67 68 72 0
-9027 99 100 101 0
-99 9027 0
-100 9027 0
-101 9027 0
9027 97 98 102 0
-9028 129 130 131 0
-129 9028 0
-130 9028 0
-131 9028 0
9028 127 128 132 0
-9029 159 160 161 0
-159 9029 0
-160 9029 0
-161 9029 0
9029 157 158 162 0
-9030 189 190 191 0
-189 9030 0
-190 9030 0
-191 9030 0
9030 187 188 192 0
-9025 9031 0
-9032 0
-9033 0
-9026 9034 0
-9031 9034 0
-9026 -9031 9035 0
-9032 9035 0
-9026 -9032 9036 0
-9033 9036 0
-9026 -9033 0
-9027 9037 0
-9034 9037 0
-9027 -9034 9038 0
-9035 9038 0
-9027 -9035 9039 0
-9036 9039 0
-9027 -9036 0
-9028 9040 0
-9037 9040 0
-9028 -9037 9041 0
-9038 9041 0
-9028 -9038 9042 0
-9039 9042 0
-9028 -9039 0
-9029 9043 0
-9040 9043 0
-9029 -9040 9044 0
-9041 9044 0
-9029 -9041 9045 0
-9042 9045 0
-9029 -9042 0
-9030 -9045 0
-9049 3 4 5 6 0
-3 9049 0
-4 9049 0
-5 9049 0
-6 9049 0
9049 1 2 0
-9050 69 70 71 72 0
-69 9050 0
-70 9050 0
-71 9050 0
-72 9050 0
9050 67 68 0
-9051 99 100 101 102 0
-99 9051 0
-100 9051 0
-101 9051 0
-102 9051 0
9051 97 98 0
-9052 129 130 131 132 0
-129 9052 0
-130 9052 0
-131 9052 0
-132 9052 0
9052 127 128 0
-9053 159 160 161 162 0
-159 9053 0
-160 9053 0
-161 9053 0
-162 9053 0
9053 157 158 0
-9054 189 190 191 192 0
-189 9054 0
-190 9054 0
-191 9054 0
-192 9054 0
9054 187 188 0
-9049 9055 0
-9056 0
-9057 0
-9058 0
-9050 9059 0
-9055 9059 0
-9050 -9055 9060 0
-9056 9060 0
-9050 -9056 9061 0
-9057 9061 0
-9050 -9057 9062 0
-9058 9062 0
-9050 -9058 0
-9051 9063 0
-9059 9063 0
-9051 -9059 9064 0
-9060 9064 0
-9051 -9060 9065 0
-9061 9065 0
-9051 -9061 9066 0
-9062 9066 0
-9051 -9062 0
-9052 9067 0
-9063 9067 0
-9052 -9063 9068 0
-9064 9068 0
-9052 -9064 9069 0
-9065 9069 0
-9052 -9065 9070 0
-9066 9070 0
-9052 -9066 0
-9053 9071 0
-9067 9071 0
-9053 -9067 9072 0
-9068 9072 0
-9053 -9068 9073 0
-9069 9073 0
-9053 -9069 9074 0
-9070 9074 0
-9053 -9070 0
-9054 -9074 0
-9079 4 0
-4 9079 0
9079 1 2 3 5 6 0
-9080 70 0
-70 9080 0
9080 67 68 69 71 72 0
-9081 100 0
-100 9081 0
9081 97 98 99 101 102 0
-9082 130 0
-130 9082 0
9082 127 128 129 131 132 0
-9083 160 0
-160 9083 0
9083 157 158 159 161 162 0
-9084 190 0
-190 9084 0
9084 187 188 189 191 192 0
-9079 9085 0
-9080 9086 0
-9085 9086 0
-9080 -9085 0
-9081 9087 0
-9086 9087 0
-9081 -9086 0
-9082 9088 0
-9087 9088 0
-9082 -9087 0
-9083 9089 0
-9088 9089 0
-9083 -9088 0
-9084 -9089 0
-9091 4 5 0
-4 9091 0
-5 9091 0
9091 1 2 3 6 0
-9092 70 71 0
-70 9092 0
-71 9092 0
9092 67 68 69 72 0
-9093 100 101 0
-100 9093 0
-101 9093 0
9093 97 98 99 102 0
-9094 130 131 0
-130 9094 0
-131 9094 0
9094 127 128 129 132 0
-9095 160 161 0
-160 9095 0
-161 9095 0
9095 157 158 159 162 0
-9096 190 191 0
-190 9096 0
-191 9096 0
9096 187 188 189 192 0
-9091 9097 0
-9098 0
-9092 9099 0
-9097 9099 0
-9092 -9097 9100 0
-9098 9100 0
-9092 -9098 0
-9093 9101 0
-9099 9101 0
-9093 -9099 9102 0
-9100 9102 0
-9093 -9100 0
-9094 9103 0
-9101 9103 0
-9094 -9101 9104 0
-9102 9104 0
-9094 -9102 0
-9095 9105 0
-9103 9105 0
-9095 -9103 9106 0
-9104 9106 0
-9095 -9104 0
-9096 -9106 0
-9109 4 5 6 0
-4 9109 0
-5 9109 0
-6 9109 0
9109 1 2 3 0
-9110 70 71 72 0
-70 9110 0
-71 9110 0
-72 9110 0
9110 67 68 69 0
-9111 100 101 102 0
-100 9111 0
-101 9111 0
-102 9111 0
9111 97 98 99 0
-9112 130 131 132 0
-130 9112 0
-131 9112 0
-132 9112 0
9112 127 128 129 0
-9113 160 161 162 0
-160 9113 0
-161 9113 0
-162 9113 0
9113 157 158 159 0
-9114 190 191 192 0
-190 9114 0
-191 9114 0
-192 9114 0
9114 187 188 189 0
-9109 9115 0
-9116 0
-9117 0
-9110 9118 0
-9115 9118 0
-9110 -9115 9119 0
-9116 9119 0
-9110 -9116 9120 0
-9117 9120 0
-9110 -9117 0
-9111 9121 0
-9118 9121 0
-9111 -9118 9122 0
-9119 9122 0
-9111 -9119 9123 0
-9120 9123 0
-9111 -9120 0
-9112 9124 0
-9121 9124 0
-9112 -9121 9125 0
-9122 9125 0
-9112 -9122 9126 0
-9123 9126 0
-9112 -9123 0
-9113 9127 0
-9124 9127 0
-9113 -9124 9128 0
-9125 9128 0
-9113 -9125 9129 0
-9126 9129 0
-9113 -9126 0
-9114 -9129 0
-9133 5 0
-5 9133 0
9133 1 2 3 4 6 0
-9134 71 0
-71 9134 0
9134 67 68 69 70 72 0
-9135 101 0
-101 9135 0
9135 97 98 99 100 102 0
-9136 131 0
-131 9136 0
9136 127 128 129 130 132 0
-9137 161 0
-161 9137 0
9137 157 158 159 160 162 0
-9138 191 0
-191 9138 0
9138 187 188 189 190 192 0
-9133 9139 0
-9134 9140 0
-9139 9140 0
-9134 -9139 0
-9135 9141 0
-9140 9141 0
-9135 -9140 0
-9136 9142 0
-9141 9142 0
-9136 -9141 0
-9137 9143 0
-9142 9143 0
-9137 -9142 0
-9138 -9143 0
-9145 5 6 0
-5 9145 0
-6 9145 0
9145 1 2 3 4 0
-9146 71 72 0
-71 9146 0
-72 9146 0
9146 67 68 69 70 0
-9147 101 102 0
-101 9147 0
-102 9147 0
9147 97 98 99 100 0
-9148 131 132 0
-131 9148 0
-132 9148 0
9148 127 128 129 130 0
-9149 161 162 0
-161 9149 0
-162 9149 0
9149 157 158 159 160 0
-9150 191 192 0
-191 9150 0
-192 9150 0
9150 187 188 189 190 0
-9145 9151 0
-9152 0
-9146 9153 0
-9151 9153 0
-9146 -9151 9154 0
-9152 9154 0
-9146 -9152 0
-9147 9155 0
-9153 9155 0
-9147 -9153 9156 0
-9154 9156 0
-9147 -9154 0
-9148 9157 0
-9155 9157 0
-9148 -9155 9158 0
-9156 9158 0
-9148 -9156 0
-9149 9159 0
-9157 9159 0
-9149 -9157 9160 0
-9158 9160 0
-9149 -9158 0
-9150 -9160 0
-9163 6 0
-6 9163 0
9163 1 2 3 4 5 0
-9164 72 0
-72 9164 0
9164 67 68 69 70 71 0
-9165 102 0
-102 9165 0
9165 97 98 99 100 101 0
-9166 132 0
-132 9166 0
9166 127 128 129 130 131 0
-9167 162 0
-162 9167 0
9167 157 158 159 160 161 0
-9168 192 0
-192 9168 0
9168 187 188 189 190 191 0
-9163 9169 0
-9164 9170 0
-9169 9170 0
-9164 -9169 0
-9165 9171 0
-9170 9171 0
-9165 -9170 0
-9166 9172 0
-9171 9172 0
-9166 -9171 0
-9167 9173 0
-9172 9173 0
-9167 -9172 0
-9168 -9173 0
-1 9175 0
-67 9176 0
-9175 9176 0
-67 -9175 0
-97 9177 0
-9176 9177 0
-97 -9176 0
-127 9178 0
-9177 9178 0
-127 -9177 0
-157 9179 0
-9178 9179 0
-157 -9178 0
-187 -9179 0
1 67 97 127 157 187 0
-2 9181 0
-68 9182 0
-9181 9182 0
-68 -9181 0
-98 9183 0
-9182 9183 0
-98 -9182 0
-128 9184 0
-9183 9184 0
-128 -9183 0
-158 9185 0
-9184 9185 0
-158 -9184 0
-188 -9185 0
2 68 98 128 158 188 0
-3 9187 0
-69 9188 0
-9187 9188 0
-69 -9187 0
-99 9189 0
-9188 9189 0
-99 -9188 0
-129 9190 0
-9189 9190 0
-129 -9189 0
-159 9191 0
-9190 9191 0
-159 -9190 0
-189 -9191 0
3 69 99 129 159 189 0
-4 9193 0
-70 9194 0
-9193 9194 0
-70 -9193 0
-100 9195 0
-9194 9195 0
-100 -9194 0
-130 9196 0
-9195 9196 0
-130 -9195 0
-160 9197 0
-9196 9197 0
-160 -9196 0
-190 -9197 0
4 70 100 130 160 190 0
-5 9199 0
-71 9200 0
-9199 9200 0
-71 -9199 0
-101 9201 0
-9200 9201 0
-101 -9200 0
-131 9202 0
-9201 9202 0
-131 -9201 0
-161 9203 0
-9202 9203 0
-161 -9202 0
-191 -9203 0
5 71 101 131 161 191 0
-6 9205 0
-72 9206 0
-9205 9206 0
-72 -9205 0
-102 9207 0
-9206 9207 0
-102 -9206 0
-132 9208 0
-9207 9208 0
-132 -9207 0
-162 9209 0
-9208 9209 0
-162 -9208 0
-192 -9209 0
6 72 102 132 162 192 0
-9211 7 0
-7 9211 0
9211 8 9 10 11 12 0
-9212 37 0
-37 9212 0
9212 38 39 40 41 42 0
-9213 103 0
-103 9213 0
9213 104 105 106 107 108 0
-9214 133 0
-133 9214 0
9214 134 135 136 137 138 0
-9215 163 0
-163 9215 0
9215 164 165 166 167 168 0
-9216 193 0
-193 9216 0
9216 194 195 196 197 198 0
-9211 9217 0
-9212 9218 0
-9217 9218 0
-9212 -9217 0
-9213 9219 0
-9218 9219 0
-9213 -9218 0
-9214 9220 0
-9219 9220 0
-9214 -9219 0
-9215 9221 0
-9220 9221 0
-9215 -9220 0
-9216 -9221 0
-9223 7 8 0
-7 9223 0
-8 9223 0
9223 9 10 11 12 0
-9224 37 38 0
-37 9224 0
-38 9224 0
9224 39 40 41 42 0
-9225 103 104 0
-103 9225 0
-104 9225 0
9225 105 106 107 108 0
-9226 133 134 0
-133 9226 0
-134 9226 0
9226 135 136 137 138 0
-9227 163 164 0
-163 9227 0
-164 9227 0
9227 165 166 167 168 0
-9228 193 194 0
-193 9228 0
-194 9228 0
9228 195 196 197 198 0
-9223 9229 0
-9230 0
-9224 9231 0
-9229 9231 0
-9224 -9229 9232 0
-9230 9232 0
-9224 -9230 0
-9225 9233 0
-9231 9233 0
-9225 -9231 9234 0
-9232 9234 0
-9225 -9232 0
-9226 9235 0
-9233 9235 0
-9226 -9233 9236 0
-9234 9236 0
-9226 -9234 0
-9227 9237 0
-9235 9237 0
-9227 -9235 9238 0
-9236 9238 0
-9227 -9236 0
-9228 -9238 0
-9241 7 8 9 0
-7 9241 0
-8 9241 0
-9 9241 0
9241 10 11 12 0
-9242 37 38 39 0
-37 9242 0
-38 9242 0
-39 9242 0
9242 40 41 42 0
-9243 103 104 105 0
-103 9243 0
-104 9243 0
-105 9243 0
9243 106 107 108 0
-9244 133 134 135 0
-133 9244 0
-134 9244 0
-135 9244 0
9244 136 137 138 0
-9245 163 164 165 0
-163 9245 0
-164 9245 0
-165 9245 0
9245 166 167 168 0
-9246 193 194 195 0
-193 9246 0
-194 9246 0
-195 9246 0
9246 196 197 198 0
-9241 9247 0
-9248 0
-9249 0
-9242 9250 0
-9247 9250 0
-9242 -9247 9251 0
-9248 9251 0
-9242 -9248 9252 0
-9249 9252 0
-9242 -9249 0
-9243 9253 0
-9250 9253 0
-9243 -9250 9254 0
-9251 9254 0
-9243 -9251 9255 0
-9252 9255 0
-9243 -9252 0
-9244 9256 0
-9253 9256 0
-9244 -9253 9257 0
-9254 9257 0
-9244 -9254 9258 0
-9255 9258 0
-9244 -9255 0
-9245 9259 0
-9256 9259 0
-9245 -9256 9260 0
-9257 9260 0
-9245 -9257 9261 0
-9258 9261 0
-9245 -9258 0
-9246 -9261 0
-9265 7 8 9 10 0
-7 9265 0
-8 9265 0
-9 9265 0
-10 9265 0
9265 11 12 0
-9266 37 38 39 40 0
-37 9266 0
-38 9266 0
-39 9266 0
-40 9266 0
9266 41 42 0
-9267 103 104 105 106 0
-103 9267 0
-104 9267 0
-105 9267 0
-106 9267 0
9267 107 108 0
-9268 133 134 135 136 0
-133 9268 0
-134 9268 0
-135 9268 0
-136 9268 0
9268 137 138 0
-9269 163 164 165 166 0
-163 9269 0
-164 9269 0
-165 9269 0
-166 9269 0
9269 167 168 0
-9270 193 194 195 196 0
-193 9270 0
-194 9270 0
-195 9270 0
-196 9270 0
9270 197 198 0
-9265 9271 0
-9272 0
-9273 0
-9274 0
-9266 9275 0
-9271 9275 0
-9266 -9271 9276 0
-9272 9276 0
-9266 -9272 9277 0
-9273 9277 0
-9266 -9273 9278 0
-9274 9278 0
-9266 -9274 0
-9267 9279 0
-9275 9279 0
-9267 -9275 9280 0
-9276 9280 0
-9267 -9276 9281 0
-9277 9281 0
-9267 -9277 9282 0
-9278 9282 0
-9267 -9278 0
-9268 9283 0
-9279 9283 0
-9268 -9279 9284 0
-9280 9284 0
-9268 -9280 9285 0
-9281 9285 0
-9268 -9281 9286 0
-9282 9286 0
-9268 -9282 0
-9269 9287 0
-9283 9287 0
-9269 -9283 9288 0
-9284 9288 0
-9269 -9284 9289 0
-9285 9289 0
-9269 -9285 9290 0
-9286 9290 0
-9269 -9286 0
-9270 -9290 0
-9295 7 8 9 10 11 0
-7 9295 0
-8 9295 0
-9 9295 0
-10 9295 0
-11 9295 0
9295 12 0
-9296 37 38 39 40 41 0
-37 9296 0
-38 9296 0
-39 9296 0
-40 9296 0
-41 9296 0
9296 42 0
-9297 103 104 105 106 107 0
-103 9297 0
-104 9297 0
-105 9297 0
-106 9297 0
-107 9297 0
9297 108 0
-9298 133 134 135 136 137 0
-133 9298 0
-134 9298 0
-135 9298 0
-136 9298 0
-137 9298 0
9298 138 0
-9299 163 164 165 166 167 0
-163 9299 0
-164 9299 0
-165 9299 0
-166 9299 0
-167 9299 0
9299 168 0
-9300 193 194 195 196 197 0
-193 9300 0
-194 9300 0
-195 9300 0
-196 9300 0
-197 9300 0
9300 198 0
-9295 9301 0
-9302 0
-9303 0
-9304 0
-9305 0
-9296 9306 0
-9301 9306 0
-9296 -9301 9307 0
-9302 9307 0
-9296 -9302 9308 0
-9303 9308 0
-9296 -9303 9309 0
-9304 9309 0
-9296 -9304 9310 0
-9305 9310 0
-9296 -9305 0
-9297 9311 0
-9306 9311 0
-9297 -9306 9312 0
-9307 9312 0
-9297 -9307 9313 0
-9308 9313 0
-9297 -9308 9314 0
-9309 9314 0
-9297 -9309 9315 0
-9310 9315 0
-9297 -9310 0
-9298 9316 0
-9311 9316 0
-9298 -9311 9317 0
-9312 9317 0
-9298 -9312 9318 0
-9313 9318 0
-9298 -9313 9319 0
-9314 9319 0
-9298 -9314 9320 0
-9315 9320 0
-9298 -9315 0
-9299 9321 0
-9316 9321 0
-9299 -9316 9322 0
-9317 9322 0
-9299 -9317 9323 0
-9318 9323 0
-9299 -9318 9324 0
-9319 9324 0
-9299 -9319 9325 0
-9320 9325 0
-9299 -9320 0
-9300 -9325 0
-9331 7 8 9 10 11 12 0
-7 9331 0
-8 9331 0
-9 9331 0
-10 9331 0
-11 9331 0
-12 9331 0
9331 0
-9332 37 38 39 40 41 42 0
-37 9332 0
-38 9332 0
-39 9332 0
-40 9332 0
-41 9332 0
-42 9332 0
9332 0
-9333 103 104 105 106 107 108 0
-103 9333 0
-104 9333 0
-105 9333 0
-106 9333 0
-107 9333 0
-108 9333 0
9333 0
-9334 133 134 135 136 137 138 0
-133 9334 0
-134 9334 0
-135 9334 0
-136 9334 0
-137 9334 0
-138 9334 0
9334 0
-9335 163 164 165 166 167 168 0
-163 9335 0
-164 9335 0
-165 9335 0
-166 9335 0
-167 9335 0
-168 9335 0
9335 0
-9336 193 194 195 196 197 198 0
-193 9336 0
-194 9336 0
-195 9336 0
-196 9336 0
-197 9336 0
-198 9336 0
9336 0
-9337 8 0
-8 9337 0
9337 7 9 10 11 12 0
-9338 38 0
-38 9338 0
9338 37 39 40 41 42 0
-9339 104 0
-104 9339 0
9339 103 105 106 107 108 0
-9340 134 0
-134 9340 0
9340 133 135 136 137 138 0
-9341 164 0
-164 9341 0
9341 163 165 166 167 168 0
-9342 194 0
-194 9342 0
9342 193 195 196 197 198 0
-9337 9343 0
-9338 9344 0
-9343 9344 0
-9338 -9343 0
-9339 9345 0
-9344 9345 0
-9339 -9344 0
-9340 9346 0
-9345 9346 0
-9340 -9345 0
-9341 9347 0
-9346 9347 0
-9341 -9346 0
-9342 -9347 0
-9349 8 9 0
-8 9349 0
-9 9349 0
9349 7 10 11 12 0
-9350 38 39 0
-38 9350 0
-39 9350 0
9350 37 40 41 42 0
-9351 104 105 0
-104 9351 0
-105 9351 0
9351 103 106 107 108 0
-9352 134 135 0
-134 9352 0
-135 9352 0
9352 133 136 137 138 0
-9353 164 165 0
-164 9353 0
-165 9353 0
9353 163 166 167 168 0
-9354 194 195 0
-194 9354 0
-195 9354 0
9354 193 196 197 198 0
-9349 9355 0
-9356 0
-9350 9357 0
-9355 9357 0
-9350 -9355 9358 0
-9356 9358 0
-9350 -9356 0
-9351 9359 0
-9357 9359 0
-9351 -9357 9360 0
-9358 9360 0
-9351 -9358 0
-9352 9361 0
-9359 9361 0
-9352 -9359 9362 0
-9360 9362 0
-9352 -9360 0
-9353 9363 0
-9361 9363 0
-9353 -9361 9364 0
-9362 9364 0
-9353 -9362 0
-9354 -9364 0
-9367 8 9 10 0
-8 9367 0
-9 9367 0
-10 9367 0
9367 7 11 12 0
-9368 38 39 40 0
-38 9368 0
-39 9368 0
-40 9368 0
9368 37 41 42 0
-9369 104 105 106 0
-104 9369 0
-105 9369 0
-106 9369 0
9369 103 107 108 0
-9370 134 135 136 0
-134 9370 0
-135 9370 0
-136 9370 0
9370 133 137 138 0
-9371 164 165 166 0
-164 9371 0
-165 9371 0
-166 9371 0
9371 163 167 168 0
-9372 194 195 196 0
-194 9372 0
-195 9372 0
-196 9372 0
9372 193 197 198 0
-9367 9373 0
-9374 0
-9375 0
-9368 9376 0
-9373 9376 0
-9368 -9373 9377 0
-9374 9377 0
-9368 -9374 9378 0
-9375 9378 0
-9368 -9375 0
-9369 9379 0
-9376 9379 0
-9369 -9376 9380 0
-9377 9380 0
-9369 -9377 9381 0
-9378 9381 0
-9369 -9378 0
-9370 9382 0
-9379 9382 0
-9370 -9379 9383 0
-9380 9383 0
-9370 -9380 9384 0
-9381 9384 0
-9370 -9381 0
-9371 9385 0
-9382 9385 0
-9371 -9382 9386 0
-9383 9386 0
-9371 -9383 9387 0
-9384 9387 0
-9371 -9384 0
-9372 -9387 0
-9391 8 9 10 11 0
-8 9391 0
-9 9391 0
-10 9391 0
-11 9391 0
9391 7 12 0
-9392 38 39 40 41 0
-38 9392 0
-39 9392 0
-40 9392 0
-41 9392 0
9392 37 42 0
-9393 104 105 106 107 0
-104 9393 0
-105 9393 0
-106 9393 0
-107 9393 0
9393 103 108 0
-9394 134 135 136 137 0
-134 9394 0
-135 9394 0
-136 9394 0
-137 9394 0
9394 133 138 0
-9395 164 165 166 167 0
-164 9395 0
-165 9395 0
-166 9395 0
-167 9395 0
9395 163 168 0
-9396 194 195 196 197 0
-194 9396 0
-195 9396 0
-196 9396 0
-197 9396 0
9396 193 198 0
-9391 9397 0
-9398 0
-9399 0
-9400 0
-9392 9401 0
-9397 9401 0
-9392 -9397 9402 0
-9398 9402 0
-9392 -9398 9403 0
-9399 9403 0
-9392 -9399 9404 0
-9400 9404 0
-9392 -9400 0
-9393 9405 0
-9401 9405 0
-9393 -9401 9406 0
-9402 9406 0
-9393 -9402 9407 0
-9403 9407 0
-9393 -9403 9408 0
-9404 9408 0
-9393 -9404 0
-9394 9409 0
-9405 9409 0
-9394 -9405 9410 0
-9406 9410 0
-9394 -9406 9411 0
-9407 9411 0
-9394 -9407 9412 0
-9408 9412 0
-9394 -9408 0
-9395 9413 0
-9409 9413 0
-9395 -9409 9414 0
-9410 9414 0
-9395 -9410 9415 0
-9411 9415 0
-9395 -9411 9416 0
-9412 9416 0
-9395 -9412 0
-9396 -9416 0
-9421 8 9 10 11 12 0
-8 9421 0
-9 9421 0
-10 9421 0
-11 9421 0
-12 9421 0
9421 7 0
-9422 38 39 40 41 42 0
-38 9422 0
-39 9422 0
-40 9422 0
-41 9422 0
-42 9422 0
9422 37 0
-9423 104 105 106 107 108 0
-104 9423 0
-105 9423 0
-106 9423 0
-107 9423 0
-108 9423 0
9423 103 0
-9424 134 135 136 137 138 0
-134 9424 0
-135 9424 0
-136 9424 0
-137 9424 0
-138 9424 0
9424 133 0
-9425 164 165 166 167 168 0
-164 9425 0
-165 9425 0
-166 9425 0
-167 9425 0
-168 9425 0
9425 163 0
-9426 194 195 196 197 198 0
-194 9426 0
-195 9426 0
-196 9426 0
-197 9426 0
-198 9426 0
9426 193 0
-9421 9427 0
-9428 0
-9429 0
-9430 0
-9431 0
-9422 9432 0
-9427 9432 0
-9422 -9427 9433 0
-9428 9433 0
-9422 -9428 9434 0
-9429 9434 0
-9422 -9429 9435 0
-9430 9435 0
-9422 -9430 9436 0
-9431 9436 0
-9422 -9431 0
-9423 9437 0
-9432 9437 0
-9423 -9432 9438 0
-9433 9438 0
-9423 -9433 9439 0
-9434 9439 0
-9423 -9434 9440 0
-9435 9440 0
-9423 -9435 9441 0
-9436 9441 0
-9423 -9436 0
-9424 9442 0
-9437 9442 0
-9424 -9437 9443 0
-9438 9443 0
-9424 -9438 9444 0
-9439 9444 0
-9424 -9439 9445 0
-9440 9445 0
-9424 -9440 9446 0
-9441 9446 0
-9424 -9441 0
-9425 9447 0
-9442 9447 0
-9425 -9442 9448 0
-9443 9448 0
-9425 -9443 9449 0
-9444 9449 0
-9425 -9444 9450 0
-9445 9450 0
-9425 -9445 9451 0
-9446 9451 0
-9425 -9446 0
-9426 -9451 0
-9457 9 0
-9 9457 0
9457 7 8 10 11 12 0
-9458 39 0
-39 9458 0
9458 37 38 40 41 42 0
-9459 105 0
-105 9459 0
9459 103 104 106 107 108 0
-9460 135 0
-135 9460 0
9460 133 134 136 137 138 0
-9461 165 0
-165 9461 0
9461 163 164 166 167 168 0
-9462 195 0
-195 9462 0
9462 193 194 196 197 198 0
-9457 9463 0
-9458 9464 0
-9463 9464 0
-9458 -9463 0
-9459 9465 0
-9464 9465 0
-9459 -9464 0
-9460 9466 0
-9465 9466 0
-9460 -9465 0
-9461 9467 0
-9466 9467 0
-9461 -9466 0
-9462 -9467 0
-9469 9 10 0
-9 9469 0
-10 9469 0
9469 7 8 11 12 0
-9470 39 40 0
-39 9470 0
-40 9470 0
9470 37 38 41 42 0
-9471 105 106 0
-105 9471 0
-106 9471 0
9471 103 104 107 108 0
-9472 135 136 0
-135 9472 0
-136 9472 0
9472 133 134 137 138 0
-9473 165 166 0
-165 9473 0
-166 9473 0
9473 163 164 167 168 0
-9474 195 196 0
-195 9474 0
-196 9474 0
9474 193 194 197 198 0
-9469 9475 0
-9476 0
-9470 9477 0
-9475 9477 0
-9470 -9475 9478 0
-9476 9478 0
-9470 -9476 0
-9471 9479 0
-9477 9479 0
-9471 -9477 9480 0
-9478 9480 0
-9471 -9478 0
-9472 9481 0
-9479 9481 0
-9472 -9479 9482 0
-9480 9482 0
-9472 -9480 0
-9473 9483 0
-9481 9483 0
-9473 -9481 9484 0
-9482 9484 0
-9473 -9482 0
-9474 -9484 0
-9487 9 10 11 0
-9 9487 0
-10 9487 0
-11 9487 0
9487 7 8 12 0
-9488 39 40 41 0
-39 9488 0
-40 9488 0
-41 9488 0
9488 37 38 42 0
-9489 105 106 107 0
-105 9489 0
-106 9489 0
-107 9489 0
9489 103 104 108 0
-9490 135 136 137 0
-135 9490 0
-136 9490 0
-137 9490 0
9490 133 134 138 0
-9491 165 166 167 0
-165 9491 0
-166 9491 0
-167 9491 0
9491 163 164 168 0
-9492 195 196 197 0
-195 9492 0
-196 9492 0
-197 9492 0
9492 193 194 198 0
-9487 9493 0
-9494 0
-9495 0
-9488 9496 0
-9493 9496 0
-9488 -9493 9497 0
-9494 9497 0
-9488 -9494 9498 0
-9495 9498 0
-9488 -9495 0
-9489 9499 0
-9496 9499 0
-9489 -9496 9500 0
-9497 9500 0
-9489 -9497 9501 0
-9498 9501 0
-9489 -9498 0
-9490 9502 0
-9499 9502 0
-9490 -9499 9503 0
-9500 9503 0
-9490 -9500 9504 0
-9501 9504 0
-9490 -9501 0
-9491 9505 0
-9502 9505 0
-9491 -9502 9506 0
-9503 9506 0
-9491 -9503 9507 0
-9504 9507 0
-9491 -9504 0
-9492 -9507 0
-9511 9 10 11 12 0
-9 9511 0
-10 9511 0
-11 9511 0
-12 9511 0
9511 7 8 0
-9512 39 40 41 42 0
-39 9512 0
-40 9512 0
-41 9512 0
-42 9512 0
9512 37 38 0
-9513 105 106 107 108 0
-105 9513 0
-106 9513 0
-107 9513 0
-108 9513 0
9513 103 104 0
-9514 135 136 137 138 0
-135 9514 0
-136 9514 0
-137 9514 0
-138 9514 0
9514 133 134 0
-9515 165 166 167 168 0
-165 9515 0
-166 9515 0
-167 9515 0
-168 9515 0
9515 163 164 0
-9516 195 196 197 198 0
-195 9516 0
-196 9516 0
-197 9516 0
-198 9516 0
9516 193 194 0
-9511 9517 0
-9518 0
-9519 0
-9520 0
-9512 9521 0
-9517 9521 0
-9512 -9517 9522 0
-9518 9522 0
-9512 -9518 9523 0
-9519 9523 0
-9512 -9519 9524 0
-9520 9524 0
-9512 -9520 0
-9513 9525 0
-9521 9525 0
-9513 -9521 9526 0
-9522 9526 0
-9513 -9522 9527 0
-9523 9527 0
-9513 -9523 9528 0
-9524 9528 0
-9513 -9524 0
-9514 9529 0
-9525 9529 0
-9514 -9525 9530 0
-9526 9530 0
-9514 -9526 9531 0
-9527 9531 0
-9514 -9527 9532 0
-9528 9532 0
-9514 -9528 0
-9515 9533 0
-9529 9533 0
-9515 -9529 9534 0
-9530 9534 0
-9515 -9530 9535 0
-9531 9535 0
-9515 -9531 9536 0
-9532 9536 0
-9515 -9532 0
-9516 -9536 0
-9541 10 0
-10 9541 0
9541 7 8 9 11 12 0
-9542 40 0
-40 9542 0
9542 37 38 39 41 42 0
-9543 106 0
-106 9543 0
9543 103 104 105 107 108 0
-9544 136 0
-136 9544 0
9544 133 134 135 137 138 0
-9545 166 0
-166 9545 0
9545 163 164 165 167 168 0
-9546 196 0
-196 9546 0
9546 193 194 195 197 198 0
-9541 9547 0
-9542 9548 0
-9547 9548 0
-9542 -9547 0
-9543 9549 0
-9548 9549 0
-9543 -9548 0
-9544 9550 0
-9549 9550 0
-9544 -9549 0
-9545 9551 0
-9550 9551 0
-9545 -9550 0
-9546 -9551 0
-9553 10 11 0
-10 9553 0
-11 9553 0
9553 7 8 9 12 0
-9554 40 41 0
-40 9554 0
-41 9554 0
9554 37 38 39 42 0
-9555 106 107 0
-106 9555 0
-107 9555 0
9555 103 104 105 108 0
-9556 136 137 0
-136 9556 0
-137 9556 0
9556 133 134 135 138 0
-9557 166 167 0
-166 9557 0
-167 9557 0
9557 163 164 165 168 0
-9558 196 197 0
-196 9558 0
-197 9558 0
9558 193 194 195 198 0
-9553 9559 0
-9560 0
-9554 9561 0
-9559 9561 0
-9554 -9559 9562 0
-9560 9562 0
-9554 -9560 0
-9555 9563 0
-9561 9563 0
-9555 -9561 9564 0
-9562 9564 0
-9555 -9562 0
-9556 9565 0
-9563 9565 0
-9556 -9563 9566 0
-9564 9566 0
-9556 -9564 0
-9557 9567 0
-9565 9567 0
-9557 -9565 9568 0
-9566 9568 0
-9557 -9566 0
-9558 -9568 0
-9571 10 11 12 0
-10 9571 0
-11 9571 0
-12 9571 0
9571 7 8 9 0
-9572 40 41 42 0
-40 9572 0
-41 9572 0
-42 9572 0
9572 37 38 39 0
-9573 106 107 108 0
-106 9573 0
-107 9573 0
-108 9573 0
9573 103 104 105 0
-9574 136 137 138 0
-136 9574 0
-137 9574 0
-138 9574 0
9574 133 134 135 0
-9575 166 167 168 0
-166 9575 0
-167 9575 0
-168 9575 0
9575 163 164 165 0
-9576 196 197 198 0
-196 9576 0
-197 9576 0
-198 9576 0
9576 193 194 195 0
-9571 9577 0
-9578 0
-9579 0
-9572 9580 0
-9577 9580 0
-9572 -9577 9581 0
-9578 9581 0
-9572 -9578 9582 0
-9579 9582 0
-9572 -9579 0
-9573 9583 0
-9580 9583 0
-9573 -9580 9584 0
-9581 9584 0
-9573 -9581 9585 0
-9582 9585 0
-9573 -9582 0
-9574 9586 0
-9583 9586 0
-9574 -9583 9587 0
-9584 9587 0
-9574 -9584 9588 0
-9585 9588 0
-9574 -9585 0
-9575 9589 0
-9586 9589 0
-9575 -9586 9590 0
-9587 9590 0
-9575 -9587 9591 0
-9588 9591 0
-9575 -9588 0
-9576 -9591 0
-9595 11 0
-11 9595 0
9595 7 8 9 10 12 0
-9596 41 0
-41 9596 0
9596 37 38 39 40 42 0
-9597 107 0
-107 9597 0
9597 103 104 105 106 108 0
-9598 137 0
-137 9598 0
9598 133 134 135 136 138 0
-9599 167 0
-167 9599 0
9599 163 164 165 166 168 0
-9600 197 0
-197 9600 0
9600 193 194 195 196 198 0
-9595 9601 0
-9596 9602 0
-9601 9602 0
-9596 -9601 0
-9597 9603 0
-9602 9603 0
-9597 -9602 0
-9598 9604 0
-9603 9604 0
-9598 -9603 0
-9599 9605 0
-9604 9605 0
-9599 -9604 0
-9600 -9605 0
-9607 11 12 0
-11 9607 0
-12 9607 0
9607 7 8 9 10 0
-9608 41 42 0
-41 9608 0
-42 9608 0
9608 37 38 39 40 0
-9609 107 108 0
-107 9609 0
-108 9609 0
9609 103 104 105 106 0
-9610 137 138 0
-137 9610 0
-138 9610 0
9610 133 134 135 136 0
-9611 167 168 0
-167 9611 0
-168 9611 0
9611 163 164 165 166 0
-9612 197 198 0
-197 9612 0
-198 9612 0
9612 193 194 195 196 0
-9607 9613 0
-9614 0
-9608 9615 0
-9613 9615 0
-9608 -9613 9616 0
-9614 9616 0
-9608 -9614 0
-9609 9617 0
-9615 9617 0
-9609 -9615 9618 0
-9616 9618 0
-9609 -9616 0
-9610 9619 0
-9617 9619 0
-9610 -9617 9620 0
-9618 9620 0
-9610 -9618 0
-9611 9621 0
-9619 9621 0
-9611 -9619 9622 0
-9620 9622 0
-9611 -9620 0
-9612 -9622 0
-9625 12 0
-12 9625 0
9625 7 8 9 10 11 0
-9626 42 0
-42 9626 0
9626 37 38 39 40 41 0
-9627 108 0
-108 9627 0
9627 103 104 105 106 107 0
-9628 138 0
-138 9628 0
9628 133 134 135 136 137 0
-9629 168 0
-168 9629 0
9629 163 164 165 166 167 0
-9630 198 0
-198 9630 0
9630 193 194 195 196 197 0
-9625 9631 0
-9626 9632 0
-9631 9632 0
-9626 -9631 0
-9627 9633 0
-9632 9633 0
-9627 -9632 0
-9628 9634 0
-9633 9634 0
-9628 -9633 0
-9629 9635 0
-9634 9635 0
-9629 -9634 0
-9630 -9635 0
-7 9637 0
-37 9638 0
-9637 9638 0
-37 -9637 0
-103 9639 0
-9638 9639 0
-103 -9638 0
-133 9640 0
-9639 9640 0
-133 -9639 0
-163 9641 0
-9640 9641 0
-163 -9640 0
-193 -9641 0
7 37 103 133 163 193 0
-8 9643 0
-38 9644 0
-9643 9644 0
-38 -9643 0
-104 9645 0
-9644 9645 0
-104 -9644 0
-134 9646 0
-9645 9646 0
-134 -9645 0
-164 9647 0
-9646 9647 0
-164 -9646 0
-194 -9647 0
8 38 104 134 164 194 0
-9 9649 0
-39 9650 0
-9649 9650 0
-39 -9649 0
-105 9651 0
-9650 9651 0
-105 -9650 0
-135 9652 0
-9651 9652 0
-135 -9651 0
-165 9653 0
-9652 9653 0
-165 -9652 0
-195 -9653 0
9 39 105 135 165 195 0
-10 9655 0
-40 9656 0
-9655 9656 0
-40 -9655 0
-106 9657 0
-9656 9657 0
-106 -9656 0
-136 9658 0
-9657 9658 0
-136 -9657 0
-166 9659 0
-9658 9659 0
-166 -9658 0
-196 -9659 0
10 40 106 136 166 196 0
-11 9661 0
-41 9662 0
-9661 9662 0
-41 -9661 0
-107 9663 0
-9662 9663 0
-107 -9662 0
-137 9664 0
-9663 9664 0
-137 -9663 0
-167 9665 0
-9664 9665 0
-167 -9664 0
-197 -9665 0
11 41 107 137 167 197 0
-12 9667 0
-42 9668 0
-9667 9668 0
-42 -9667 0
-108 9669 0
-9668 9669 0
-108 -9668 0
-138 9670 0
-9669 9670 0
-138 -9669 0
-168 9671 0
-9670 9671 0
-168 -9670 0
-198 -9671 0
12 42 108 138 168 198 0
-9673 13 0
-13 9673 0
9673 14 15 16 17 18 0
-9674 43 0
-43 9674 0
9674 44 45 46 47 48 0
-9675 73 0
-73 9675 0
9675 74 75 76 77 78 0
-9676 139 0
-139 9676 0
9676 140 141 142 143 144 0
-9677 169 0
-169 9677 0
9677 170 171 172 173 174 0
-9678 199 0
-199 9678 0
9678 200 201 202 203 204 0
-9673 9679 0
-9674 9680 0
-9679 9680 0
-9674 -9679 0
-9675 9681 0
-9680 9681 0
-9675 -9680 0
-9676 9682 0
-9681 9682 0
-9676 -9681 0
-9677 9683 0
-9682 9683 0
-9677 -9682 0
-9678 -9683 0
-9685 13 14 0
-13 9685 0
-14 9685 0
9685 15 16 17 18 0
-9686 43 44 0
-43 9686 0
-44 9686 0
9686 45 46 47 48 0
-9687 73 74 0
-73 9687 0
-74 9687 0
9687 75 76 77 78 0
-9688 139 140 0
-139 9688 0
-140 9688 0
9688 141 142 143 144 0
-9689 169 170 0
-169 9689 0
-170 9689 0
9689 171 172 173 174 0
-9690 199 200 0
-199 9690 0
-200 9690 0
9690 201 202 203 204 0
-9685 9691 0
-9692 0
-9686 9693 0
-9691 9693 0
-9686 -9691 9694 0
-9692 9694 0
-9686 -9692 0
-9687 9695 0
-9693 9695 0
-9687 -9693 9696 0
-9694 9696 0
-9687 -9694 0
-9688 9697 0
-9695 9697 0
-9688 -9695 9698 0
-9696 9698 0
-9688 -9696 0
-9689 9699 0
-9697 9699 0
-9689 -9697 9700 0
-9698 9700 0
-9689 -9698 0
-9690 -9700 0
-9703 13 14 15 0
-13 9703 0
-14 9703 0
-15 9703 0
9703 16 17 18 0
-9704 43 44 45 0
-43 9704 0
-44 9704 0
-45 9704 0
9704 46 47 48 0
-9705 73 74 75 0
-73 9705 0
-74 9705 0
-75 9705 0
9705 76 77 78 0
-9706 139 140 141 0
-139 9706 0
-140 9706 0
-141 9706 0
9706 142 143 144 0
-9707 169 170 171 0
-169 9707 0
-170 9707 0
-171 9707 0
9707 172 173 174 0
-9708 199 200 201 0
-199 9708 0
-200 9708 0
-201 9708 0
9708 202 203 204 0
-9703 9709 0
-9710 0
-9711 0
-9704 9712 0
-9709 9712 0
-9704 -9709 9713 0
-9710 9713 0
-9704 -9710 9714 0
-9711 9714 0
-9704 -9711 0
-9705 9715 0
-9712 9715 0
-9705 -9712 9716 0
-9713 9716 0
-9705 -9713 9717 0
-9714 9717 0
-9705 -9714 0
-9706 9718 0
-9715 9718 0
-9706 -9715 9719 0
-9716 9719 0
-9706 -9716 9720 0
-9717 9720 0
-9706 -9717 0
-9707 9721 0
-9718 9721 0
-9707 -9718 9722 0
-9719 9722 0
-9707 -9719 9723 0
-9720 9723 0
-9707 -9720 0
-9708 -9723 0
-9727 13 14 15 16 0
-13 9727 0
-14 9727 0
-15 9727 0
-16 9727 0
9727 17 18 0
-9728 43 44 45 46 0
-43 9728 0
-44 9728 0
-45 9728 0
-46 9728 0
9728 47 48 0
-9729 73 74 75 76 0
-73 9729 0
-74 9729 0
-75 9729 0
-76 9729 0
9729 77 78 0
-9730 139 140 141 142 0
-139 9730 0
-140 9730 0
-141 9730 0
-142 9730 0
9730 143 144 0
-9731 169 170 171 172 0
-169 9731 0
-170 9731 0
-171 9731 0
-172 9731 0
9731 173 174 0
-9732 199 200 201 202 0
-199 9732 0
-200 9732 0
-201 9732 0
-202 9732 0
9732 203 204 0
-9727 9733 0
-9734 0
-9735 0
-9736 0
-9728 9737 0
-9733 9737 0
-9728 -9733 9738 0
-9734 9738 0
-9728 -9734 9739 0
-9735 9739 0
-9728 -9735 9740 0
-9736 9740 0
-9728 -9736 0
-9729 9741 0
-9737 9741 0
-9729 -9737 9742 0
-9738 9742 0
-9729 -9738 9743 0
-9739 9743 0
-9729 -9739 9744 0
-9740 9744 0
-9729 -9740 0
-9730 9745 0
-9741 9745 0
-9730 -9741 9746 0
-9742 9746 0
-9730 -9742 9747 0
-9743 9747 0
-9730 -9743 9748 0
-9744 9748 0
-9730 -9744 0
-9731 9749 0
-9745 9749 0
-9731 -9745 9750 0
-9746 9750 0
-9731 -9746 9751 0
-9747 9751 0
-9731 -9747 9752 0
-9748 9752 0
-9731 -9748 0
-9732 -9752 0
-9757 13 14 15 16 17 0
-13 9757 0
-14 9757 0
-15 9757 0
-16 9757 0
-17 9757 0
9757 18 0
-9758 43 44 45 46 47 0
-43 9758 0
-44 9758 0
-45 9758 0
-46 9758 0
-47 9758 0
9758 48 0
-9759 73 74 75 76 77 0
-73 9759 0
-74 9759 0
-75 9759 0
-76 9759 0
-77 9759 0
9759 78 0
-9760 139 140 141 142 143 0
-139 9760 0
-140 9760 0
-141 9760 0
-142 9760 0
-143 9760 0
9760 144 0
-9761 169 170 171 172 173 0
-169 9761 0
-170 9761 0
-171 9761 0
-172 9761 0
-173 9761 0
9761 174 0
-9762 199 200 201 202 203 0
-199 9762 0
-200 9762 0
-201 9762 0
-202 9762 0
-203 9762 0
9762 204 0
-9757 9763 0
-9764 0
-9765 0
-9766 0
-9767 0
-9758 9768 0
-9763 9768 0
-9758 -9763 9769 0
-9764 9769 0
-9758 -9764 9770 0
-9765 9770 0
-9758 -9765 9771 0
-9766 9771 0
-9758 -9766 9772 0
-9767 9772 0
-9758 -9767 0
-9759 9773 0
-9768 9773 0
-9759 -9768 9774 0
-9769 9774 0
-9759 -9769 9775 0
-9770 9775 0
-9759 -9770 9776 0
-9771 9776 0
-9759 -9771 9777 0
-9772 9777 0
-9759 -9772 0
-9760 9778 0
-9773 9778 0
-9760 -9773 9779 0
-9774 9779 0
-9760 -9774 9780 0
-9775 9780 0
-9760 -9775 9781 0
-9776 9781 0
-9760 -9776 9782 0
-9777 9782 0
-9760 -9777 0
-9761 9783 0
-9778 9783 0
-9761 -9778 9784 0
-9779 9784 0
-9761 -9779 9785 0
-9780 9785 0
-9761 -9780 9786 0
-9781 9786 0
-9761 -9781 9787 0
-9782 9787 0
-9761 -9782 0
-9762 -9787 0
-9793 13 14 15 16 17 18 0
-13 9793 0
-14 9793 0
-15 9793 0
-16 9793 0
-17 9793 0
-18 9793 0
9793 0
-9794 43 44 45 46 47 48 0
-43 9794 0
-44 9794 0
-45 9794 0
-46 9794 0
-47 9794 0
-48 9794 0
9794 0
-9795 73 74 75 76 77 78 0
-73 9795 0
-74 9795 0
-75 9795 0
-76 9795 0
-77 9795 0
-78 9795 0
9795 0
-9796 139 140 141 142 143 144 0
-139 9796 0
-140 9796 0
-141 9796 0
-142 9796 0
-143 9796 0
-144 9796 0
9796 0
-9797 169 170 171 172 173 174 0
-169 9797 0
-170 9797 0
-171 9797 0
-172 9797 0
-173 9797 0
-174 9797 0
9797 0
-9798 199 200 201 202 203 204 0
-199 9798 0
-200 9798 0
-201 9798 0
-202 9798 0
-203 9798 0
-204 9798 0
9798 0
-9799 14 0
-14 9799 0
9799 13 15 16 17 18 0
-9800 44 0
-44 9800 0
9800 43 45 46 47 48 0
-9801 74 0
-74 9801 0
9801 73 75 76 77 78 0
-9802 140 0
-140 9802 0
9802 139 141 142 143 144 0
-9803 170 0
-170 9803 0
9803 169 171 172 173 174 0
-9804 200 0
-200 9804 0
9804 199 201 202 203 204 0
-9799 9805 0
-9800 9806 0
-9805 9806 0
-9800 -9805 0
-9801 9807 0
-9806 9807 0
-9801 -9806 0
-9802 9808 0
-9807 9808 0
-9802 -9807 0
-9803 9809 0
-9808 9809 0
-9803 -9808 0
-9804 -9809 0
-9811 14 15 0
-14 9811 0
-15 9811 0
9811 13 16 17 18 0
-9812 44 45 0
-44 9812 0
-45 9812 0
9812 43 46 47 48 0
-9813 74 75 0
-74 9813 0
-75 9813 0
9813 73 76 77 78 0
-9814 140 141 0
-140 9814 0
-141 9814 0
9814 139 142 143 144 0
-9815 170 171 0
-170 9815 0
-171 9815 0
9815 169 172 173 174 0
-9816 200 201 0
-200 9816 0
-201 9816 0
9816 199 202 203 204 0
-9811 9817 0
-9818 0
-9812 9819 0
-9817 9819 0
-9812 -9817 9820 0
-9818 9820 0
-9812 -9818 0
-9813 9821 0
-9819 9821 0
-9813 -9819 9822 0
-9820 9822 0
-9813 -9820 0
-9814 9823 0
-9821 9823 0
-9814 -9821 9824 0
-9822 9824 0
-9814 -9822 0
-9815 9825 0
-9823 9825 0
-9815 -9823 9826 0
-9824 9826 0
-9815 -9824 0
-9816 -9826 0
-9829 14 15 16 0
-14 9829 0
-15 9829 0
-16 9829 0
9829 13 17 18 0
-9830 44 45 46 0
-44 9830 0
-45 9830 0
-46 9830 0
9830 43 47 48 0
-9831 74 75 76 0
-74 9831 0
-75 9831 0
-76 9831 0
9831 73 77 78 0
-9832 140 141 142 0
-140 9832 0
-141 9832 0
-142 9832 0
9832 139 143 144 0
-9833 170 171 172 0
-170 9833 0
-171 9833 0
-172 9833 0
9833 169 173 174 0
-9834 200 201 202 0
-200 9834 0
-201 9834 0
-202 9834 0
9834 199 203 204 0
-9829 9835 0
-9836 0
-9837 0
-9830 9838 0
-9835 9838 0
-9830 -9835 9839 0
-9836 9839 0
-9830 -9836 9840 0
-9837 9840 0
-9830 -9837 0
-9831 9841 0
-9838 9841 0
-9831 -9838 9842 0
-9839 9842 0
-9831 -9839 9843 0
-9840 9843 0
-9831 -9840 0
-9832 9844 0
-9841 9844 0
-9832 -9841 9845 0
-9842 9845 0
-9832 -9842 9846 0
-9843 9846 0
-9832 -9843 0
-9833 9847 0
-9844 9847 0
-9833 -9844 9848 0
-9845 9848 0
-9833 -9845 9849 0
-9846 9849 0
-9833 -9846 0
-9834 -9849 0
-9853 14 15 16 17 0
-14 9853 0
-15 9853 0
-16 9853 0
-17 9853 0
9853 13 18 0
-9854 44 45 46 47 0
-44 9854 0
-45 9854 0
-46 9854 0
-47 9854 0
9854 43 48 0
-9855 74 75 76 77 0
-74 9855 0
-75 9855 0
-76 9855 0
-77 9855 0
9855 73 78 0
-9856 140 141 142 143 0
-140 9856 0
-141 9856 0
-142 9856 0
-143 9856 0
9856 139 144 0
-9857 170 171 172 173 0
-170 9857 0
-171 9857 0
-172 9857 0
-173 9857 0
9857 169 174 0
-9858 200 201 202 203 0
-200 9858 0
-201 9858 0
-202 9858 0
-203 9858 0
9858 199 204 0
-9853 9859 0
-9860 0
-9861 0
-9862 0
-9854 9863 0
-9859 9863 0
-9854 -9859 9864 0
-9860 9864 0
-9854 -9860 9865 0
-9861 9865 0
-9854 -9861 9866 0
-9862 9866 0
-9854 -9862 0
-9855 9867 0
-9863 9867 0
-9855 -9863 9868 0
-9864 9868 0
-9855 -9864 9869 0
-9865 9869 0
-9855 -9865 9870 0
-9866 9870 0
-9855 -9866 0
-9856 9871 0
-9867 9871 0
-9856 -9867 9872 0
-9868 9872 0
-9856 -9868 9873 0
-9869 9873 0
-9856 -9869 9874 0
-9870 9874 0
-9856 -9870 0
-9857 9875 0
-9871 9875 0
-9857 -9871 9876 0
-9872 9876 0
-9857 -9872 9877 0
-9873 9877 0
-9857 -9873 9878 0
-9874 9878 0
-9857 -9874 0
-9858 -9878 0
-9883 14 15 16 17 18 0
-14 9883 0
-15 9883 0
-16 9883 0
-17 9883 0
-18 9883 0
9883 13 0
-9884 44 45 46 47 48 0
-44 9884 0
-45 9884 0
-46 9884 0
-47 9884 0
-48 9884 0
9884 43 0
-9885 74 75 76 77 78 0
-74 9885 0
-75 9885 0
-76 9885 0
-77 9885 0
-78 9885 0
9885 73 0
-9886 140 141 142 143 144 0
-140 9886 0
-141 9886 0
-142 9886 0
-143 9886 0
-144 9886 0
9886 139 0
-9887 170 171 172 173 174 0
-170 9887 0
-171 9887 0
-172 9887 0
-173 9887 0
-174 9887 0
9887 169 0
-9888 200 201 202 203 204 0
-200 9888 0
-201 9888 0
-202 9888 0
-203 9888 0
-204 9888 0
9888 199 0
-9883 9889 0
-9890 0
-9891 0
-9892 0
-9893 0
-9884 9894 0
-9889 9894 0
-9884 -9889 9895 0
-9890 9895 0
-9884 -9890 9896 0
-9891 9896 0
-9884 -9891 9897 0
-9892 9897 0
-9884 -9892 9898 0
-9893 9898 0
-9884 -9893 0
-9885 9899 0
-9894 9899 0
-9885 -9894 9900 0
-9895 9900 0
-9885 -9895 9901 0
-9896 9901 0
-9885 -9896 9902 0
-9897 9902 0
-9885 -9897 9903 0
-9898 9903 0
-9885 -9898 0
-9886 9904 0
-9899 9904 0
-9886 -9899 9905 0
-9900 9905 0
-9886 -9900 9906 0
-9901 9906 0
-9886 -9901 9907 0
-9902 9907 0
-9886 -9902 9908 0
-9903 9908 0
-9886 -9903 0
-9887 9909 0
-9904 9909 0
-9887 -9904 9910 0
-9905 9910 0
-9887 -9905 9911 0
-9906 9911 0
-9887 -9906 9912 0
-9907 9912 0
-9887 -9907 9913 0
-9908 9913 0
-9887 -9908 0
-9888 -9913 0
-9919 15 0
-15 9919 0
9919 13 14 16 17 18 0
-9920 45 0
-45 9920 0
9920 43 44 46 47 48 0
-9921 75 0
-75 9921 0
9921 73 74 76 77 78 0
-9922 141 0
-141 9922 0
9922 139 140 142 143 144 0
-9923 171 0
-171 9923 0
9923 169 170 172 173 174 0
-9924 201 0
-201 9924 0
9924 199 200 202 203 204 0
-9919 9925 0
-9920 9926 0
-9925 9926 0
-9920 -9925 0
-9921 9927 0
-9926 9927 0
-9921 -9926 0
-9922 9928 0
-9927 9928 0
-9922 -9927 0
-9923 9929 0
-9928 9929 0
-9923 -9928 0
-9924 -9929 0
-9931 15 16 0
-15 9931 0
-16 9931 0
9931 13 14 17 18 0
-9932 45 46 0
-45 9932 0
-46 9932 0
9932 43 44 47 48 0
-9933 75 76 0
-75 9933 0
-76 9933 0
9933 73 74 77 78 0
-9934 141 142 0
-141 9934 0
-142 9934 0
9934 139 140 143 144 0
-9935 171 172 0
-171 9935 0
-172 9935 0
9935 169 170 173 174 0
-9936 201 202 0
-201 9936 0
-202 9936 0
9936 199 200 203 204 0
-9931 9937 0
-9938 0
-9932 9939 0
-9937 9939 0
-9932 -9937 9940 0
-9938 9940 0
-9932 -9938 0
-9933 9941 0
-9939 9941 0
-9933 -9939 9942 0
-9940 9942 0
-9933 -9940 0
-9934 9943 0
-9941 9943 0
-9934 -9941 9944 0
-9942 9944 0
-9934 -9942 0
-9935 9945 0
-9943 9945 0
-9935 -9943 9946 0
-9944 9946 0
-9935 -9944 0
-9936 -9946 0
-9949 15 16 17 0
-15 9949 0
-16 9949 0
-17 9949 0
9949 13 14 18 0
-9950 45 46 47 0
-45 9950 0
-46 9950 0
-47 9950 0
9950 43 44 48 0
-9951 75 76 77 0
-75 9951 0
-76 9951 0
-77 9951 0
9951 73 74 78 0
-9952 141 142 143 0
-141 9952 0
-142 9952 0
-143 9952 0
9952 139 140 144 0
-9953 171 172 173 0
-171 9953 0
-172 9953 0
-173 9953 0
9953 169 170 174 0
-9954 201 202 203 0
-201 9954 0
-202 9954 0
-203 9954 0
9954 199 200 204 0
-9949 9955 0
-9956 0
-9957 0
-9950 9958 0
-9955 9958 0
-9950 -9955 9959 0
-9956 9959 0
-9950 -9956 9960 0
-9957 9960 0
-9950 -9957 0
-9951 9961 0
-9958 9961 0
-9951 -9958 9962 0
-9959 9962 0
-9951 -9959 9963 0
-9960 9963 0
-9951 -9960 0
-9952 9964 0
-9961 9964 0
-9952 -9961 9965 0
-9962 9965 0
-9952 -9962 9966 0
-9963 9966 0
-9952 -9963 0
-9953 9967 0
-9964 9967 0
-9953 -9964 9968 0
-9965 9968 0
-9953 -9965 9969 0
-9966 9969 0
-9953 -9966 0
-9954 -9969 0
-9973 15 16 17 18 0
-15 9973 0
-16 9973 0
-17 9973 0
-18 9973 0
9973 13 14 0
-9974 45 46 47 48 0
-45 9974 0
-46 9974 0
-47 9974 0
-48 9974 0
9974 43 44 0
-9975 75 76 77 78 0
-75 9975 0
-76 9975 0
-77 9975 0
-78 9975 0
9975 73 74 0
-9976 141 142 143 144 0
-141 9976 0
-142 9976 0
-143 9976 0
-144 9976 0
9976 139 140 0
-9977 171 172 173 174 0
-171 9977 0
-172 9977 0
-173 9977 0
-174 9977 0
9977 169 170 0
-9978 201 202 203 204 0
-201 9978 0
-202 9978 0
-203 9978 0
-204 9978 0
9978 199 200 0
-9973 9979 0
-9980 0
-9981 0
-9982 0
-9974 9983 0
-9979 9983 0
-9974 -9979 9984 0
-9980 9984 0
-9974 -9980 9985 0
-9981 9985 0
-9974 -9981 9986 0
-9982 9986 0
-9974 -9982 0
-9975 9987 0
-9983 9987 0
-9975 -9983 9988 0
-9984 9988 0
-9975 -9984 9989 0
-9985 9989 0
-9975 -9985 9990 0
-9986 9990 0
-9975 -9986 0
-9976 9991 0
-9987 9991 0
-9976 -9987 9992 0
-9988 9992 0
-9976 -9988 9993 0
-9989 9993 0
-9976 -9989 9994 0
-9990 9994 0
-9976 -9990 0
-9977 9995 0
-9991 9995 0
-9977 -9991 9996 0
-9992 9996 0
-9977 -9992 9997 0
-9993 9997 0
-9977 -9993 9998 0
-9994 9998 0
-9977 -9994 0
-9978 -9998 0
-10003 16 0
-16 10003 0
10003 13 14 15 17 18 0
-10004 46 0
-46 10004 0
10004 43 44 45 47 48 0
-10005 76 0
-76 10005 0
10005 73 74 75 77 78 0
-10006 142 0
-142 10006 0
10006 139 140 141 143 144 0
-10007 172 0
-172 10007 0
10007 169 170 171 173 174 0
-10008 202 0
-202 10008 0
10008 199 200 201 203 204 0
-10003 10009 0
-10004 10010 0
-10009 10010 0
-10004 -10009 0
-10005 10011 0
-10010 10011 0
-10005 -10010 0
-10006 10012 0
-10011 10012 0
-10006 -10011 0
-10007 10013 0
-10012 10013 0
-10007 -10012 0
-10008 -10013 0
-10015 16 17 0
-16 10015 0
-17 10015 0
10015 13 14 15 18 0
-10016 46 47 0
-46 10016 0
-47 10016 0
10016 43 44 45 48 0
-10017 76 77 0
-76 10017 0
-77 10017 0
10017 73 74 75 78 0
-10018 142 143 0
-142 10018 0
-143 10018 0
10018 139 140 141 144 0
-10019 172 173 0
-172 10019 0
-173 10019 0
10019 169 170 171 174 0
-10020 202 203 0
-202 10020 0
-203 10020 0
10020 199 200 201 204 0
-10015 10021 0
-10022 0
-10016 10023 0
-10021 10023 0
-10016 -10021 10024 0
-10022 10024 0
-10016 -10022 0
-10017 10025 0
-10023 10025 0
-10017 -10023 10026 0
-10024 10026 0
-10017 -10024 0
-10018 10027 0
-10025 10027 0
-10018 -10025 10028 0
-10026 10028 0
-10018 -10026 0
-10019 10029 0
-10027 10029 0
-10019 -10027 10030 0
-10028 10030 0
-10019 -10028 0
-10020 -10030 0
-10033 16 17 18 0
-16 10033 0
-17 10033 0
-18 10033 0
10033 13 14 15 0
-10034 46 47 48 0
-46 10034 0
-47 10034 0
-48 10034 0
10034 43 44 45 0
-10035 76 77 78 0
-76 10035 0
-77 10035 0
-78 10035 0
10035 73 74 75 0
-10036 142 143 144 0
-142 10036 0
-143 10036 0
-144 10036 0
10036 139 140 141 0
-10037 172 173 174 0
-172 10037 0
-173 10037 0
-174 10037 0
10037 169 170 171 0
-10038 202 203 204 0
-202 10038 0
-203 10038 0
-204 10038 0
10038 199 200 201 0
-10033 10039 0
-10040 0
-10041 0
-10034 10042 0
-10039 10042 0
-10034 -10039 10043 0
-10040 10043 0
-10034 -10040 10044 0
-10041 10044 0
-10034 -10041 0
-10035 10045 0
-10042 10045 0
-10035 -10042 10046 0
-10043 10046 0
-10035 -10043 10047 0
-10044 10047 0
-10035 -10044 0
-10036 10048 0
-10045 10048 0
-10036 -10045 10049 0
-10046 10049 0
-10036 -10046 10050 0
-10047 10050 0
-10036 -10047 0
-10037 10051 0
-10048 10051 0
-10037 -10048 10052 0
-10049 10052 0
-10037 -10049 10053 0
-10050 10053 0
-10037 -10050 0
-10038 -10053 0
-10057 17 0
-17 10057 0
10057 13 14 15 16 18 0
-10058 47 0
-47 10058 0
10058 43 44 45 46 48 0
-10059 77 0
-77 10059 0
10059 73 74 75 76 78 0
-10060 143 0
-143 10060 0
10060 139 140 141 142 144 0
-10061 173 0
-173 10061 0
10061 169 170 171 172 174 0
-10062 203 0
-203 10062 0
10062 199 200 201 202 204 0
-10057 10063 0
-10058 10064 0
-10063 10064 0
-10058 -10063 0
-10059 10065 0
-10064 10065 0
-10059 -10064 0
-10060 10066 0
-10065 10066 0
-10060 -10065 0
-10061 10067 0
-10066 10067 0
-10061 -10066 0
-10062 -10067 0
-10069 17 18 0
-17 10069 0
-18 10069 0
10069 13 14 15 16 0
-10070 47 48 0
-47 10070 0
-48 10070 0
10070 43 44 45 46 0
-10071 77 78 0
-77 10071 0
-78 10071 0
10071 73 74 75 76 0
-10072 143 144 0
-143 10072 0
-144 10072 0
10072 139 140 141 142 0
-10073 173 174 0
-173 10073 0
-174 10073 0
10073 169 170 171 172 0
-10074 203 204 0
-203 10074 0
-204 10074 0
10074 199 200 201 202 0
-10069 10075 0
-10076 0
-10070 10077 0
-10075 10077 0
-10070 -10075 10078 0
-10076 10078 0
-10070 -10076 0
-10071 10079 0
-10077 10079 0
-10071 -10077 10080 0
-10078 10080 0
-10071 -10078 0
-10072 10081 0
-10079 10081 0
-10072 -10079 10082 0
-10080 10082 0
-10072 -10080 0
-10073 10083 0
-10081 10083 0
-10073 -10081 10084 0
-10082 10084 0
-10073 -10082 0
-10074 -10084 0
-10087 18 0
-18 10087 0
10087 13 14 15 16 17 0
-10088 48 0
-48 10088 0
10088 43 44 45 46 47 0
-10089 78 0
-78 10089 0
10089 73 74 75 76 77 0
-10090 144 0
-144 10090 0
10090 139 140 141 142 143 0
-10091 174 0
-174 10091 0
10091 169 170 171 172 173 0
-10092 204 0
-204 10092 0
10092 199 200 201 202 203 0
-10087 10093 0
-10088 10094 0
-10093 10094 0
-10088 -10093 0
-10089 10095 0
-10094 10095 0
-10089 -10094 0
-10090 10096 0
-10095 10096 0
-10090 -10095 0
-10091 10097 0
-10096 10097 0
-10091 -10096 0
-10092 -10097 0
-13 10099 0
-43 10100 0
-10099 10100 0
-43 -10099 0
-73 10101 0
-10100 10101 0
-73 -10100 0
-139 10102 0
-10101 10102 0
-139 -10101 0
-169 10103 0
-10102 10103 0
-169 -10102 0
-199 -10103 0
13 43 73 139 169 199 0
-14 10105 0
-44 10106 0
-10105 10106 0
-44 -10105 0
-74 10107 0
-10106 10107 0
-74 -10106 0
-140 10108 0
-10107 10108 0
-140 -10107 0
-170 10109 0
-10108 10109 0
-170 -10108 0
-200 -10109 0
14 44 74 140 170 200 0
-15 10111 0
-45 10112 0
-10111 10112 0
-45 -10111 0
-75 10113 0
-10112 10113 0
-75 -10112 0
-141 10114 0
-10113 10114 0
-141 -10113 0
-171 10115 0
-10114 10115 0
-171 -10114 0
-201 -10115 0
15 45 75 141 171 201 0
-16 10117 0
-46 10118 0
-10117 10118 0
-46 -10117 0
-76 10119 0
-10118 10119 0
-76 -10118 0
-142 10120 0
-10119 10120 0
-142 -10119 0
-172 10121 0
-10120 10121 0
-172 -10120 0
-202 -10121 0
16 46 76 142 172 202 0
-17 10123 0
-47 10124 0
-10123 10124 0
-47 -10123 0
-77 10125 0
-10124 10125 0
-77 -10124 0
-143 10126 0
-10125 10126 0
-143 -10125 0
-173 10127 0
-10126 10127 0
-173 -10126 0
-203 -10127 0
17 47 77 143 173 203 0
-18 10129 0
-48 10130 0
-10129 10130 0
-48 -10129 0
-78 10131 0
-10130 10131 0
-78 -10130 0
-144 10132 0
-10131 10132 0
-144 -10131 0
-174 10133 0
-10132 10133 0
-174 -10132 0
-204 -10133 0
18 48 78 144 174 204 0
-10135 19 0
-19 10135 0
10135 20 21 22 23 24 0
-10136 49 0
-49 10136 0
10136 50 51 52 53 54 0
-10137 79 0
-79 10137 0
10137 80 81 82 83 84 0
-10138 109 0
-109 10138 0
10138 110 111 112 113 114 0
-10139 175 0
-175 10139 0
10139 176 177 178 179 180 0
-10140 205 0
-205 10140 0
10140 206 207 208 209 210 0
-10135 10141 0
-10136 10142 0
-10141 10142 0
-10136 -10141 0
-10137 10143 0
-10142 10143 0
-10137 -10142 0
-10138 10144 0
-10143 10144 0
-10138 -10143 0
-10139 10145 0
-10144 10145 0
-10139 -10144 0
-10140 -10145 0
-10147 19 20 0
-19 10147 0
-20 10147 0
10147 21 22 23 24 0
-10148 49 50 0
-49 10148 0
-50 10148 0
10148 51 52 53 54 0
-10149 79 80 0
-79 10149 0
-80 10149 0
10149 81 82 83 84 0
-10150 109 110 0
-109 10150 0
-110 10150 0
10150 111 112 113 114 0
-10151 175 176 0
-175 10151 0
-176 10151 0
10151 177 178 179 180 0
-10152 205 206 0
-205 10152 0
-206 10152 0
10152 207 208 209 210 0
-10147 10153 0
-10154 0
-10148 10155 0
-10153 10155 0
-10148 -10153 10156 0
-10154 10156 0
-10148 -10154 0
-10149 10157 0
-10155 10157 0
-10149 -10155 10158 0
-10156 10158 0
-10149 -10156 0
-10150 10159 0
-10157 10159 0
-10150 -10157 10160 0
-10158 10160 0
-10150 -10158 0
-10151 10161 0
-10159 10161 0
-10151 -10159 10162 0
-10160 10162 0
-10151 -10160 0
-10152 -10162 0
-10165 19 20 21 0
-19 10165 0
-20 10165 0
-21 10165 0
10165 22 23 24 0
-10166 49 50 51 0
-49 10166 0
-50 10166 0
-51 10166 0
10166 52 53 54 0
-10167 79 80 81 0
-79 10167 0
-80 10167 0
-81 10167 0
10167 82 83 84 0
-10168 109 110 111 0
-109 10168 0
-110 10168 0
-111 10168 0
10168 112 113 114 0
-10169 175 176 177 0
-175 10169 0
-176 10169 0
-177 10169 0
10169 178 179 180 0
-10170 205 206 207 0
-205 10170 0
-206 10170 0
-207 10170 0
10170 208 209 210 0
-10165 10171 0
-10172 0
-10173 0
-10166 10174 0
-10171 10174 0
-10166 -10171 10175 0
-10172 10175 0
-10166 -10172 10176 0
-10173 10176 0
-10166 -10173 0
-10167 10177 0
-10174 10177 0
-10167 -10174 10178 0
-10175 10178 0
-10167 -10175 10179 0
-10176 10179 0
-10167 -10176 0
-10168 10180 0
-10177 10180 0
-10168 -10177 10181 0
-10178 10181 0
-10168 -10178 10182 0
-10179 10182 0
-10168 -10179 0
-10169 10183 0
-10180 10183 0
-10169 -10180 10184 0
-10181 10184 0
-10169 -10181 10185 0
-10182 10185 0
-10169 -10182 0
-10170 -10185 0
-10189 19 20 21 22 0
-19 10189 0
-20 10189 0
-21 10189 0
-22 10189 0
10189 23 24 0
-10190 49 50 51 52 0
-49 10190 0
-50 10190 0
-51 10190 0
-52 10190 0
10190 53 54 0
-10191 79 80 81 82 0
-79 10191 0
-80 10191 0
-81 10191 0
-82 10191 0
10191 83 84 0
-10192 109 110 111 112 0
-109 10192 0
-110 10192 0
-111 10192 0
-112 10192 0
10192 113 114 0
-10193 175 176 177 178 0
-175 10193 0
-176 10193 0
-177 10193 0
-178 10193 0
10193 179 180 0
-10194 205 206 207 208 0
-205 10194 0
-206 10194 0
-207 10194 0
-208 10194 0
10194 209 210 0
-10189 10195 0
-10196 0
-10197 0
-10198 0
-10190 10199 0
-10195 10199 0
-10190 -10195 10200 0
-10196 10200 0
-10190 -10196 10201 0
-10197 10201 0
-10190 -10197 10202 0
-10198 10202 0
-10190 -10198 0
-10191 10203 0
-10199 10203 0
-10191 -10199 10204 0
-10200 10204 0
-10191 -10200 10205 0
-10201 10205 0
-10191 -10201 10206 0
-10202 10206 0
-10191 -10202 0
-10192 10207 0
-10203 10207 0
-10192 -10203 10208 0
-10204 10208 0
-10192 -10204 10209 0
-10205 10209 0
-10192 -10205 10210 0
-10206 10210 0
-10192 -10206 0
-10193 10211 0
-10207 10211 0
-10193 -10207 10212 0
-10208 10212 0
-10193 -10208 10213 0
-10209 10213 0
-10193 -10209 10214 0
-10210 10214 0
-10193 -10210 0
-10194 -10214 0
-10219 19 20 21 22 23 0
-19 10219 0
-20 10219 0
-21 10219 0
-22 10219 0
-23 10219 0
10219 24 0
-10220 49 50 51 52 53 0
-49 10220 0
-50 10220 0
-51 10220 0
-52 10220 0
-53 10220 0
10220 54 0
-10221 79 80 81 82 83 0
-79 10221 0
-80 10221 0
-81 10221 0
-82 10221 0
-83 10221 0
10221 84 0
-10222 109 110 111 112 113 0
-109 10222 0
-110 10222 0
-111 10222 0
-112 10222 0
-113 10222 0
10222 114 0
-10223 175 176 177 178 179 0
-175 10223 0
-176 10223 0
-177 10223 0
-178 10223 0
-179 10223 0
10223 180 0
-10224 205 206 207 208 209 0
-205 10224 0
-206 10224 0
-207 10224 0
-208 10224 0
-209 10224 0
10224 210 0
-10219 10225 0
-10226 0
-10227 0
-10228 0
-10229 0
-10220 10230 0
-10225 10230 0
-10220 -10225 10231 0
-10226 10231 0
-10220 -10226 10232 0
-10227 10232 0
-10220 -10227 10233 0
-10228 10233 0
-10220 -10228 10234 0
-10229 10234 0
-10220 -10229 0
-10221 10235 0
-10230 10235 0
-10221 -10230 10236 0
-10231 10236 0
-10221 -10231 10237 0
-10232 10237 0
-10221 -10232 10238 0
-10233 10238 0
-10221 -10233 10239 0
-10234 10239 0
-10221 -10234 0
-10222 10240 0
-10235 10240 0
-10222 -10235 10241 0
-10236 10241 0
-10222 -10236 10242 0
-10237 10242 0
-10222 -10237 10243 0
-10238 10243 0
-10222 -10238 10244 0
-10239 10244 0
-10222 -10239 0
-10223 10245 0
-10240 10245 0
-10223 -10240 10246 0
-10241 10246 0
-10223 -10241 10247 0
-10242 10247 0
-10223 -10242 10248 0
-10243 10248 0
-10223 -10243 10249 0
-10244 10249 0
-10223 -10244 0
-10224 -10249 0
-10255 19 20 21 22 23 24 0
-19 10255 0
-20 10255 0
-21 10255 0
-22 10255 0
-23 10255 0
-24 10255 0
10255 0
-10256 49 50 51 52 53 54 0
-49 10256 0
-50 10256 0
-51 10256 0
-52 10256 0
-53 10256 0
-54 10256 0
10256 0
-10257 79 80 81 82 83 84 0
-79 10257 0
-80 10257 0
-81 10257 0
-82 10257 0
-83 10257 0
-84 10257 0
10257 0
-10258 109 110 111 112 113 114 0
-109 10258 0
-110 10258 0
-111 10258 0
-112 10258 0
-113 10258 0
-114 10258 0
10258 0
-10259 175 176 177 178 179 180 0
-175 10259 0
-176 10259 0
-177 10259 0
-178 10259 0
-179 10259 0
-180 10259 0
10259 0
-10260 205 206 207 208 209 210 0
-205 10260 0
-206 10260 0
-207 10260 0
-208 10260 0
-209 10260 0
-210 10260 0
10260 0
-10261 20 0
-20 10261 0
10261 19 21 22 23 24 0
-10262 50 0
-50 10262 0
10262 49 51 52 53 54 0
-10263 80 0
-80 10263 0
10263 79 81 82 83 84 0
-10264 110 0
-110 10264 0
10264 109 111 112 113 114 0
-10265 176 0
-176 10265 0
10265 175 177 178 179 180 0
-10266 206 0
-206 10266 0
10266 205 207 208 209 210 0
-10261 10267 0
-10262 10268 0
-10267 10268 0
-10262 -10267 0
-10263 10269 0
-10268 10269 0
-10263 -10268 0
-10264 10270 0
-10269 10270 0
-10264 -10269 0
-10265 10271 0
-10270 10271 0
-10265 -10270 0
-10266 -10271 0
-10273 20 21 0
-20 10273 0
-21 10273 0
10273 19 22 23 24 0
-10274 50 51 0
-50 10274 0
-51 10274 0
10274 49 52 53 54 0
-10275 80 81 0
-80 10275 0
-81 10275 0
10275 79 82 83 84 0
-10276 110 111 0
-110 10276 0
-111 10276 0
10276 109 112 113 114 0
-10277 176 177 0
-176 10277 0
-177 10277 0
10277 175 178 179 180 0
-10278 206 207 0
-206 10278 0
-207 10278 0
10278 205 208 209 210 0
-10273 10279 0
-10280 0
-10274 10281 0
-10279 10281 0
-10274 -10279 10282 0
-10280 10282 0
-10274 -10280 0
-10275 10283 0
-10281 10283 0
-10275 -10281 10284 0
-10282 10284 0
-10275 -10282 0
-10276 10285 0
-10283 10285 0
-10276 -10283 10286 0
-10284 10286 0
-10276 -10284 0
-10277 10287 0
-10285 10287 0
-10277 -10285 10288 0
-10286 10288 0
-10277 -10286 0
-10278 -10288 0
-10291 20 21 22 0
-20 10291 0
-21 10291 0
-22 10291 0
10291 19 23 24 0
-10292 50 51 52 0
-50 10292 0
-51 10292 0
-52 10292 0
10292 49 53 54 0
-10293 80 81 82 0
-80 10293 0
-81 10293 0
-82 10293 0
10293 79 83 84 0
-10294 110 111 112 0
-110 10294 0
-111 10294 0
-112 10294 0
10294 109 113 114 0
-10295 176 177 178 0
-176 10295 0
-177 10295 0
-178 10295 0
10295 175 179 180 0
-10296 206 207 208 0
-206 10296 0
-207 10296 0
-208 10296 0
10296 205 209 210 0
-10291 10297 0
-10298 0
-10299 0
-10292 10300 0
-10297 10300 0
-10292 -10297 10301 0
-10298 10301 0
-10292 -10298 10302 0
-10299 10302 0
-10292 -10299 0
-10293 10303 0
-10300 10303 0
-10293 -10300 10304 0
-10301 10304 0
-10293 -10301 10305 0
-10302 10305 0
-10293 -10302 0
-10294 10306 0
-10303 10306 0
-10294 -10303 10307 0
-10304 10307 0
-10294 -10304 10308 0
-10305 10308 0
-10294 -10305 0
-10295 10309 0
-10306 10309 0
-10295 -10306 10310 0
-10307 10310 0
-10295 -10307 10311 0
-10308 10311 0
-10295 -10308 0
-10296 -10311 0
-10315 20 21 22 23 0
-20 10315 0
-21 10315 0
-22 10315 0
-23 10315 0
10315 19 24 0
-10316 50 51 52 53 0
-50 10316 0
-51 10316 0
-52 10316 0
-53 10316 0
10316 49 54 0
-10317 80 81 82 83 0
-80 10317 0
-81 10317 0
-82 10317 0
-83 10317 0
10317 79 84 0
-10318 110 111 112 113 0
-110 10318 0
-111 10318 0
-112 10318 0
-113 10318 0
10318 109 114 0
-10319 176 177 178 179 0
-176 10319 0
-177 10319 0
-178 10319 0
-179 10319 0
10319 175 180 0
-10320 206 207 208 209 0
-206 10320 0
-207 10320 0
-208 10320 0
-209 10320 0
10320 205 210 0
-10315 10321 0
-10322 0
-10323 0
-10324 0
-10316 10325 0
-10321 10325 0
-10316 -10321 10326 0
-10322 10326 0
-10316 -10322 10327 0
-10323 10327 0
-10316 -10323 10328 0
-10324 10328 0
-10316 -10324 0
-10317 10329 0
-10325 10329 0
-10317 -10325 10330 0
-10326 10330 0
-10317 -10326 10331 0
-10327 10331 0
-10317 -10327 10332 0
-10328 10332 0
-10317 -10328 0
-10318 10333 0
-10329 10333 0
-10318 -10329 10334 0
-10330 10334 0
-10318 -10330 10335 0
-10331 10335 0
-10318 -10331 10336 0
-10332 10336 0
-10318 -10332 0
-10319 10337 0
-10333 10337 0
-10319 -10333 10338 0
-10334 10338 0
-10319 -10334 10339 0
-10335 10339 0
-10319 -10335 10340 0
-10336 10340 0
-10319 -10336 0
-10320 -10340 0
-10345 20 21 22 23 24 0
-20 10345 0
-21 10345 0
-22 10345 0
-23 10345 0
-24 10345 0
10345 19 0
-10346 50 51 52 53 54 0
-50 10346 0
-51 10346 0
-52 10346 0
-53 10346 0
-54 10346 0
10346 49 0
-10347 80 81 82 83 84 0
-80 10347 0
-81 10347 0
-82 10347 0
-83 10347 0
-84 10347 0
10347 79 0
-10348 110 111 112 113 114 0
-110 10348 0
-111 10348 0
-112 10348 0
-113 10348 0
-114 10348 0
10348 109 0
-10349 176 177 178 179 180 0
-176 10349 0
-177 10349 0
-178 10349 0
-179 10349 0
-180 10349 0
10349 175 0
-10350 206 207 208 209 210 0
-206 10350 0
-207 10350 0
-208 10350 0
-209 10350 0
-210 10350 0
10350 205 0
-10345 10351 0
-10352 0
-10353 0
-10354 0
-10355 0
-10346 10356 0
-10351 10356 0
-10346 -10351 10357 0
-10352 10357 0
-10346 -10352 10358 0
-10353 10358 0
-10346 -10353 10359 0
-10354 10359 0
-10346 -10354 10360 0
-10355 10360 0
-10346 -10355 0
-10347 10361 0
-10356 10361 0
-10347 -10356 10362 0
-10357 10362 0
-10347 -10357 10363 0
-10358 10363 0
-10347 -10358 10364 0
-10359 10364 0
-10347 -10359 10365 0
-10360 10365 0
-10347 -10360 0
-10348 10366 0
-10361 10366 0
-10348 -10361 10367 0
-10362 10367 0
-10348 -10362 10368 0
-10363 10368 0
-10348 -10363 10369 0
-10364 10369 0
-10348 -10364 10370 0
-10365 10370 0
-10348 -10365 0
-10349 10371 0
-10366 10371 0
-10349 -10366 10372 0
-10367 10372 0
-10349 -10367 10373 0
-10368 10373 0
-10349 -10368 10374 0
-10369 10374 0
-10349 -10369 10375 0
-10370 10375 0
-10349 -10370 0
-10350 -10375 0
-10381 21 0
-21 10381 0
10381 19 20 22 23 24 0
-10382 51 0
-51 10382 0
10382 49 50 52 53 54 0
-10383 81 0
-81 10383 0
10383 79 80 82 83 84 0
-10384 111 0
-111 10384 0
10384 109 110 112 113 114 0
-10385 177 0
-177 10385 0
10385 175 176 178 179 180 0
-10386 207 0
-207 10386 0
10386 205 206 208 209 210 0
-10381 10387 0
-10382 10388 0
-10387 10388 0
-10382 -10387 0
-10383 10389 0
-10388 10389 0
-10383 -10388 0
-10384 10390 0
-10389 10390 0
-10384 -10389 0
-10385 10391 0
-10390 10391 0
-10385 -10390 0
-10386 -10391 0
-10393 21 22 0
-21 10393 0
-22 10393 0
10393 19 20 23 24 0
-10394 51 52 0
-51 10394 0
-52 10394 0
10394 49 50 53 54 0
-10395 81 82 0
-81 10395 0
-82 10395 0
10395 79 80 83 84 0
-10396 111 112 0
-111 10396 0
-112 10396 0
10396 109 110 113 114 0
-10397 177 178 0
-177 10397 0
-178 10397 0
10397 175 176 179 180 0
-10398 207 208 0
-207 10398 0
-208 10398 0
10398 205 206 209 210 0
-10393 10399 0
-10400 0
-10394 10401 0
-10399 10401 0
-10394 -10399 10402 0
-10400 10402 0
-10394 -10400 0
-10395 10403 0
-10401 10403 0
-10395 -10401 10404 0
-10402 10404 0
-10395 -10402 0
-10396 10405 0
-10403 10405 0
-10396 -10403 10406 0
-10404 10406 0
-10396 -10404 0
-10397 10407 0
-10405 10407 0
-10397 -10405 10408 0
-10406 10408 0
-10397 -10406 0
-10398 -10408 0
-10411 21 22 23 0
-21 10411 0
-22 10411 0
-23 10411 0
10411 19 20 24 0
-10412 51 52 53 0
-51 10412 0
-52 10412 0
-53 10412 0
10412 49 50 54 0
-10413 81 82 83 0
-81 10413 0
-82 10413 0
-83 10413 0
10413 79 80 84 0
-10414 111 112 113 0
-111 10414 0
-112 10414 0
-113 10414 0
10414 109 110 114 0
-10415 177 178 179 0
-177 10415 0
-178 10415 0
-179 10415 0
10415 175 176 180 0
-10416 207 208 209 0
-207 10416 0
-208 10416 0
-209 10416 0
10416 205 206 210 0
-10411 10417 0
-10418 0
-10419 0
-10412 10420 0
-10417 10420 0
-10412 -10417 10421 0
-10418 10421 0
-10412 -10418 10422 0
-10419 10422 0
-10412 -10419 0
-10413 10423 0
-10420 10423 0
-10413 -10420 10424 0
-10421 10424 0
-10413 -10421 10425 0
-10422 10425 0
-10413 -10422 0
-10414 10426 0
-10423 10426 0
-10414 -10423 10427 0
-10424 10427 0
-10414 -10424 10428 0
-10425 10428 0
-10414 -10425 0
-10415 10429 0
-10426 10429 0
-10415 -10426 10430 0
-10427 10430 0
-10415 -10427 10431 0
-10428 10431 0
-10415 -10428 0
-10416 -10431 0
-10435 21 22 23 24 0
-21 10435 0
-22 10435 0
-23 10435 0
-24 10435 0
10435 19 20 0
-10436 51 52 53 54 0
-51 10436 0
-52 10436 0
-53 10436 0
-54 10436 0
10436 49 50 0
-10437 81 82 83 84 0
-81 10437 0
-82 10437 0
-83 10437 0
-84 10437 0
10437 79 80 0
-10438 111 112 113 114 0
-111 10438 0
-112 10438 0
-113 10438 0
-114 10438 0
10438 109 110 0
-10439 177 178 179 180 0
-177 10439 0
-178 10439 0
-179 10439 0
-180 10439 0
10439 175 176 0
-10440 207 208 209 210 0
-207 10440 0
-208 10440 0
-209 10440 0
-210 10440 0
10440 205 206 0
-10435 10441 0
-10442 0
-10443 0
-10444 0
-10436 10445 0
-10441 10445 0
-10436 -10441 10446 0
-10442 10446 0
-10436 -10442 10447 0
-10443 10447 0
-10436 -10443 10448 0
-10444 10448 0
-10436 -10444 0
-10437 10449 0
-10445 10449 0
-10437 -10445 10450 0
-10446 10450 0
-10437 -10446 10451 0
-10447 10451 0
-10437 -10447 10452 0
-10448 10452 0
-10437 -10448 0
-10438 10453 0
-10449 10453 0
-10438 -10449 10454 0
-10450 10454 0
-10438 -10450 10455 0
-10451 10455 0
-10438 -10451 10456 0
-10452 10456 0
-10438 -10452 0
-10439 10457 0
-10453 10457 0
-10439 -10453 10458 0
-10454 10458 0
-10439 -10454 10459 0
-10455 10459 0
-10439 -10455 10460 0
-10456 10460 0
-10439 -10456 0
-10440 -10460 0
-10465 22 0
-22 10465 0
10465 19 20 21 23 24 0
-10466 52 0
-52 10466 0
10466 49 50 51 53 54 0
-10467 82 0
-82 10467 0
10467 79 80 81 83 84 0
-10468 112 0
-112 10468 0
10468 109 110 111 113 114 0
-10469 178 0
-178 10469 0
10469 175 176 177 179 180 0
-10470 208 0
-208 10470 0
10470 205 206 207 209 210 0
-10465 10471 0
-10466 10472 0
-10471 10472 0
-10466 -10471 0
-10467 10473 0
-10472 10473 0
-10467 -10472 0
-10468 10474 0
-10473 10474 0
-10468 -10473 0
-10469 10475 0
-10474 10475 0
-10469 -10474 0
-10470 -10475 0
-10477 22 23 0
-22 10477 0
-23 10477 0
10477 19 20 21 24 0
-10478 52 53 0
-52 10478 0
-53 10478 0
10478 49 50 51 54 0
-10479 82 83 0
-82 10479 0
-83 10479 0
10479 79 80 81 84 0
-10480 112 113 0
-112 10480 0
-113 10480 0
10480 109 110 111 114 0
-10481 178 179 0
-178 10481 0
-179 10481 0
10481 175 176 177 180 0
-10482 208 209 0
-208 10482 0
-209 10482 0
10482 205 206 207 210 0
-10477 10483 0
-10484 0
-10478 10485 0
-10483 10485 0
-10478 -10483 10486 0
-10484 10486 0
-10478 -10484 0
-10479 10487 0
-10485 10487 0
-10479 -10485 10488 0
-10486 10488 0
-10479 -10486 0
-10480 10489 0
-10487 10489 0
-10480 -10487 10490 0
-10488 10490 0
-10480 -10488 0
-10481 10491 0
-10489 10491 0
-10481 -10489 10492 0
-10490 10492 0
-10481 -10490 0
-10482 -10492 0
-10495 22 23 24 0
-22 10495 0
-23 10495 0
-24 10495 0
10495 19 20 21 0
-10496 52 53 54 0
-52 10496 0
-53 10496 0
-54 10496 0
10496 49 50 51 0
-10497 82 83 84 0
-82 10497 0
-83 10497 0
-84 10497 0
10497 79 80 81 0
-10498 112 113 114 0
-112 10498 0
-113 10498 0
-114 10498 0
10498 109 110 111 0
-10499 178 179 180 0
-178 10499 0
-179 10499 0
-180 10499 0
10499 175 176 177 0
-10500 208 209 210 0
-208 10500 0
-209 10500 0
-210 10500 0
10500 205 206 207 0
-10495 10501 0
-10502 0
-10503 0
-10496 10504 0
-10501 10504 0
-10496 -10501 10505 0
-10502 10505 0
-10496 -10502 10506 0
-10503 10506 0
-10496 -10503 0
-10497 10507 0
-10504 10507 0
-10497 -10504 10508 0
-10505 10508 0
-10497 -10505 10509 0
-10506 10509 0
-10497 -10506 0
-10498 10510 0
-10507 10510 0
-10498 -10507 10511 0
-10508 10511 0
-10498 -10508 10512 0
-10509 10512 0
-10498 -10509 0
-10499 10513 0
-10510 10513 0
-10499 -10510 10514 0
-10511 10514 0
-10499 -10511 10515 0
-10512 10515 0
-10499 -10512 0
-10500 -10515 0
-10519 23 0
-23 10519 0
10519 19 20 21 22 24 0
-10520 53 0
-53 10520 0
10520 49 50 51 52 54 0
-10521 83 0
-83 10521 0
10521 79 80 81 82 84 0
-10522 113 0
-113 10522 0
10522 109 110 111 112 114 0
-10523 179 0
-179 10523 0
10523 175 176 177 178 180 0
-10524 209 0
-209 10524 0
10524 205 206 207 208 210 0
-10519 10525 0
-10520 10526 0
-10525 10526 0
-10520 -10525 0
-10521 10527 0
-10526 10527 0
-10521 -10526 0
-10522 10528 0
-10527 10528 0
-10522 -10527 0
-10523 10529 0
-10528 10529 0
-10523 -10528 0
-10524 -10529 0
-10531 23 24 0
-23 10531 0
-24 10531 0
10531 19 20 21 22 0
-10532 53 54 0
-53 10532 0
-54 10532 0
10532 49 50 51 52 0
-10533 83 84 0
-83 10533 0
-84 10533 0
10533 79 80 81 82 0
-10534 113 114 0
-113 10534 0
-114 10534 0
10534 109 110 111 112 0
-10535 179 180 0
-179 10535 0
-180 10535 0
10535 175 176 177 178 0
-10536 209 210 0
-209 10536 0
-210 10536 0
10536 205 206 207 208 0
-10531 10537 0
-10538 0
-10532 10539 0
-10537 10539 0
-10532 -10537 10540 0
-10538 10540 0
-10532 -10538 0
-10533 10541 0
-10539 10541 0
-10533 -10539 10542 0
-10540 10542 0
-10533 -10540 0
-10534 10543 0
-10541 10543 0
-10534 -10541 10544 0
-10542 10544 0
-10534 -10542 0
-10535 10545 0
-10543 10545 0
-10535 -10543 10546 0
-10544 10546 0
-10535 -10544 0
-10536 -10546 0
-10549 24 0
-24 10549 0
10549 19 20 21 22 23 0
-10550 54 0
-54 10550 0
10550 49 50 51 52 53 0
-10551 84 0
-84 10551 0
10551 79 80 81 82 83 0
-10552 114 0
-114 10552 0
10552 109 110 111 112 113 0
-10553 180 0
-180 10553 0
10553 175 176 177 178 179 0
-10554 210 0
-210 10554 0
10554 205 206 207 208 209 0
-10549 10555 0
-10550 10556 0
-10555 10556 0
-10550 -10555 0
-10551 10557 0
-10556 10557 0
-10551 -10556 0
-10552 10558 0
-10557 10558 0
-10552 -10557 0
-10553 10559 0
-10558 10559 0
-10553 -10558 0
-10554 -10559 0
-19 10561 0
-49 10562 0
-10561 10562 0
-49 -10561 0
-79 10563 0
-10562 10563 0
-79 -10562 0
-109 10564 0
-10563 10564 0
-109 -10563 0
-175 10565 0
-10564 10565 0
-175 -10564 0
-205 -10565 0
19 49 79 109 175 205 0
-20 10567 0
-50 10568 0
-10567 10568 0
-50 -10567 0
-80 10569 0
-10568 10569 0
-80 -10568 0
-110 10570 0
-10569 10570 0
-110 -10569 0
-176 10571 0
-10570 10571 0
-176 -10570 0
-206 -10571 0
20 50 80 110 176 206 0
-21 10573 0
-51 10574 0
-10573 10574 0
-51 -10573 0
-81 10575 0
-10574 10575 0
-81 -10574 0
-111 10576 0
-10575 10576 0
-111 -10575 0
-177 10577 0
-10576 10577 0
-177 -10576 0
-207 -10577 0
21 51 81 111 177 207 0
-22 10579 0
-52 10580 0
-10579 10580 0
-52 -10579 0
-82 10581 0
-10580 10581 0
-82 -10580 0
-112 10582 0
-10581 10582 0
-112 -10581 0
-178 10583 0
-10582 10583 0
-178 -10582 0
-208 -10583 0
22 52 82 112 178 208 0
-23 10585 0
-53 10586 0
-10585 10586 0
-53 -10585 0
-83 10587 0
-10586 10587 0
-83 -10586 0
-113 10588 0
-10587 10588 0
-113 -10587 0
-179 10589 0
-10588 10589 0
-179 -10588 0
-209 -10589 0
23 53 83 113 179 209 0
-24 10591 0
-54 10592 0
-10591 10592 0
-54 -10591 0
-84 10593 0
-10592 10593 0
-84 -10592 0
-114 10594 0
-10593 10594 0
-114 -10593 0
-180 10595 0
-10594 10595 0
-180 -10594 0
-210 -10595 0
24 54 84 114 180 210 0
-10597 25 0
-25 10597 0
10597 26 27 28 29 30 0
-10598 55 0
-55 10598 0
10598 56 57 58 59 60 0
-10599 85 0
-85 10599 0
10599 86 87 88 89 90 0
-10600 115 0
-115 10600 0
10600 116 117 118 119 120 0
-10601 145 0
-145 10601 0
10601 146 147 148 149 150 0
-10602 211 0
-211 10602 0
10602 212 213 214 215 216 0
-10597 10603 0
-10598 10604 0
-10603 10604 0
-10598 -10603 0
-10599 10605 0
-10604 10605 0
-10599 -10604 0
-10600 10606 0
-10605 10606 0
-10600 -10605 0
-10601 10607 0
-10606 10607 0
-10601 -10606 0
-10602 -10607 0
-10609 25 26 0
-25 10609 0
-26 10609 0
10609 27 28 29 30 0
-10610 55 56 0
-55 10610 0
-56 10610 0
10610 57 58 59 60 0
-10611 85 86 0
-85 10611 0
-86 10611 0
10611 87 88 89 90 0
-10612 115 116 0
-115 10612 0
-116 10612 0
10612 117 118 119 120 0
-10613 145 146 0
-145 10613 0
-146 10613 0
10613 147 148 149 150 0
-10614 211 212 0
-211 10614 0
-212 10614 0
10614 213 214 215 216 0
-10609 10615 0
-10616 0
-10610 10617 0
-10615 10617 0
-10610 -10615 10618 0
-10616 10618 0
-10610 -10616 0
-10611 10619 0
-10617 10619 0
-10611 -10617 10620 0
-10618 10620 0
-10611 -10618 0
-10612 10621 0
-10619 10621 0
-10612 -10619 10622 0
-10620 10622 0
-10612 -10620 0
-10613 10623 0
-10621 10623 0
-10613 -10621 10624 0
-10622 10624 0
-10613 -10622 0
-10614 -10624 0
-10627 25 26 27 0
-25 10627 0
-26 10627 0
-27 10627 0
10627 28 29 30 0
-10628 55 56 57 0
-55 10628 0
-56 10628 0
-57 10628 0
10628 58 59 60 0
-10629 85 86 87 0
-85 10629 0
-86 10629 0
-87 10629 0
10629 88 89 90 0
-10630 115 116 117 0
-115 10630 0
-116 10630 0
-117 10630 0
10630 118 119 120 0
-10631 145 146 147 0
-145 10631 0
-146 10631 0
-147 10631 0
10631 148 149 150 0
-10632 211 212 213 0
-211 10632 0
-212 10632 0
-213 10632 0
10632 214 215 216 0
-10627 10633 0
-10634 0
-10635 0
-10628 10636 0
-10633 10636 0
-10628 -10633 10637 0
-10634 10637 0
-10628 -10634 10638 0
-10635 10638 0
-10628 -10635 0
-10629 10639 0
-10636 10639 0
-10629 -10636 10640 0
-10637 10640 0
-10629 -10637 10641 0
-10638 10641 0
-10629 -10638 0
-10630 10642 0
-10639 10642 0
-10630 -10639 10643 0
-10640 10643 0
-10630 -10640 10644 0
-10641 10644 0
-10630 -10641 0
-10631 10645 0
-10642 10645 0
-10631 -10642 10646 0
-10643 10646 0
-10631 -10643 10647 0
-10644 10647 0
-10631 -10644 0
-10632 -10647 0
-10651 25 26 27 28 0
-25 10651 0
-26 10651 0
-27 10651 0
-28 10651 0
10651 29 30 0
-10652 55 56 57 58 0
-55 10652 0
-56 10652 0
-57 10652 0
-58 10652 0
10652 59 60 0
-10653 85 86 87 88 0
-85 10653 0
-86 10653 0
-87 10653 0
-88 10653 0
10653 89 90 0
-10654 115 116 117 118 0
-115 10654 0
-116 10654 0
-117 10654 0
-118 10654 0
10654 119 120 0
-10655 145 146 147 148 0
-145 10655 0
-146 10655 0
-147 10655 0
-148 10655 0
10655 149 150 0
-10656 211 212 213 214 0
-211 10656 0
-212 10656 0
-213 10656 0
-214 10656 0
10656 215 216 0
-10651 10657 0
-10658 0
-10659 0
-10660 0
-10652 10661 0
-10657 10661 0
-10652 -10657 10662 0
-10658 10662 0
-10652 -10658 10663 0
-10659 10663 0
-10652 -10659 10664 0
-10660 10664 0
-10652 -10660 0
-10653 10665 0
-10661 10665 0
-10653 -10661 10666 0
-10662 10666 0
-10653 -10662 10667 0
-10663 10667 0
-10653 -10663 10668 0
-10664 10668 0
-10653 -10664 0
-10654 10669 0
-10665 10669 0
-10654 -10665 10670 0
-10666 10670 0
-10654 -10666 10671 0
-10667 10671 0
-10654 -10667 10672 0
-10668 10672 0
-10654 -10668 0
-10655 10673 0
-10669 10673 0
-10655 -10669 10674 0
-10670 10674 0
-10655 -10670 10675 0
-10671 10675 0
-10655 -10671 10676 0
-10672 10676 0
-10655 -10672 0
-10656 -10676 0
-10681 25 26 27 28 29 0
-25 10681 0
-26 10681 0
-27 10681 0
-28 10681 0
-29 10681 0
10681 30 0
-10682 55 56 57 58 59 0
-55 10682 0
-56 10682 0
-57 10682 0
-58 10682 0
-59 10682 0
10682 60 0
-10683 85 86 87 88 89 0
-85 10683 0
-86 10683 0
-87 10683 0
-88 10683 0
-89 10683 0
10683 90 0
-10684 115 116 117 118 119 0
-115 10684 0
-116 10684 0
-117 10684 0
-118 10684 0
-119 10684 0
10684 120 0
-10685 145 146 147 148 149 0
-145 10685 0
-146 10685 0
-147 10685 0
-148 10685 0
-149 10685 0
10685 150 0
-10686 211 212 213 214 215 0
-211 10686 0
-212 10686 0
-213 10686 0
-214 10686 0
-215 10686 0
10686 216 0
-10681 10687 0
-10688 0
-10689 0
-10690 0
-10691 0
-10682 10692 0
-10687 10692 0
-10682 -10687 10693 0
-10688 10693 0
-10682 -10688 10694 0
-10689 10694 0
-10682 -10689 10695 0
-10690 10695 0
-10682 -10690 10696 0
-10691 10696 0
-10682 -10691 0
-10683 10697 0
-10692 10697 0
-10683 -10692 10698 0
-10693 10698 0
-10683 -10693 10699 0
-10694 10699 0
-10683 -10694 10700 0
-10695 10700 0
-10683 -10695 10701 0
-10696 10701 0
-10683 -10696 0
-10684 10702 0
-10697 10702 0
-10684 -10697 10703 0
-10698 10703 0
-10684 -10698 10704 0
-10699 10704 0
-10684 -10699 10705 0
-10700 10705 0
-10684 -10700 10706 0
-10701 10706 0
-10684 -10701 0
-10685 10707 0
-10702 10707 0
-10685 -10702 10708 0
-10703 10708 0
-10685 -10703 10709 0
-10704 10709 0
-10685 -10704 10710 0
-10705 10710 0
-10685 -10705 10711 0
-10706 10711 0
-10685 -10706 0
-10686 -10711 0
-10717 25 26 27 28 29 30 0
-25 10717 0
-26 10717 0
-27 10717 0
-28 10717 0
-29 10717 0
-30 10717 0
10717 0
-10718 55 56 57 58 59 60 0
-55 10718 0
-56 10718 0
-57 10718 0
-58 10718 0
-59 10718 0
-60 10718 0
10718 0
-10719 85 86 87 88 89 90 0
-85 10719 0
-86 10719 0
-87 10719 0
-88 10719 0
-89 10719 0
-90 10719 0
10719 0
-10720 115 116 117 118 119 120 0
-115 10720 0
-116 10720 0
-117 10720 0
-118 10720 0
-119 10720 0
-120 10720 0
10720 0
-10721 145 146 147 148 149 150 0
-145 10721 0
-146 10721 0
-147 10721 0
-148 10721 0
-149 10721 0
-150 10721 0
10721 0
-10722 211 212 213 214 215 216 0
-211 10722 0
-212 10722 0
-213 10722 0
-214 10722 0
-215 10722 0
-216 10722 0
10722 0
-10723 26 0
-26 10723 0
10723 25 27 28 29 30 0
-10724 56 0
-56 10724 0
10724 55 57 58 59 60 0
-10725 86 0
-86 10725 0
10725 85 87 88 89 90 0
-10726 116 0
-116 10726 0
10726 115 117 118 119 120 0
-10727 146 0
-146 10727 0
10727 145 147 148 149 150 0
-10728 212 0
-212 10728 0
10728 211 213 214 215 216 0
-10723 10729 0
-10724 10730 0
-10729 10730 0
-10724 -10729 0
-10725 10731 0
-10730 10731 0
-10725 -10730 0
-10726 10732 0
-10731 10732 0
-10726 -10731 0
-10727 10733 0
-10732 10733 0
-10727 -10732 0
-10728 -10733 0
-10735 26 27 0
-26 10735 0
-27 10735 0
10735 25 28 29 30 0
-10736 56 57 0
-56 10736 0
-57 10736 0
10736 55 58 59 60 0
-10737 86 87 0
-86 10737 0
-87 10737 0
10737 85 88 89 90 0
-10738 116 117 0
-116 10738 0
-117 10738 0
10738 115 118 119 120 0
-10739 146 147 0
-146 10739 0
-147 10739 0
10739 145 148 149 150 0
-10740 212 213 0
-212 10740 0
-213 10740 0
10740 211 214 215 216 0
-10735 10741 0
-10742 0
-10736 10743 0
-10741 10743 0
-10736 -10741 10744 0
-10742 10744 0
-10736 -10742 0
-10737 10745 0
-10743 10745 0
-10737 -10743 10746 0
-10744 10746 0
-10737 -10744 0
-10738 10747 0
-10745 10747 0
-10738 -10745 10748 0
-10746 10748 0
-10738 -10746 0
-10739 10749 0
-10747 10749 0
-10739 -10747 10750 0
-10748 10750 0
-10739 -10748 0
-10740 -10750 0
-10753 26 27 28 0
-26 10753 0
-27 10753 0
-28 10753 0
10753 25 29 30 0
-10754 56 57 58 0
-56 10754 0
-57 10754 0
-58 10754 0
10754 55 59 60 0
-10755 86 87 88 0
-86 10755 0
-87 10755 0
-88 10755 0
10755 85 89 90 0
-10756 116 117 118 0
-116 10756 0
-117 10756 0
-118 10756 0
10756 115 119 120 0
-10757 146 147 148 0
-146 10757 0
-147 10757 0
-148 10757 0
10757 145 149 150 0
-10758 212 213 214 0
-212 10758 0
-213 10758 0
-214 10758 0
10758 211 215 216 0
-10753 10759 0
-10760 0
-10761 0
-10754 10762 0
-10759 10762 0
-10754 -10759 10763 0
-10760 10763 0
-10754 -10760 10764 0
-10761 10764 0
-10754 -10761 0
-10755 10765 0
-10762 10765 0
-10755 -10762 10766 0
-10763 10766 0
-10755 -10763 10767 0
-10764 10767 0
-10755 -10764 0
-10756 10768 0
-10765 10768 0
-10756 -10765 10769 0
-10766 10769 0
-10756 -10766 10770 0
-10767 10770 0
-10756 -10767 0
-10757 10771 0
-10768 10771 0
-10757 -10768 10772 0
-10769 10772 0
-10757 -10769 10773 0
-10770 10773 0
-10757 -10770 0
-10758 -10773 0
-10777 26 27 28 29 0
-26 10777 0
-27 10777 0
-28 10777 0
-29 10777 0
10777 25 30 0
-10778 56 57 58 59 0
-56 10778 0
-57 10778 0
-58 10778 0
-59 10778 0
10778 55 60 0
-10779 86 87 88 89 0
-86 10779 0
-87 10779 0
-88 10779 0
-89 10779 0
10779 85 90 0
-10780 116 117 118 119 0
-116 10780 0
-117 10780 0
-118 10780 0
-119 10780 0
10780 115 120 0
-10781 146 147 148 149 0
-146 10781 0
-147 10781 0
-148 10781 0
-149 10781 0
10781 145 150 0
-10782 212 213 214 215 0
-212 10782 0
-213 10782 0
-214 10782 0
-215 10782 0
10782 211 216 0
-10777 10783 0
-10784 0
-10785 0
-10786 0
-10778 10787 0
-10783 10787 0
-10778 -10783 10788 0
-10784 10788 0
-10778 -10784 10789 0
-10785 10789 0
-10778 -10785 10790 0
-10786 10790 0
-10778 -10786 0
-10779 10791 0
-10787 10791 0
-10779 -10787 10792 0
-10788 10792 0
-10779 -10788 10793 0
-10789 10793 0
-10779 -10789 10794 0
-10790 10794 0
-10779 -10790 0
-10780 10795 0
-10791 10795 0
-10780 -10791 10796 0
-10792 10796 0
-10780 -10792 10797 0
-10793 10797 0
-10780 -10793 10798 0
-10794 10798 0
-10780 -10794 0
-10781 10799 0
-10795 10799 0
-10781 -10795 10800 0
-10796 10800 0
-10781 -10796 10801 0
-10797 10801 0
-10781 -10797 10802 0
-10798 10802 0
-10781 -10798 0
-10782 -10802 0
-10807 26 27 28 29 30 0
-26 10807 0
-27 10807 0
-28 10807 0
-29 10807 0
-30 10807 0
10807 25 0
-10808 56 57 58 59 60 0
-56 10808 0
-57 10808 0
-58 10808 0
-59 10808 0
-60 10808 0
10808 55 0
-10809 86 87 88 89 90 0
-86 10809 0
-87 10809 0
-88 10809 0
-89 10809 0
-90 10809 0
10809 85 0
-10810 116 117 118 119 120 0
-116 10810 0
-117 10810 0
-118 10810 0
-119 10810 0
-120 10810 0
10810 115 0
-10811 146 147 148 149 150 0
-146 10811 0
-147 10811 0
-148 10811 0
-149 10811 0
-150 10811 0
10811 145 0
-10812 212 213 214 215 216 0
-212 10812 0
-213 10812 0
-214 10812 0
-215 10812 0
-216 10812 0
10812 211 0
-10807 10813 0
-10814 0
-10815 0
-10816 0
-10817 0
-10808 10818 0
-10813 10818 0
-10808 -10813 10819 0
-10814 10819 0
-10808 -10814 10820 0
-10815 10820 0
-10808 -10815 10821 0
-10816 10821 0
-10808 -10816 10822 0
-10817 10822 0
-10808 -10817 0
-10809 10823 0
-10818 10823 0
-10809 -10818 10824 0
-10819 10824 0
-10809 -10819 10825 0
-10820 10825 0
-10809 -10820 10826 0
-10821 10826 0
-10809 -10821 10827 0
-10822 10827 0
-10809 -10822 0
-10810 10828 0
-10823 10828 0
-10810 -10823 10829 0
-10824 10829 0
-10810 -10824 10830 0
-10825 10830 0
-10810 -10825 10831 0
-10826 10831 0
-10810 -10826 10832 0
-10827 10832 0
-10810 -10827 0
-10811 10833 0
-10828 10833 0
-10811 -10828 10834 0
-10829 10834 0
-10811 -10829 10835 0
-10830 10835 0
-10811 -10830 10836 0
-10831 10836 0
-10811 -10831 10837 0
-10832 10837 0
-10811 -10832 0
-10812 -10837 0
-10843 27 0
-27 10843 0
10843 25 26 28 29 30 0
-10844 57 0
-57 10844 0
10844 55 56 58 59 60 0
-10845 87 0
-87 10845 0
10845 85 86 88 89 90 0
-10846 117 0
-117 10846 0
10846 115 116 118 119 120 0
-10847 147 0
-147 10847 0
10847 145 146 148 149 150 0
-10848 213 0
-213 10848 0
10848 211 212 214 215 216 0
-10843 10849 0
-10844 10850 0
-10849 10850 0
-10844 -10849 0
-10845 10851 0
-10850 10851 0
-10845 -10850 0
-10846 10852 0
-10851 10852 0
-10846 -10851 0
-10847 10853 0
-10852 10853 0
-10847 -10852 0
-10848 -10853 0
-10855 27 28 0
-27 10855 0
-28 10855 0
10855 25 26 29 30 0
-10856 57 58 0
-57 10856 0
-58 10856 0
10856 55 56 59 60 0
-10857 87 88 0
-87 10857 0
-88 10857 0
10857 85 86 89 90 0
-10858 117 118 0
-117 10858 0
-118 10858 0
10858 115 116 119 120 0
-10859 147 148 0
-147 10859 0
-148 10859 0
10859 145 146 149 150 0
-10860 213 214 0
-213 10860 0
-214 10860 0
10860 211 212 215 216 0
-10855 10861 0
-10862 0
-10856 10863 0
-10861 10863 0
-10856 -10861 10864 0
-10862 10864 0
-10856 -10862 0
-10857 10865 0
-10863 10865 0
-10857 -10863 10866 0
-10864 10866 0
-10857 -10864 0
-10858 10867 0
-10865 10867 0
-10858 -10865 10868 0
-10866 10868 0
-10858 -10866 0
-10859 10869 0
-10867 10869 0
-10859 -10867 10870 0
-10868 10870 0
-10859 -10868 0
-10860 -10870 0
-10873 27 28 29 0
-27 10873 0
-28 10873 0
-29 10873 0
10873 25 26 30 0
-10874 57 58 59 0
-57 10874 0
-58 10874 0
-59 10874 0
10874 55 56 60 0
-10875 87 88 89 0
-87 10875 0
-88 10875 0
-89 10875 0
10875 85 86 90 0
-10876 117 118 119 0
-117 10876 0
-118 10876 0
-119 10876 0
10876 115 116 120 0
-10877 147 148 149 0
-147 10877 0
-148 10877 0
-149 10877 0
10877 145 146 150 0
-10878 213 214 215 0
-213 10878 0
-214 10878 0
-215 10878 0
10878 211 212 216 0
-10873 10879 0
-10880 0
-10881 0
-10874 10882 0
-10879 10882 0
-10874 -10879 10883 0
-10880 10883 0
-10874 -10880 10884 0
-10881 10884 0
-10874 -10881 0
-10875 10885 0
-10882 10885 0
-10875 -10882 10886 0
-10883 10886 0
-10875 -10883 10887 0
-10884 10887 0
-10875 -10884 0
-10876 10888 0
-10885 10888 0
-10876 -10885 10889 0
-10886 10889 0
-10876 -10886 10890 0
-10887 10890 0
-10876 -10887 0
-10877 10891 0
-10888 10891 0
-10877 -10888 10892 0
-10889 10892 0
-10877 -10889 10893 0
-10890 10893 0
-10877 -10890 0
-10878 -10893 0
-10897 27 28 29 30 0
-27 10897 0
-28 10897 0
-29 10897 0
-30 10897 0
10897 25 26 0
-10898 57 58 59 60 0
-57 10898 0
-58 10898 0
-59 10898 0
-60 10898 0
10898 55 56 0
-10899 87 88 89 90 0
-87 10899 0
-88 10899 0
-89 10899 0
-90 10899 0
10899 85 86 0
-10900 117 118 119 120 0
-117 10900 0
-118 10900 0
-119 10900 0
-120 10900 0
10900 115 116 0
-10901 147 148 149 150 0
-147 10901 0
-148 10901 0
-149 10901 0
-150 10901 0
10901 145 146 0
-10902 213 214 215 216 0
-213 10902 0
-214 10902 0
-215 10902 0
-216 10902 0
10902 211 212 0
-10897 10903 0
-10904 0
-10905 0
-10906 0
-10898 10907 0
-10903 10907 0
-10898 -10903 10908 0
-10904 10908 0
-10898 -10904 10909 0
-10905 10909 0
-10898 -10905 10910 0
-10906 10910 0
-10898 -10906 0
-10899 10911 0
-10907 10911 0
-10899 -10907 10912 0
-10908 10912 0
-10899 -10908 10913 0
-10909 10913 0
-10899 -10909 10914 0
-10910 10914 0
-10899 -10910 0
-10900 10915 0
-10911 10915 0
-10900 -10911 10916 0
-10912 10916 0
-10900 -10912 10917 0
-10913 10917 0
-10900 -10913 10918 0
-10914 10918 0
-10900 -10914 0
-10901 10919 0
-10915 10919 0
-10901 -10915 10920 0
-10916 10920 0
-10901 -10916 10921 0
-10917 10921 0
-10901 -10917 10922 0
-10918 10922 0
-10901 -10918 0
-10902 -10922 0
-10927 28 0
-28 10927 0
10927 25 26 27 29 30 0
-10928 58 0
-58 10928 0
10928 55 56 57 59 60 0
-10929 88 0
-88 10929 0
10929 85 86 87 89 90 0
-10930 118 0
-118 10930 0
10930 115 116 117 119 120 0
-10931 148 0
-148 10931 0
10931 145 146 147 149 150 0
-10932 214 0
-214 10932 0
10932 211 212 213 215 216 0
-10927 10933 0
-10928 10934 0
-10933 10934 0
-10928 -10933 0
-10929 10935 0
-10934 10935 0
-10929 -10934 0
-10930 10936 0
-10935 10936 0
-10930 -10935 0
-10931 10937 0
-10936 10937 0
-10931 -10936 0
-10932 -10937 0
-10939 28 29 0
-28 10939 0
-29 10939 0
10939 25 26 27 30 0
-10940 58 59 0
-58 10940 0
-59 10940 0
10940 55 56 57 60 0
-10941 88 89 0
-88 10941 0
-89 10941 0
10941 85 86 87 90 0
-10942 118 119 0
-118 10942 0
-119 10942 0
10942 115 116 117 120 0
-10943 148 149 0
-148 10943 0
-149 10943 0
10943 145 146 147 150 0
-10944 214 215 0
-214 10944 0
-215 10944 0
10944 211 212 213 216 0
-10939 10945 0
-10946 0
-10940 10947 0
-10945 10947 0
-10940 -10945 10948 0
-10946 10948 0
-10940 -10946 0
-10941 10949 0
-10947 10949 0
-10941 -10947 10950 0
-10948 10950 0
-10941 -10948 0
-10942 10951 0
-10949 10951 0
-10942 -10949 10952 0
-10950 10952 0
-10942 -10950 0
-10943 10953 0
-10951 10953 0
-10943 -10951 10954 0
-10952 10954 0
-10943 -10952 0
-10944 -10954 0
-10957 28 29 30 0
-28 10957 0
-29 10957 0
-30 10957 0
10957 25 26 27 0
-10958 58 59 60 0
-58 10958 0
-59 10958 0
-60 10958 0
10958 55 56 57 0
-10959 88 89 90 0
-88 10959 0
-89 10959 0
-90 10959 0
10959 85 86 87 0
-10960 118 119 120 0
-118 10960 0
-119 10960 0
-120 10960 0
10960 115 116 117 0
-10961 148 149 150 0
-148 10961 0
-149 10961 0
-150 10961 0
10961 145 146 147 0
-10962 214 215 216 0
-214 10962 0
-215 10962 0
-216 10962 0
10962 211 212 213 0
-10957 10963 0
-10964 0
-10965 0
-10958 10966 0
-10963 10966 0
-10958 -10963 10967 0
-10964 10967 0
-10958 -10964 10968 0
-10965 10968 0
-10958 -10965 0
-10959 10969 0
-10966 10969 0
-10959 -10966 10970 0
-10967 10970 0
-10959 -10967 10971 0
-10968 10971 0
-10959 -10968 0
-10960 10972 0
-10969 10972 0
-10960 -10969 10973 0
-10970 10973 0
-10960 -10970 10974 0
-10971 10974 0
-10960 -10971 0
-10961 10975 0
-10972 10975 0
-10961 -10972 10976 0
-10973 10976 0
-10961 -10973 10977 0
-10974 10977 0
-10961 -10974 0
-10962 -10977 0
-10981 29 0
-29 10981 0
10981 25 26 27 28 30 0
-10982 59 0
-59 10982 0
10982 55 56 57 58 60 0
-10983 89 0
-89 10983 0
10983 85 86 87 88 90 0
-10984 119 0
-119 10984 0
10984 115 116 117 118 120 0
-10985 149 0
-149 10985 0
10985 145 146 147 148 150 0
-10986 215 0
-215 10986 0
10986 211 212 213 214 216 0
-10981 10987 0
-10982 10988 0
-10987 10988 0
-10982 -10987 0
-10983 10989 0
-10988 10989 0
-10983 -10988 0
-10984 10990 0
-10989 10990 0
-10984 -10989 0
-10985 10991 0
-10990 10991 0
-10985 -10990 0
-10986 -10991 0
-10993 29 30 0
-29 10993 0
-30 10993 0
10993 25 26 27 28 0
-10994 59 60 0
-59 10994 0
-60 10994 0
10994 55 56 57 58 0
-10995 89 90 0
-89 10995 0
-90 10995 0
10995 85 86 87 88 0
-10996 119 120 0
-119 10996 0
-120 10996 0
10996 115 116 117 118 0
-10997 149 150 0
-149 10997 0
-150 10997 0
10997 145 146 147 148 0
-10998 215 216 0
-215 10998 0
-216 10998 0
10998 211 212 213 214 0
-10993 10999 0
-11000 0
-10994 11001 0
-10999 11001 0
-10994 -10999 11002 0
-11000 11002 0
-10994 -11000 0
-10995 11003 0
-11001 11003 0
-10995 -11001 11004 0
-11002 11004 0
-10995 -11002 0
-10996 11005 0
-11003 11005 0
-10996 -11003 11006 0
-11004 11006 0
-10996 -11004 0
-10997 11007 0
-11005 11007 0
-10997 -11005 11008 0
-11006 11008 0
-10997 -11006 0
-10998 -11008 0
-11011 30 0
-30 11011 0
11011 25 26 27 28 29 0
-11012 60 0
-60 11012 0
11012 55 56 57 58 59 0
-11013 90 0
-90 11013 0
11013 85 86 87 88 89 0
-11014 120 0
-120 11014 0
11014 115 116 117 118 119 0
-11015 150 0
-150 11015 0
11015 145 146 147 148 149 0
-11016 216 0
-216 11016 0
11016 211 212 213 214 215 0
-11011 11017 0
-11012 11018 0
-11017 11018 0
-11012 -11017 0
-11013 11019 0
-11018 11019 0
-11013 -11018 0
-11014 11020 0
-11019 11020 0
-11014 -11019 0
-11015 11021 0
-11020 11021 0
-11015 -11020 0
-11016 -11021 0
-25 11023 0
-55 11024 0
-11023 11024 0
-55 -11023 0
-85 11025 0
-11024 11025 0
-85 -11024 0
-115 11026 0
-11025 11026 0
-115 -11025 0
-145 11027 0
-11026 11027 0
-145 -11026 0
-211 -11027 0
25 55 85 115 145 211 0
-26 11029 0
-56 11030 0
-11029 11030 0
-56 -11029 0
-86 11031 0
-11030 11031 0
-86 -11030 0
-116 11032 0
-11031 11032 0
-116 -11031 0
-146 11033 0
-11032 11033 0
-146 -11032 0
-212 -11033 0
26 56 86 116 146 212 0
-27 11035 0
-57 11036 0
-11035 11036 0
-57 -11035 0
-87 11037 0
-11036 11037 0
-87 -11036 0
-117 11038 0
-11037 11038 0
-117 -11037 0
-147 11039 0
-11038 11039 0
-147 -11038 0
-213 -11039 0
27 57 87 117 147 213 0
-28 11041 0
-58 11042 0
-11041 11042 0
-58 -11041 0
-88 11043 0
-11042 11043 0
-88 -11042 0
-118 11044 0
-11043 11044 0
-118 -11043 0
-148 11045 0
-11044 11045 0
-148 -11044 0
-214 -11045 0
28 58 88 118 148 214 0
-29 11047 0
-59 11048 0
-11047 11048 0
-59 -11047 0
-89 11049 0
-11048 11049 0
-89 -11048 0
-119 11050 0
-11049 11050 0
-119 -11049 0
-149 11051 0
-11050 11051 0
-149 -11050 0
-215 -11051 0
29 59 89 119 149 215 0
-30 11053 0
-60 11054 0
-11053 11054 0
-60 -11053 0
-90 11055 0
-11054 11055 0
-90 -11054 0
-120 11056 0
-11055 11056 0
-120 -11055 0
-150 11057 0
-11056 11057 0
-150 -11056 0
-216 -11057 0
30 60 90 120 150 216 0
-11059 31 0
-31 11059 0
11059 32 33 34 35 36 0
-11060 61 0
-61 11060 0
11060 62 63 64 65 66 0
-11061 91 0
-91 11061 0
11061 92 93 94 95 96 0
-11062 121 0
-121 11062 0
11062 122 123 124 125 126 0
-11063 151 0
-151 11063 0
11063 152 153 154 155 156 0
-11064 181 0
-181 11064 0
11064 182 183 184 185 186 0
-11059 11065 0
-11060 11066 0
-11065 11066 0
-11060 -11065 0
-11061 11067 0
-11066 11067 0
-11061 -11066 0
-11062 11068 0
-11067 11068 0
-11062 -11067 0
-11063 11069 0
-11068 11069 0
-11063 -11068 0
-11064 -11069 0
-11071 31 32 0
-31 11071 0
-32 11071 0
11071 33 34 35 36 0
-11072 61 62 0
-61 11072 0
-62 11072 0
11072 63 64 65 66 0
-11073 91 92 0
-91 11073 0
-92 11073 0
11073 93 94 95 96 0
-11074 121 122 0
-121 11074 0
-122 11074 0
11074 123 124 125 126 0
-11075 151 152 0
-151 11075 0
-152 11075 0
11075 153 154 155 156 0
-11076 181 182 0
-181 11076 0
-182 11076 0
11076 183 184 185 186 0
-11071 11077 0
-11078 0
-11072 11079 0
-11077 11079 0
-11072 -11077 11080 0
-11078 11080 0
-11072 -11078 0
-11073 11081 0
-11079 11081 0
-11073 -11079 11082 0
-11080 11082 0
-11073 -11080 0
-11074 11083 0
-11081 11083 0
-11074 -11081 11084 0
-11082 11084 0
-11074 -11082 0
-11075 11085 0
-11083 11085 0
-11075 -11083 11086 0
-11084 11086 0
-11075 -11084 0
-11076 -11086 0
-11089 31 32 33 0
-31 11089 0
-32 11089 0
-33 11089 0
11089 34 35 36 0
-11090 61 62 63 0
-61 11090 0
-62 11090 0
-63 11090 0
11090 64 65 66 0
-11091 91 92 93 0
-91 11091 0
-92 11091 0
-93 11091 0
11091 94 95 96 0
-11092 121 122 123 0
-121 11092 0
-122 11092 0
-123 11092 0
11092 124 125 126 0
-11093 151 152 153 0
-151 11093 0
-152 11093 0
-153 11093 0
11093 154 155 156 0
-11094 181 182 183 0
-181 11094 0
-182 11094 0
-183 11094 0
11094 184 185 186 0
-11089 11095 0
-11096 0
-11097 0
-11090 11098 0
-11095 11098 0
-11090 -11095 11099 0
-11096 11099 0
-11090 -11096 11100 0
-11097 11100 0
-11090 -11097 0
-11091 11101 0
-11098 11101 0
-11091 -11098 11102 0
-11099 11102 0
-11091 -11099 11103 0
-11100 11103 0
-11091 -11100 0
-11092 11104 0
-11101 11104 0
-11092 -11101 11105 0
-11102 11105 0
-11092 -11102 11106 0
-11103 11106 0
-11092 -11103 0
-11093 11107 0
-11104 11107 0
-11093 -11104 11108 0
-11105 11108 0
-11093 -11105 11109 0
-11106 11109 0
-11093 -11106 0
-11094 -11109 0
-11113 31 32 33 34 0
-31 11113 0
-32 11113 0
-33 11113 0
-34 11113 0
11113 35 36 0
-11114 61 62 63 64 0
-61 11114 0
-62 11114 0
-63 11114 0
-64 11114 0
11114 65 66 0
-11115 91 92 93 94 0
-91 11115 0
-92 11115 0
-93 11115 0
-94 11115 0
11115 95 96 0
-11116 121 122 123 124 0
-121 11116 0
-122 11116 0
-123 11116 0
-124 11116 0
11116 125 126 0
-11117 151 152 153 154 0
-151 11117 0
-152 11117 0
-153 11117 0
-154 11117 0
11117 155 156 0
-11118 181 182 183 184 0
-181 11118 0
-182 11118 0
-183 11118 0
-184 11118 0
11118 185 186 0
-11113 11119 0
-11120 0
-11121 0
-11122 0
-11114 11123 0
-11119 11123 0
-11114 -11119 11124 0
-11120 11124 0
-11114 -11120 11125 0
-11121 11125 0
-11114 -11121 11126 0
-11122 11126 0
-11114 -11122 0
-11115 11127 0
-11123 11127 0
-11115 -11123 11128 0
-11124 11128 0
-11115 -11124 11129 0
-11125 11129 0
-11115 -11125 11130 0
-11126 11130 0
-11115 -11126 0
-11116 11131 0
-11127 11131 0
-11116 -11127 11132 0
-11128 11132 0
-11116 -11128 11133 0
-11129 11133 0
-11116 -11129 11134 0
-11130 11134 0
-11116 -11130 0
-11117 11135 0
-11131 11135 0
-11117 -11131 11136 0
-11132 11136 0
-11117 -11132 11137 0
-11133 11137 0
-11117 -11133 11138 0
-11134 11138 0
-11117 -11134 0
-11118 -11138 0
-11143 31 32 33 34 35 0
-31 11143 0
-32 11143 0
-33 11143 0
-34 11143 0
-35 11143 0
11143 36 0
-11144 61 62 63 64 65 0
-61 11144 0
-62 11144 0
-63 11144 0
-64 11144 0
-65 11144 0
11144 66 0
-11145 91 92 93 94 95 0
-91 11145 0
-92 11145 0
-93 11145 0
-94 11145 0
-95 11145 0
11145 96 0
-11146 121 122 123 124 125 0
-121 11146 0
-122 11146 0
-123 11146 0
-124 11146 0
-125 11146 0
11146 126 0
-11147 151 152 153 154 155 0
-151 11147 0
-152 11147 0
-153 11147 0
-154 11147 0
-155 11147 0
11147 156 0
-11148 181 182 183 184 185 0
-181 11148 0
-182 11148 0
-183 11148 0
-184 11148 0
-185 11148 0
11148 186 0
-11143 11149 0
-11150 0
-11151 0
-11152 0
-11153 0
-11144 11154 0
-11149 11154 0
-11144 -11149 11155 0
-11150 11155 0
-11144 -11150 11156 0
-11151 11156 0
-11144 -11151 11157 0
-11152 11157 0
-11144 -11152 11158 0
-11153 11158 0
-11144 -11153 0
-11145 11159 0
-11154 11159 0
-11145 -11154 11160 0
-11155 11160 0
-11145 -11155 11161 0
-11156 11161 0
-11145 -11156 11162 0
-11157 11162 0
-11145 -11157 11163 0
-11158 11163 0
-11145 -11158 0
-11146 11164 0
-11159 11164 0
-11146 -11159 11165 0
-11160 11165 0
-11146 -11160 11166 0
-11161 11166 0
-11146 -11161 11167 0
-11162 11167 0
-11146 -11162 11168 0
-11163 11168 0
-11146 -11163 0
-11147 11169 0
-11164 11169 0
-11147 -11164 11170 0
-11165 11170 0
-11147 -11165 11171 0
-11166 11171 0
-11147 -11166 11172 0
-11167 11172 0
-11147 -11167 11173 0
-11168 11173 0
-11147 -11168 0
-11148 -11173 0
-11179 31 32 33 34 35 36 0
-31 11179 0
-32 11179 0
-33 11179 0
-34 11179 0
-35 11179 0
-36 11179 0
11179 0
-11180 61 62 63 64 65 66 0
-61 11180 0
-62 11180 0
-63 11180 0
-64 11180 0
-65 11180 0
-66 11180 0
11180 0
-11181 91 92 93 94 95 96 0
-91 11181 0
-92 11181 0
-93 11181 0
-94 11181 0
-95 11181 0
-96 11181 0
11181 0
-11182 121 122 123 124 125 126 0
-121 11182 0
-122 11182 0
-123 11182 0
-124 11182 0
-125 11182 0
-126 11182 0
11182 0
-11183 151 152 153 154 155 156 0
-151 11183 0
-152 11183 0
-153 11183 0
-154 11183 0
-155 11183 0
-156 11183 0
11183 0
-11184 181 182 183 184 185 186 0
-181 11184 0
-182 11184 0
-183 11184 0
-184 11184 0
-185 11184 0
-186 11184 0
11184 0
-11185 32 0
-32 11185 0
11185 31 33 34 35 36 0
-11186 62 0
-62 11186 0
11186 61 63 64 65 66 0
-11187 92 0
-92 11187 0
11187 91 93 94 95 96 0
-11188 122 0
-122 11188 0
11188 121 123 124 125 126 0
-11189 152 0
-152 11189 0
11189 151 153 154 155 156 0
-11190 182 0
-182 11190 0
11190 181 183 184 185 186 0
-11185 11191 0
-11186 11192 0
-11191 11192 0
-11186 -11191 0
-11187 11193 0
-11192 11193 0
-11187 -11192 0
-11188 11194 0
-11193 11194 0
-11188 -11193 0
-11189 11195 0
-11194 11195 0
-11189 -11194 0
-11190 -11195 0
-11197 32 33 0
-32 11197 0
-33 11197 0
11197 31 34 35 36 0
-11198 62 63 0
-62 11198 0
-63 11198 0
11198 61 64 65 66 0
-11199 92 93 0
-92 11199 0
-93 11199 0
11199 91 94 95 96 0
-11200 122 123 0
-122 11200 0
-123 11200 0
11200 121 124 125 126 0
-11201 152 153 0
-152 11201 0
-153 11201 0
11201 151 154 155 156 0
-11202 182 183 0
-182 11202 0
-183 11202 0
11202 181 184 185 186 0
-11197 11203 0
-11204 0
-11198 11205 0
-11203 11205 0
-11198 -11203 11206 0
-11204 11206 0
-11198 -11204 0
-11199 11207 0
-11205 11207 0
-11199 -11205 11208 0
-11206 11208 0
-11199 -11206 0
-11200 11209 0
-11207 11209 0
-11200 -11207 11210 0
-11208 11210 0
-11200 -11208 0
-11201 11211 0
-11209 11211 0
-11201 -11209 11212 0
-11210 11212 0
-11201 -11210 0
-11202 -11212 0
-11215 32 33 34 0
-32 11215 0
-33 11215 0
-34 11215 0
11215 31 35 36 0
-11216 62 63 64 0
-62 11216 0
-63 11216 0
-64 11216 0
11216 61 65 66 0
-11217 92 93 94 0
-92 11217 0
-93 11217 0
-94 11217 0
11217 91 95 96 0
-11218 122 123 124 0
-122 11218 0
-123 11218 0
-124 11218 0
11218 121 125 126 0
-11219 152 153 154 0
-152 11219 0
-153 11219 0
-154 11219 0
11219 151 155 156 0
-11220 182 183 184 0
-182 11220 0
-183 11220 0
-184 11220 0
11220 181 185 186 0
-11215 11221 0
-11222 0
-11223 0
-11216 11224 0
-11221 11224 0
-11216 -11221 11225 0
-11222 11225 0
-11216 -11222 11226 0
-11223 11226 0
-11216 -11223 0
-11217 11227 0
-11224 11227 0
-11217 -11224 11228 0
-11225 11228 0
-11217 -11225 11229 0
-11226 11229 0
-11217 -11226 0
-11218 11230 0
-11227 11230 0
-11218 -11227 11231 0
-11228 11231 0
-11218 -11228 11232 0
-11229 11232 0
-11218 -11229 0
-11219 11233 0
-11230 11233 0
-11219 -11230 11234 0
-11231 11234 0
-11219 -11231 11235 0
-11232 11235 0
-11219 -11232 0
-11220 -11235 0
-11239 32 33 34 35 0
-32 11239 0
-33 11239 0
-34 11239 0
-35 11239 0
11239 31 36 0
-11240 62 63 64 65 0
-62 11240 0
-63 11240 0
-64 11240 0
-65 11240 0
11240 61 66 0
-11241 92 93 94 95 0
-92 11241 0
-93 11241 0
-94 11241 0
-95 11241 0
11241 91 96 0
-11242 122 123 124 125 0
-122 11242 0
-123 11242 0
-124 11242 0
-125 11242 0
11242 121 126 0
-11243 152 153 154 155 0
-152 11243 0
-153 11243 0
-154 11243 0
-155 11243 0
11243 151 156 0
-11244 182 183 184 185 0
-182 11244 0
-183 11244 0
-184 11244 0
-185 11244 0
11244 181 186 0
-11239 11245 0
-11246 0
-11247 0
-11248 0
-11240 11249 0
-11245 11249 0
-11240 -11245 11250 0
-11246 11250 0
-11240 -11246 11251 0
-11247 11251 0
-11240 -11247 11252 0
-11248 11252 0
-11240 -11248 0
-11241 11253 0
-11249 11253 0
-11241 -11249 11254 0
-11250 11254 0
-11241 -11250 11255 0
-11251 11255 0
-11241 -11251 11256 0
-11252 11256 0
-11241 -11252 0
-11242 11257 0
-11253 11257 0
-11242 -11253 11258 0
-11254 11258 0
-11242 -11254 11259 0
-11255 11259 0
-11242 -11255 11260 0
-11256 11260 0
-11242 -11256 0
-11243 11261 0
-11257 11261 0
-11243 -11257 11262 0
-11258 11262 0
-11243 -11258 11263 0
-11259 11263 0
-11243 -11259 11264 0
-11260 11264 0
-11243 -11260 0
-11244 -11264 0
-11269 32 33 34 35 36 0
-32 11269 0
-33 11269 0
-34 11269 0
-35 11269 0
-36 11269 0
11269 31 0
-11270 62 63 64 65 66 0
-62 11270 0
-63 11270 0
-64 11270 0
-65 11270 0
-66 11270 0
11270 61 0
-11271 92 93 94 95 96 0
-92 11271 0
-93 11271 0
-94 11271 0
-95 11271 0
-96 11271 0
11271 91 0
-11272 122 123 124 125 126 0
-122 11272 0
-123 11272 0
-124 11272 0
-125 11272 0
-126 11272 0
11272 121 0
-11273 152 153 154 155 156 0
-152 11273 0
-153 11273 0
-154 11273 0
-155 11273 0
-156 11273 0
11273 151 0
-11274 182 183 184 185 186 0
-182 11274 0
-183 11274 0
-184 11274 0
-185 11274 0
-186 11274 0
11274 181 0
-11269 11275 0
-11276 0
-11277 0
-11278 0
-11279 0
-11270 11280 0
-11275 11280 0
-11270 -11275 11281 0
-11276 11281 0
-11270 -11276 11282 0
-11277 11282 0
-11270 -11277 11283 0
-11278 11283 0
-11270 -11278 11284 0
-11279 11284 0
-11270 -11279 0
-11271 11285 0
-11280 11285 0
-11271 -11280 11286 0
-11281 11286 0
-11271 -11281 11287 0
-11282 11287 0
-11271 -11282 11288 0
-11283 11288 0
-11271 -11283 11289 0
-11284 11289 0
-11271 -11284 0
-11272 11290 0
-11285 11290 0
-11272 -11285 11291 0
-11286 11291 0
-11272 -11286 11292 0
-11287 11292 0
-11272 -11287 11293 0
-11288 11293 0
-11272 -11288 11294 0
-11289 11294 0
-11272 -11289 0
-11273 11295 0
-11290 11295 0
-11273 -11290 11296 0
-11291 11296 0
-11273 -11291 11297 0
-11292 11297 0
-11273 -11292 11298 0
-11293 11298 0
-11273 -11293 11299 0
-11294 11299 0
-11273 -11294 0
-11274 -11299 0
-11305 33 0
-33 11305 0
11305 31 32 34 35 36 0
-11306 63 0
-63 11306 0
11306 61 62 64 65 66 0
-11307 93 0
-93 11307 0
11307 91 92 94 95 96 0
-11308 123 0
-123 11308 0
11308 121 122 124 125 126 0
-11309 153 0
-153 11309 0
11309 151 152 154 155 156 0
-11310 183 0
-183 11310 0
11310 181 182 184 185 186 0
-11305 11311 0
-11306 11312 0
-11311 11312 0
-11306 -11311 0
-11307 11313 0
-11312 11313 0
-11307 -11312 0
-11308 11314 0
-11313 11314 0
-11308 -11313 0
-11309 11315 0
-11314 11315 0
-11309 -11314 0
-11310 -11315 0
-11317 33 34 0
-33 11317 0
-34 11317 0
11317 31 32 35 36 0
-11318 63 64 0
-63 11318 0
-64 11318 0
11318 61 62 65 66 0
-11319 93 94 0
-93 11319 0
-94 11319 0
11319 91 92 95 96 0
-11320 123 124 0
-123 11320 0
-124 11320 0
11320 121 122 125 126 0
-11321 153 154 0
-153 11321 0
-154 11321 0
11321 151 152 155 156 0
-11322 183 184 0
-183 11322 0
-184 11322 0
11322 181 182 185 186 0
-11317 11323 0
-11324 0
-11318 11325 0
-11323 11325 0
-11318 -11323 11326 0
-11324 11326 0
-11318 -11324 0
-11319 11327 0
-11325 11327 0
-11319 -11325 11328 0
-11326 11328 0
-11319 -11326 0
-11320 11329 0
-11327 11329 0
-11320 -11327 11330 0
-11328 11330 0
-11320 -11328 0
-11321 11331 0
-11329 11331 0
-11321 -11329 11332 0
-11330 11332 0
-11321 -11330 0
-11322 -11332 0
-11335 33 34 35 0
-33 11335 0
-34 11335 0
-35 11335 0
11335 31 32 36 0
-11336 63 64 65 0
-63 11336 0
-64 11336 0
-65 11336 0
11336 61 62 66 0
-11337 93 94 95 0
-93 11337 0
-94 11337 0
-95 11337 0
11337 91 92 96 0
-11338 123 124 125 0
-123 11338 0
-124 11338 0
-125 11338 0
11338 121 122 126 0
-11339 153 154 155 0
-153 11339 0
-154 11339 0
-155 11339 0
11339 151 152 156 0
-11340 183 184 185 0
-183 11340 0
-184 11340 0
-185 11340 0
11340 181 182 186 0
-11335 11341 0
-11342 0
-11343 0
-11336 11344 0
-11341 11344 0
-11336 -11341 11345 0
-11342 11345 0
-11336 -11342 11346 0
-11343 11346 0
-11336 -11343 0
-11337 11347 0
-11344 11347 0
-11337 -11344 11348 0
-11345 11348 0
-11337 -11345 11349 0
-11346 11349 0
-11337 -11346 0
-11338 11350 0
-11347 11350 0
-11338 -11347 11351 0
-11348 11351 0
-11338 -11348 11352 0
-11349 11352 0
-11338 -11349 0
-11339 11353 0
-11350 11353 0
-11339 -11350 11354 0
-11351 11354 0
-11339 -11351 11355 0
-11352 11355 0
-11339 -11352 0
-11340 -11355 0
-11359 33 34 35 36 0
-33 11359 0
-34 11359 0
-35 11359 0
-36 11359 0
11359 31 32 0
-11360 63 64 65 66 0
-63 11360 0
-64 11360 0
-65 11360 0
-66 11360 0
11360 61 62 0
-11361 93 94 95 96 0
-93 11361 0
-94 11361 0
-95 11361 0
-96 11361 0
11361 91 92 0
-11362 123 124 125 126 0
-123 11362 0
-124 11362 0
-125 11362 0
-126 11362 0
11362 121 122 0
-11363 153 154 155 156 0
-153 11363 0
-154 11363 0
-155 11363 0
-156 11363 0
11363 151 152 0
-11364 183 184 185 186 0
-183 11364 0
-184 11364 0
-185 11364 0
-186 11364 0
11364 181 182 0
-11359 11365 0
-11366 0
-11367 0
-11368 0
-11360 11369 0
-11365 11369 0
-11360 -11365 11370 0
-11366 11370 0
-11360 -11366 11371 0
-11367 11371 0
-11360 -11367 11372 0
-11368 11372 0
-11360 -11368 0
-11361 11373 0
-11369 11373 0
-11361 -11369 11374 0
-11370 11374 0
-11361 -11370 11375 0
-11371 11375 0
-11361 -11371 11376 0
-11372 11376 0
-11361 -11372 0
-11362 11377 0
-11373 11377 0
-11362 -11373 11378 0
-11374 11378 0
-11362 -11374 11379 0
-11375 11379 0
-11362 -11375 11380 0
-11376 11380 0
-11362 -11376 0
-11363 11381 0
-11377 11381 0
-11363 -11377 11382 0
-11378 11382 0
-11363 -11378 11383 0
-11379 11383 0
-11363 -11379 11384 0
-11380 11384 0
-11363 -11380 0
-11364 -11384 0
-11389 34 0
-34 11389 0
11389 31 32 33 35 36 0
-11390 64 0
-64 11390 0
11390 61 62 63 65 66 0
-11391 94 0
-94 11391 0
11391 91 92 93 95 96 0
-11392 124 0
-124 11392 0
11392 121 122 123 125 126 0
-11393 154 0
-154 11393 0
11393 151 152 153 155 156 0
-11394 184 0
-184 11394 0
11394 181 182 183 185 186 0
-11389 11395 0
-11390 11396 0
-11395 11396 0
-11390 -11395 0
-11391 11397 0
-11396 11397 0
-11391 -11396 0
-11392 11398 0
-11397 11398 0
-11392 -11397 0
-11393 11399 0
-11398 11399 0
-11393 -11398 0
-11394 -11399 0
-11401 34 35 0
-34 11401 0
-35 11401 0
11401 31 32 33 36 0
-11402 64 65 0
-64 11402 0
-65 11402 0
11402 61 62 63 66 0
-11403 94 95 0
-94 11403 0
-95 11403 0
11403 91 92 93 96 0
-11404 124 125 0
-124 11404 0
-125 11404 0
11404 121 122 123 126 0
-11405 154 155 0
-154 11405 0
-155 11405 0
11405 151 152 153 156 0
-11406 184 185 0
-184 11406 0
-185 11406 0
11406 181 182 183 186 0
-11401 11407 0
-11408 0
-11402 11409 0
-11407 11409 0
-11402 -11407 11410 0
-11408 11410 0
-11402 -11408 0
-11403 11411 0
-11409 11411 0
-11403 -11409 11412 0
-11410 11412 0
-11403 -11410 0
-11404 11413 0
-11411 11413 0
-11404 -11411 11414 0
-11412 11414 0
-11404 -11412 0
-11405 11415 0
-11413 11415 0
-11405 -11413 11416 0
-11414 11416 0
-11405 -11414 0
-11406 -11416 0
-11419 34 35 36 0
-34 11419 0
-35 11419 0
-36 11419 0
11419 31 32 33 0
-11420 64 65 66 0
-64 11420 0
-65 11420 0
-66 11420 0
11420 61 62 63 0
-11421 94 95 96 0
-94 11421 0
-95 11421 0
-96 11421 0
11421 91 92 93 0
-11422 124 125 126 0
-124 11422 0
-125 11422 0
-126 11422 0
11422 121 122 123 0
-11423 154 155 156 0
-154 11423 0
-155 11423 0
-156 11423 0
11423 151 152 153 0
-11424 184 185 186 0
-184 11424 0
-185 11424 0
-186 11424 0
11424 181 182 183 0
-11419 11425 0
-11426 0
-11427 0
-11420 11428 0
-11425 11428 0
-11420 -11425 11429 0
-11426 11429 0
-11420 -11426 11430 0
-11427 11430 0
-11420 -11427 0
-11421 11431 0
-11428 11431 0
-11421 -11428 11432 0
-11429 11432 0
-11421 -11429 11433 0
-11430 11433 0
-11421 -11430 0
-11422 11434 0
-11431 11434 0
-11422 -11431 11435 0
-11432 11435 0
-11422 -11432 11436 0
-11433 11436 0
-11422 -11433 0
-11423 11437 0
-11434 11437 0
-11423 -11434 11438 0
-11435 11438 0
-11423 -11435 11439 0
-11436 11439 0
-11423 -11436 0
-11424 -11439 0
-11443 35 0
-35 11443 0
11443 31 32 33 34 36 0
-11444 65 0
-65 11444 0
11444 61 62 63 64 66 0
-11445 95 0
-95 11445 0
11445 91 92 93 94 96 0
-11446 125 0
-125 11446 0
11446 121 122 123 124 126 0
-11447 155 0
-155 11447 0
11447 151 152 153 154 156 0
-11448 185 0
-185 11448 0
11448 181 182 183 184 186 0
-11443 11449 0
-11444 11450 0
-11449 11450 0
-11444 -11449 0
-11445 11451 0
-11450 11451 0
-11445 -11450 0
-11446 11452 0
-11451 11452 0
-11446 -11451 0
-11447 11453 0
-11452 11453 0
-11447 -11452 0
-11448 -11453 0
-11455 35 36 0
-35 11455 0
-36 11455 0
11455 31 32 33 34 0
-11456 65 66 0
-65 11456 0
-66 11456 0
11456 61 62 63 64 0
-11457 95 96 0
-95 11457 0
-96 11457 0
11457 91 92 93 94 0
-11458 125 126 0
-125 11458 0
-126 11458 0
11458 121 122 123 124 0
-11459 155 156 0
-155 11459 0
-156 11459 0
11459 151 152 153 154 0
-11460 185 186 0
-185 11460 0
-186 11460 0
11460 181 182 183 184 0
-11455 11461 0
-11462 0
-11456 11463 0
-11461 11463 0
-11456 -11461 11464 0
-11462 11464 0
-11456 -11462 0
-11457 11465 0
-11463 11465 0
-11457 -11463 11466 0
-11464 11466 0
-11457 -11464 0
-11458 11467 0
-11465 11467 0
-11458 -11465 11468 0
-11466 11468 0
-11458 -11466 0
-11459 11469 0
-11467 11469 0
-11459 -11467 11470 0
-11468 11470 0
-11459 -11468 0
-11460 -11470 0
-11473 36 0
-36 11473 0
11473 31 32 33 34 35 0
-11474 66 0
-66 11474 0
11474 61 62 63 64 65 0
-11475 96 0
-96 11475 0
11475 91 92 93 94 95 0
-11476 126 0
-126 11476 0
11476 121 122 123 124 125 0
-11477 156 0
-156 11477 0
11477 151 152 153 154 155 0
-11478 186 0
-186 11478 0
11478 181 182 183 184 185 0
-11473 11479 0
-11474 11480 0
-11479 11480 0
-11474 -11479 0
-11475 11481 0
-11480 11481 0
-11475 -11480 0
-11476 11482 0
-11481 11482 0
-11476 -11481 0
-11477 11483 0
-11482 11483 0
-11477 -11482 0
-11478 -11483 0
-31 11485 0
-61 11486 0
-11485 11486 0
-61 -11485 0
-91 11487 0
-11486 11487 0
-91 -11486 0
-121 11488 0
-11487 11488 0
-121 -11487 0
-151 11489 0
-11488 11489 0
-151 -11488 0
-181 -11489 0
31 61 91 121 151 181 0
-32 11491 0
-62 11492 0
-11491 11492 0
-62 -11491 0
-92 11493 0
-11492 11493 0
-92 -11492 0
-122 11494 0
-11493 11494 0
-122 -11493 0
-152 11495 0
-11494 11495 0
-152 -11494 0
-182 -11495 0
32 62 92 122 152 182 0
-33 11497 0
-63 11498 0
-11497 11498 0
-63 -11497 0
-93 11499 0
-11498 11499 0
-93 -11498 0
-123 11500 0
-11499 11500 0
-123 -11499 0
-153 11501 0
-11500 11501 0
-153 -11500 0
-183 -11501 0
33 63 93 123 153 183 0
-34 11503 0
-64 11504 0
-11503 11504 0
-64 -11503 0
-94 11505 0
-11504 11505 0
-94 -11504 0
-124 11506 0
-11505 11506 0
-124 -11505 0
-154 11507 0
-11506 11507 0
-154 -11506 0
-184 -11507 0
34 64 94 124 154 184 0
-35 11509 0
-65 11510 0
-11509 11510 0
-65 -11509 0
-95 11511 0
-11510 11511 0
-95 -11510 0
-125 11512 0
-11511 11512 0
-125 -11511 0
-155 11513 0
-11512 11513 0
-155 -11512 0
-185 -11513 0
35 65 95 125 155 185 0
-36 11515 0
-66 11516 0
-11515 11516 0
-66 -11515 0
-96 11517 0
-11516 11517 0
-96 -11516 0
-126 11518 0
-11517 11518 0
-126 -11517 0
-156 11519 0
-11518 11519 0
-156 -11518 0
-186 -11519 0
36 66 96 126 156 186 0
