p cnf 22638 60102
-1 344 0
-2 345 0
-344 345 0
-2 -344 0
-3 346 0
-345 346 0
-3 -345 0
-4 347 0
-346 347 0
-4 -346 0
-5 348 0
-347 348 0
-5 -347 0
-6 349 0
-348 349 0
-6 -348 0
-7 -349 0
1 2 3 4 5 6 7 0
-8 351 0
-9 352 0
-351 352 0
-9 -351 0
-10 353 0
-352 353 0
-10 -352 0
-11 354 0
-353 354 0
-11 -353 0
-12 355 0
-354 355 0
-12 -354 0
-13 356 0
-355 356 0
-13 -355 0
-14 -356 0
8 9 10 11 12 13 14 0
-15 358 0
-16 359 0
-358 359 0
-16 -358 0
-17 360 0
-359 360 0
-17 -359 0
-18 361 0
-360 361 0
-18 -360 0
-19 362 0
-361 362 0
-19 -361 0
-20 363 0
-362 363 0
-20 -362 0
-21 -363 0
15 16 17 18 19 20 21 0
-22 365 0
-23 366 0
-365 366 0
-23 -365 0
-24 367 0
-366 367 0
-24 -366 0
-25 368 0
-367 368 0
-25 -367 0
-26 369 0
-368 369 0
-26 -368 0
-27 370 0
-369 370 0
-27 -369 0
-28 -370 0
22 23 24 25 26 27 28 0
-29 372 0
-30 373 0
-372 373 0
-30 -372 0
-31 374 0
-373 374 0
-31 -373 0
-32 375 0
-374 375 0
-32 -374 0
-33 376 0
-375 376 0
-33 -375 0
-34 377 0
-376 377 0
-34 -376 0
-35 -377 0
29 30 31 32 33 34 35 0
-36 379 0
-37 380 0
-379 380 0
-37 -379 0
-38 381 0
-380 381 0
-38 -380 0
-39 382 0
-381 382 0
-39 -381 0
-40 383 0
-382 383 0
-40 -382 0
-41 384 0
-383 384 0
-41 -383 0
-42 -384 0
36 37 38 39 40 41 42 0
-43 386 0
-44 387 0
-386 387 0
-44 -386 0
-45 388 0
-387 388 0
-45 -387 0
-46 389 0
-388 389 0
-46 -388 0
-47 390 0
-389 390 0
-47 -389 0
-48 391 0
-390 391 0
-48 -390 0
-49 -391 0
43 44 45 46 47 48 49 0
-50 393 0
-51 394 0
-393 394 0
-51 -393 0
-52 395 0
-394 395 0
-52 -394 0
-53 396 0
-395 396 0
-53 -395 0
-54 397 0
-396 397 0
-54 -396 0
-55 398 0
-397 398 0
-55 -397 0
-56 -398 0
50 51 52 53 54 55 56 0
-57 400 0
-58 401 0
-400 401 0
-58 -400 0
-59 402 0
-401 402 0
-59 -401 0
-60 403 0
-402 403 0
-60 -402 0
-61 404 0
-403 404 0
-61 -403 0
-62 405 0
-404 405 0
-62 -404 0
-63 -405 0
57 58 59 60 61 62 63 0
-64 407 0
-65 408 0
-407 408 0
-65 -407 0
-66 409 0
-408 409 0
-66 -408 0
-67 410 0
-409 410 0
-67 -409 0
-68 411 0
-410 411 0
-68 -410 0
-69 412 0
-411 412 0
-69 -411 0
-70 -412 0
64 65 66 67 68 69 70 0
-71 414 0
-72 415 0
-414 415 0
-72 -414 0
-73 416 0
-415 416 0
-73 -415 0
-74 417 0
-416 417 0
-74 -416 0
-75 418 0
-417 418 0
-75 -417 0
-76 419 0
-418 419 0
-76 -418 0
-77 -419 0
71 72 73 74 75 76 77 0
-78 421 0
-79 422 0
-421 422 0
-79 -421 0
-80 423 0
-422 423 0
-80 -422 0
-81 424 0
-423 424 0
-81 -423 0
-82 425 0
-424 425 0
-82 -424 0
-83 426 0
-425 426 0
-83 -425 0
-84 -426 0
78 79 80 81 82 83 84 0
-85 428 0
-86 429 0
-428 429 0
-86 -428 0
-87 430 0
-429 430 0
-87 -429 0
-88 431 0
-430 431 0
-88 -430 0
-89 432 0
-431 432 0
-89 -431 0
-90 433 0
-432 433 0
-90 -432 0
-91 -433 0
85 86 87 88 89 90 91 0
-92 435 0
-93 436 0
-435 436 0
-93 -435 0
-94 437 0
-436 437 0
-94 -436 0
-95 438 0
-437 438 0
-95 -437 0
-96 439 0
-438 439 0
-96 -438 0
-97 440 0
-439 440 0
-97 -439 0
-98 -440 0
92 93 94 95 96 97 98 0
-99 442 0
-100 443 0
-442 443 0
-100 -442 0
-101 444 0
-443 444 0
-101 -443 0
-102 445 0
-444 445 0
-102 -444 0
-103 446 0
-445 446 0
-103 -445 0
-104 447 0
-446 447 0
-104 -446 0
-105 -447 0
99 100 101 102 103 104 105 0
-106 449 0
-107 450 0
-449 450 0
-107 -449 0
-108 451 0
-450 451 0
-108 -450 0
-109 452 0
-451 452 0
-109 -451 0
-110 453 0
-452 453 0
-110 -452 0
-111 454 0
-453 454 0
-111 -453 0
-112 -454 0
106 107 108 109 110 111 112 0
-113 456 0
-114 457 0
-456 457 0
-114 -456 0
-115 458 0
-457 458 0
-115 -457 0
-116 459 0
-458 459 0
-116 -458 0
-117 460 0
-459 460 0
-117 -459 0
-118 461 0
-460 461 0
-118 -460 0
-119 -461 0
113 114 115 116 117 118 119 0
-120 463 0
-121 464 0
-463 464 0
-121 -463 0
-122 465 0
-464 465 0
-122 -464 0
-123 466 0
-465 466 0
-123 -465 0
-124 467 0
-466 467 0
-124 -466 0
-125 468 0
-467 468 0
-125 -467 0
-126 -468 0
120 121 122 123 124 125 126 0
-127 470 0
-128 471 0
-470 471 0
-128 -470 0
-129 472 0
-471 472 0
-129 -471 0
-130 473 0
-472 473 0
-130 -472 0
-131 474 0
-473 474 0
-131 -473 0
-132 475 0
-474 475 0
-132 -474 0
-133 -475 0
127 128 129 130 131 132 133 0
-134 477 0
-135 478 0
-477 478 0
-135 -477 0
-136 479 0
-478 479 0
-136 -478 0
-137 480 0
-479 480 0
-137 -479 0
-138 481 0
-480 481 0
-138 -480 0
-139 482 0
-481 482 0
-139 -481 0
-140 -482 0
134 135 136 137 138 139 140 0
-141 484 0
-142 485 0
-484 485 0
-142 -484 0
-143 486 0
-485 486 0
-143 -485 0
-144 487 0
-486 487 0
-144 -486 0
-145 488 0
-487 488 0
-145 -487 0
-146 489 0
-488 489 0
-146 -488 0
-147 -489 0
141 142 143 144 145 146 147 0
-148 491 0
-149 492 0
-491 492 0
-149 -491 0
-150 493 0
-492 493 0
-150 -492 0
-151 494 0
-493 494 0
-151 -493 0
-152 495 0
-494 495 0
-152 -494 0
-153 496 0
-495 496 0
-153 -495 0
-154 -496 0
148 149 150 151 152 153 154 0
-155 498 0
-156 499 0
-498 499 0
-156 -498 0
-157 500 0
-499 500 0
-157 -499 0
-158 501 0
-500 501 0
-158 -500 0
-159 502 0
-501 502 0
-159 -501 0
-160 503 0
-502 503 0
-160 -502 0
-161 -503 0
155 156 157 158 159 160 161 0
-162 505 0
-163 506 0
-505 506 0
-163 -505 0
-164 507 0
-506 507 0
-164 -506 0
-165 508 0
-507 508 0
-165 -507 0
-166 509 0
-508 509 0
-166 -508 0
-167 510 0
-509 510 0
-167 -509 0
-168 -510 0
162 163 164 165 166 167 168 0
-169 512 0
-170 513 0
-512 513 0
-170 -512 0
-171 514 0
-513 514 0
-171 -513 0
-172 515 0
-514 515 0
-172 -514 0
-173 516 0
-515 516 0
-173 -515 0
-174 517 0
-516 517 0
-174 -516 0
-175 -517 0
169 170 171 172 173 174 175 0
-176 519 0
-177 520 0
-519 520 0
-177 -519 0
-178 521 0
-520 521 0
-178 -520 0
-179 522 0
-521 522 0
-179 -521 0
-180 523 0
-522 523 0
-180 -522 0
-181 524 0
-523 524 0
-181 -523 0
-182 -524 0
176 177 178 179 180 181 182 0
-183 526 0
-184 527 0
-526 527 0
-184 -526 0
-185 528 0
-527 528 0
-185 -527 0
-186 529 0
-528 529 0
-186 -528 0
-187 530 0
-529 530 0
-187 -529 0
-188 531 0
-530 531 0
-188 -530 0
-189 -531 0
183 184 185 186 187 188 189 0
-190 533 0
-191 534 0
-533 534 0
-191 -533 0
-192 535 0
-534 535 0
-192 -534 0
-193 536 0
-535 536 0
-193 -535 0
-194 537 0
-536 537 0
-194 -536 0
-195 538 0
-537 538 0
-195 -537 0
-196 -538 0
190 191 192 193 194 195 196 0
-197 540 0
-198 541 0
-540 541 0
-198 -540 0
-199 542 0
-541 542 0
-199 -541 0
-200 543 0
-542 543 0
-200 -542 0
-201 544 0
-543 544 0
-201 -543 0
-202 545 0
-544 545 0
-202 -544 0
-203 -545 0
197 198 199 200 201 202 203 0
-204 547 0
-205 548 0
-547 548 0
-205 -547 0
-206 549 0
-548 549 0
-206 -548 0
-207 550 0
-549 550 0
-207 -549 0
-208 551 0
-550 551 0
-208 -550 0
-209 552 0
-551 552 0
-209 -551 0
-210 -552 0
204 205 206 207 208 209 210 0
-211 554 0
-212 555 0
-554 555 0
-212 -554 0
-213 556 0
-555 556 0
-213 -555 0
-214 557 0
-556 557 0
-214 -556 0
-215 558 0
-557 558 0
-215 -557 0
-216 559 0
-558 559 0
-216 -558 0
-217 -559 0
211 212 213 214 215 216 217 0
-218 561 0
-219 562 0
-561 562 0
-219 -561 0
-220 563 0
-562 563 0
-220 -562 0
-221 564 0
-563 564 0
-221 -563 0
-222 565 0
-564 565 0
-222 -564 0
-223 566 0
-565 566 0
-223 -565 0
-224 -566 0
218 219 220 221 222 223 224 0
-225 568 0
-226 569 0
-568 569 0
-226 -568 0
-227 570 0
-569 570 0
-227 -569 0
-228 571 0
-570 571 0
-228 -570 0
-229 572 0
-571 572 0
-229 -571 0
-230 573 0
-572 573 0
-230 -572 0
-231 -573 0
225 226 227 228 229 230 231 0
-232 575 0
-233 576 0
-575 576 0
-233 -575 0
-234 577 0
-576 577 0
-234 -576 0
-235 578 0
-577 578 0
-235 -577 0
-236 579 0
-578 579 0
-236 -578 0
-237 580 0
-579 580 0
-237 -579 0
-238 -580 0
232 233 234 235 236 237 238 0
-239 582 0
-240 583 0
-582 583 0
-240 -582 0
-241 584 0
-583 584 0
-241 -583 0
-242 585 0
-584 585 0
-242 -584 0
-243 586 0
-585 586 0
-243 -585 0
-244 587 0
-586 587 0
-244 -586 0
-245 -587 0
239 240 241 242 243 244 245 0
-246 589 0
-247 590 0
-589 590 0
-247 -589 0
-248 591 0
-590 591 0
-248 -590 0
-249 592 0
-591 592 0
-249 -591 0
-250 593 0
-592 593 0
-250 -592 0
-251 594 0
-593 594 0
-251 -593 0
-252 -594 0
246 247 248 249 250 251 252 0
-253 596 0
-254 597 0
-596 597 0
-254 -596 0
-255 598 0
-597 598 0
-255 -597 0
-256 599 0
-598 599 0
-256 -598 0
-257 600 0
-599 600 0
-257 -599 0
-258 601 0
-600 601 0
-258 -600 0
-259 -601 0
253 254 255 256 257 258 259 0
-260 603 0
-261 604 0
-603 604 0
-261 -603 0
-262 605 0
-604 605 0
-262 -604 0
-263 606 0
-605 606 0
-263 -605 0
-264 607 0
-606 607 0
-264 -606 0
-265 608 0
-607 608 0
-265 -607 0
-266 -608 0
260 261 262 263 264 265 266 0
-267 610 0
-268 611 0
-610 611 0
-268 -610 0
-269 612 0
-611 612 0
-269 -611 0
-270 613 0
-612 613 0
-270 -612 0
-271 614 0
-613 614 0
-271 -613 0
-272 615 0
-614 615 0
-272 -614 0
-273 -615 0
267 268 269 270 271 272 273 0
-274 617 0
-275 618 0
-617 618 0
-275 -617 0
-276 619 0
-618 619 0
-276 -618 0
-277 620 0
-619 620 0
-277 -619 0
-278 621 0
-620 621 0
-278 -620 0
-279 622 0
-621 622 0
-279 -621 0
-280 -622 0
274 275 276 277 278 279 280 0
-281 624 0
-282 625 0
-624 625 0
-282 -624 0
-283 626 0
-625 626 0
-283 -625 0
-284 627 0
-626 627 0
-284 -626 0
-285 628 0
-627 628 0
-285 -627 0
-286 629 0
-628 629 0
-286 -628 0
-287 -629 0
281 282 283 284 285 286 287 0
-288 631 0
-289 632 0
-631 632 0
-289 -631 0
-290 633 0
-632 633 0
-290 -632 0
-291 634 0
-633 634 0
-291 -633 0
-292 635 0
-634 635 0
-292 -634 0
-293 636 0
-635 636 0
-293 -635 0
-294 -636 0
288 289 290 291 292 293 294 0
-295 638 0
-296 639 0
-638 639 0
-296 -638 0
-297 640 0
-639 640 0
-297 -639 0
-298 641 0
-640 641 0
-298 -640 0
-299 642 0
-641 642 0
-299 -641 0
-300 643 0
-642 643 0
-300 -642 0
-301 -643 0
295 296 297 298 299 300 301 0
-302 645 0
-303 646 0
-645 646 0
-303 -645 0
-304 647 0
-646 647 0
-304 -646 0
-305 648 0
-647 648 0
-305 -647 0
-306 649 0
-648 649 0
-306 -648 0
-307 650 0
-649 650 0
-307 -649 0
-308 -650 0
302 303 304 305 306 307 308 0
-309 652 0
-310 653 0
-652 653 0
-310 -652 0
-311 654 0
-653 654 0
-311 -653 0
-312 655 0
-654 655 0
-312 -654 0
-313 656 0
-655 656 0
-313 -655 0
-314 657 0
-656 657 0
-314 -656 0
-315 -657 0
309 310 311 312 313 314 315 0
-316 659 0
-317 660 0
-659 660 0
-317 -659 0
-318 661 0
-660 661 0
-318 -660 0
-319 662 0
-661 662 0
-319 -661 0
-320 663 0
-662 663 0
-320 -662 0
-321 664 0
-663 664 0
-321 -663 0
-322 -664 0
316 317 318 319 320 321 322 0
-323 666 0
-324 667 0
-666 667 0
-324 -666 0
-325 668 0
-667 668 0
-325 -667 0
-326 669 0
-668 669 0
-326 -668 0
-327 670 0
-669 670 0
-327 -669 0
-328 671 0
-670 671 0
-328 -670 0
-329 -671 0
323 324 325 326 327 328 329 0
-330 673 0
-331 674 0
-673 674 0
-331 -673 0
-332 675 0
-674 675 0
-332 -674 0
-333 676 0
-675 676 0
-333 -675 0
-334 677 0
-676 677 0
-334 -676 0
-335 678 0
-677 678 0
-335 -677 0
-336 -678 0
330 331 332 333 334 335 336 0
-337 680 0
-338 681 0
-680 681 0
-338 -680 0
-339 682 0
-681 682 0
-339 -681 0
-340 683 0
-682 683 0
-340 -682 0
-341 684 0
-683 684 0
-341 -683 0
-342 685 0
-684 685 0
-342 -684 0
-343 -685 0
337 338 339 340 341 342 343 0
-687 1 0
-1 687 0
687 2 3 4 5 6 7 0
-688 8 0
-8 688 0
688 9 10 11 12 13 14 0
-689 15 0
-15 689 0
689 16 17 18 19 20 21 0
-690 22 0
-22 690 0
690 23 24 25 26 27 28 0
-691 29 0
-29 691 0
691 30 31 32 33 34 35 0
-692 36 0
-36 692 0
692 37 38 39 40 41 42 0
-693 43 0
-43 693 0
693 44 45 46 47 48 49 0
-687 694 0
-688 695 0
-694 695 0
-688 -694 0
-689 696 0
-695 696 0
-689 -695 0
-690 697 0
-696 697 0
-690 -696 0
-691 698 0
-697 698 0
-691 -697 0
-692 699 0
-698 699 0
-692 -698 0
-693 -699 0
-701 1 2 0
-1 701 0
-2 701 0
701 3 4 5 6 7 0
-702 8 9 0
-8 702 0
-9 702 0
702 10 11 12 13 14 0
-703 15 16 0
-15 703 0
-16 703 0
703 17 18 19 20 21 0
-704 22 23 0
-22 704 0
-23 704 0
704 24 25 26 27 28 0
-705 29 30 0
-29 705 0
-30 705 0
705 31 32 33 34 35 0
-706 36 37 0
-36 706 0
-37 706 0
706 38 39 40 41 42 0
-707 43 44 0
-43 707 0
-44 707 0
707 45 46 47 48 49 0
-701 708 0
-709 0
-702 710 0
-708 710 0
-702 -708 711 0
-709 711 0
-702 -709 0
-703 712 0
-710 712 0
-703 -710 713 0
-711 713 0
-703 -711 0
-704 714 0
-712 714 0
-704 -712 715 0
-713 715 0
-704 -713 0
-705 716 0
-714 716 0
-705 -714 717 0
-715 717 0
-705 -715 0
-706 718 0
-716 718 0
-706 -716 719 0
-717 719 0
-706 -717 0
-707 -719 0
-722 1 2 3 0
-1 722 0
-2 722 0
-3 722 0
722 4 5 6 7 0
-723 8 9 10 0
-8 723 0
-9 723 0
-10 723 0
723 11 12 13 14 0
-724 15 16 17 0
-15 724 0
-16 724 0
-17 724 0
724 18 19 20 21 0
-725 22 23 24 0
-22 725 0
-23 725 0
-24 725 0
725 25 26 27 28 0
-726 29 30 31 0
-29 726 0
-30 726 0
-31 726 0
726 32 33 34 35 0
-727 36 37 38 0
-36 727 0
-37 727 0
-38 727 0
727 39 40 41 42 0
-728 43 44 45 0
-43 728 0
-44 728 0
-45 728 0
728 46 47 48 49 0
-722 729 0
-730 0
-731 0
-723 732 0
-729 732 0
-723 -729 733 0
-730 733 0
-723 -730 734 0
-731 734 0
-723 -731 0
-724 735 0
-732 735 0
-724 -732 736 0
-733 736 0
-724 -733 737 0
-734 737 0
-724 -734 0
-725 738 0
-735 738 0
-725 -735 739 0
-736 739 0
-725 -736 740 0
-737 740 0
-725 -737 0
-726 741 0
-738 741 0
-726 -738 742 0
-739 742 0
-726 -739 743 0
-740 743 0
-726 -740 0
-727 744 0
-741 744 0
-727 -741 745 0
-742 745 0
-727 -742 746 0
-743 746 0
-727 -743 0
-728 -746 0
-750 1 2 3 4 0
-1 750 0
-2 750 0
-3 750 0
-4 750 0
750 5 6 7 0
-751 8 9 10 11 0
-8 751 0
-9 751 0
-10 751 0
-11 751 0
751 12 13 14 0
-752 15 16 17 18 0
-15 752 0
-16 752 0
-17 752 0
-18 752 0
752 19 20 21 0
-753 22 23 24 25 0
-22 753 0
-23 753 0
-24 753 0
-25 753 0
753 26 27 28 0
-754 29 30 31 32 0
-29 754 0
-30 754 0
-31 754 0
-32 754 0
754 33 34 35 0
-755 36 37 38 39 0
-36 755 0
-37 755 0
-38 755 0
-39 755 0
755 40 41 42 0
-756 43 44 45 46 0
-43 756 0
-44 756 0
-45 756 0
-46 756 0
756 47 48 49 0
-750 757 0
-758 0
-759 0
-760 0
-751 761 0
-757 761 0
-751 -757 762 0
-758 762 0
-751 -758 763 0
-759 763 0
-751 -759 764 0
-760 764 0
-751 -760 0
-752 765 0
-761 765 0
-752 -761 766 0
-762 766 0
-752 -762 767 0
-763 767 0
-752 -763 768 0
-764 768 0
-752 -764 0
-753 769 0
-765 769 0
-753 -765 770 0
-766 770 0
-753 -766 771 0
-767 771 0
-753 -767 772 0
-768 772 0
-753 -768 0
-754 773 0
-769 773 0
-754 -769 774 0
-770 774 0
-754 -770 775 0
-771 775 0
-754 -771 776 0
-772 776 0
-754 -772 0
-755 777 0
-773 777 0
-755 -773 778 0
-774 778 0
-755 -774 779 0
-775 779 0
-755 -775 780 0
-776 780 0
-755 -776 0
-756 -780 0
-785 1 2 3 4 5 0
-1 785 0
-2 785 0
-3 785 0
-4 785 0
-5 785 0
785 6 7 0
-786 8 9 10 11 12 0
-8 786 0
-9 786 0
-10 786 0
-11 786 0
-12 786 0
786 13 14 0
-787 15 16 17 18 19 0
-15 787 0
-16 787 0
-17 787 0
-18 787 0
-19 787 0
787 20 21 0
-788 22 23 24 25 26 0
-22 788 0
-23 788 0
-24 788 0
-25 788 0
-26 788 0
788 27 28 0
-789 29 30 31 32 33 0
-29 789 0
-30 789 0
-31 789 0
-32 789 0
-33 789 0
789 34 35 0
-790 36 37 38 39 40 0
-36 790 0
-37 790 0
-38 790 0
-39 790 0
-40 790 0
790 41 42 0
-791 43 44 45 46 47 0
-43 791 0
-44 791 0
-45 791 0
-46 791 0
-47 791 0
791 48 49 0
-785 792 0
-793 0
-794 0
-795 0
-796 0
-786 797 0
-792 797 0
-786 -792 798 0
-793 798 0
-786 -793 799 0
-794 799 0
-786 -794 800 0
-795 800 0
-786 -795 801 0
-796 801 0
-786 -796 0
-787 802 0
-797 802 0
-787 -797 803 0
-798 803 0
-787 -798 804 0
-799 804 0
-787 -799 805 0
-800 805 0
-787 -800 806 0
-801 806 0
-787 -801 0
-788 807 0
-802 807 0
-788 -802 808 0
-803 808 0
-788 -803 809 0
-804 809 0
-788 -804 810 0
-805 810 0
-788 -805 811 0
-806 811 0
-788 -806 0
-789 812 0
-807 812 0
-789 -807 813 0
-808 813 0
-789 -808 814 0
-809 814 0
-789 -809 815 0
-810 815 0
-789 -810 816 0
-811 816 0
-789 -811 0
-790 817 0
-812 817 0
-790 -812 818 0
-813 818 0
-790 -813 819 0
-814 819 0
-790 -814 820 0
-815 820 0
-790 -815 821 0
-816 821 0
-790 -816 0
-791 -821 0
-827 1 2 3 4 5 6 0
-1 827 0
-2 827 0
-3 827 0
-4 827 0
-5 827 0
-6 827 0
827 7 0
-828 8 9 10 11 12 13 0
-8 828 0
-9 828 0
-10 828 0
-11 828 0
-12 828 0
-13 828 0
828 14 0
-829 15 16 17 18 19 20 0
-15 829 0
-16 829 0
-17 829 0
-18 829 0
-19 829 0
-20 829 0
829 21 0
-830 22 23 24 25 26 27 0
-22 830 0
-23 830 0
-24 830 0
-25 830 0
-26 830 0
-27 830 0
830 28 0
-831 29 30 31 32 33 34 0
-29 831 0
-30 831 0
-31 831 0
-32 831 0
-33 831 0
-34 831 0
831 35 0
-832 36 37 38 39 40 41 0
-36 832 0
-37 832 0
-38 832 0
-39 832 0
-40 832 0
-41 832 0
832 42 0
-833 43 44 45 46 47 48 0
-43 833 0
-44 833 0
-45 833 0
-46 833 0
-47 833 0
-48 833 0
833 49 0
-827 834 0
-835 0
-836 0
-837 0
-838 0
-839 0
-828 840 0
-834 840 0
-828 -834 841 0
-835 841 0
-828 -835 842 0
-836 842 0
-828 -836 843 0
-837 843 0
-828 -837 844 0
-838 844 0
-828 -838 845 0
-839 845 0
-828 -839 0
-829 846 0
-840 846 0
-829 -840 847 0
-841 847 0
-829 -841 848 0
-842 848 0
-829 -842 849 0
-843 849 0
-829 -843 850 0
-844 850 0
-829 -844 851 0
-845 851 0
-829 -845 0
-830 852 0
-846 852 0
-830 -846 853 0
-847 853 0
-830 -847 854 0
-848 854 0
-830 -848 855 0
-849 855 0
-830 -849 856 0
-850 856 0
-830 -850 857 0
-851 857 0
-830 -851 0
-831 858 0
-852 858 0
-831 -852 859 0
-853 859 0
-831 -853 860 0
-854 860 0
-831 -854 861 0
-855 861 0
-831 -855 862 0
-856 862 0
-831 -856 863 0
-857 863 0
-831 -857 0
-832 864 0
-858 864 0
-832 -858 865 0
-859 865 0
-832 -859 866 0
-860 866 0
-832 -860 867 0
-861 867 0
-832 -861 868 0
-862 868 0
-832 -862 869 0
-863 869 0
-832 -863 0
-833 -869 0
-876 1 2 3 4 5 6 7 0
-1 876 0
-2 876 0
-3 876 0
-4 876 0
-5 876 0
-6 876 0
-7 876 0
876 0
-877 8 9 10 11 12 13 14 0
-8 877 0
-9 877 0
-10 877 0
-11 877 0
-12 877 0
-13 877 0
-14 877 0
877 0
-878 15 16 17 18 19 20 21 0
-15 878 0
-16 878 0
-17 878 0
-18 878 0
-19 878 0
-20 878 0
-21 878 0
878 0
-879 22 23 24 25 26 27 28 0
-22 879 0
-23 879 0
-24 879 0
-25 879 0
-26 879 0
-27 879 0
-28 879 0
879 0
-880 29 30 31 32 33 34 35 0
-29 880 0
-30 880 0
-31 880 0
-32 880 0
-33 880 0
-34 880 0
-35 880 0
880 0
-881 36 37 38 39 40 41 42 0
-36 881 0
-37 881 0
-38 881 0
-39 881 0
-40 881 0
-41 881 0
-42 881 0
881 0
-882 43 44 45 46 47 48 49 0
-43 882 0
-44 882 0
-45 882 0
-46 882 0
-47 882 0
-48 882 0
-49 882 0
882 0
-883 2 0
-2 883 0
883 1 3 4 5 6 7 0
-884 9 0
-9 884 0
884 8 10 11 12 13 14 0
-885 16 0
-16 885 0
885 15 17 18 19 20 21 0
-886 23 0
-23 886 0
886 22 24 25 26 27 28 0
-887 30 0
-30 887 0
887 29 31 32 33 34 35 0
-888 37 0
-37 888 0
888 36 38 39 40 41 42 0
-889 44 0
-44 889 0
889 43 45 46 47 48 49 0
-883 890 0
-884 891 0
-890 891 0
-884 -890 0
-885 892 0
-891 892 0
-885 -891 0
-886 893 0
-892 893 0
-886 -892 0
-887 894 0
-893 894 0
-887 -893 0
-888 895 0
-894 895 0
-888 -894 0
-889 -895 0
-897 2 3 0
-2 897 0
-3 897 0
897 1 4 5 6 7 0
-898 9 10 0
-9 898 0
-10 898 0
898 8 11 12 13 14 0
-899 16 17 0
-16 899 0
-17 899 0
899 15 18 19 20 21 0
-900 23 24 0
-23 900 0
-24 900 0
900 22 25 26 27 28 0
-901 30 31 0
-30 901 0
-31 901 0
901 29 32 33 34 35 0
-902 37 38 0
-37 902 0
-38 902 0
902 36 39 40 41 42 0
-903 44 45 0
-44 903 0
-45 903 0
903 43 46 47 48 49 0
-897 904 0
-905 0
-898 906 0
-904 906 0
-898 -904 907 0
-905 907 0
-898 -905 0
-899 908 0
-906 908 0
-899 -906 909 0
-907 909 0
-899 -907 0
-900 910 0
-908 910 0
-900 -908 911 0
-909 911 0
-900 -909 0
-901 912 0
-910 912 0
-901 -910 913 0
-911 913 0
-901 -911 0
-902 914 0
-912 914 0
-902 -912 915 0
-913 915 0
-902 -913 0
-903 -915 0
-918 2 3 4 0
-2 918 0
-3 918 0
-4 918 0
918 1 5 6 7 0
-919 9 10 11 0
-9 919 0
-10 919 0
-11 919 0
919 8 12 13 14 0
-920 16 17 18 0
-16 920 0
-17 920 0
-18 920 0
920 15 19 20 21 0
-921 23 24 25 0
-23 921 0
-24 921 0
-25 921 0
921 22 26 27 28 0
-922 30 31 32 0
-30 922 0
-31 922 0
-32 922 0
922 29 33 34 35 0
-923 37 38 39 0
-37 923 0
-38 923 0
-39 923 0
923 36 40 41 42 0
-924 44 45 46 0
-44 924 0
-45 924 0
-46 924 0
924 43 47 48 49 0
-918 925 0
-926 0
-927 0
-919 928 0
-925 928 0
-919 -925 929 0
-926 929 0
-919 -926 930 0
-927 930 0
-919 -927 0
-920 931 0
-928 931 0
-920 -928 932 0
-929 932 0
-920 -929 933 0
-930 933 0
-920 -930 0
-921 934 0
-931 934 0
-921 -931 935 0
-932 935 0
-921 -932 936 0
-933 936 0
-921 -933 0
-922 937 0
-934 937 0
-922 -934 938 0
-935 938 0
-922 -935 939 0
-936 939 0
-922 -936 0
-923 940 0
-937 940 0
-923 -937 941 0
-938 941 0
-923 -938 942 0
-939 942 0
-923 -939 0
-924 -942 0
-946 2 3 4 5 0
-2 946 0
-3 946 0
-4 946 0
-5 946 0
946 1 6 7 0
-947 9 10 11 12 0
-9 947 0
-10 947 0
-11 947 0
-12 947 0
947 8 13 14 0
-948 16 17 18 19 0
-16 948 0
-17 948 0
-18 948 0
-19 948 0
948 15 20 21 0
-949 23 24 25 26 0
-23 949 0
-24 949 0
-25 949 0
-26 949 0
949 22 27 28 0
-950 30 31 32 33 0
-30 950 0
-31 950 0
-32 950 0
-33 950 0
950 29 34 35 0
-951 37 38 39 40 0
-37 951 0
-38 951 0
-39 951 0
-40 951 0
951 36 41 42 0
-952 44 45 46 47 0
-44 952 0
-45 952 0
-46 952 0
-47 952 0
952 43 48 49 0
-946 953 0
-954 0
-955 0
-956 0
-947 957 0
-953 957 0
-947 -953 958 0
-954 958 0
-947 -954 959 0
-955 959 0
-947 -955 960 0
-956 960 0
-947 -956 0
-948 961 0
-957 961 0
-948 -957 962 0
-958 962 0
-948 -958 963 0
-959 963 0
-948 -959 964 0
-960 964 0
-948 -960 0
-949 965 0
-961 965 0
-949 -961 966 0
-962 966 0
-949 -962 967 0
-963 967 0
-949 -963 968 0
-964 968 0
-949 -964 0
-950 969 0
-965 969 0
-950 -965 970 0
-966 970 0
-950 -966 971 0
-967 971 0
-950 -967 972 0
-968 972 0
-950 -968 0
-951 973 0
-969 973 0
-951 -969 974 0
-970 974 0
-951 -970 975 0
-971 975 0
-951 -971 976 0
-972 976 0
-951 -972 0
-952 -976 0
-981 2 3 4 5 6 0
-2 981 0
-3 981 0
-4 981 0
-5 981 0
-6 981 0
981 1 7 0
-982 9 10 11 12 13 0
-9 982 0
-10 982 0
-11 982 0
-12 982 0
-13 982 0
982 8 14 0
-983 16 17 18 19 20 0
-16 983 0
-17 983 0
-18 983 0
-19 983 0
-20 983 0
983 15 21 0
-984 23 24 25 26 27 0
-23 984 0
-24 984 0
-25 984 0
-26 984 0
-27 984 0
984 22 28 0
-985 30 31 32 33 34 0
-30 985 0
-31 985 0
-32 985 0
-33 985 0
-34 985 0
985 29 35 0
-986 37 38 39 40 41 0
-37 986 0
-38 986 0
-39 986 0
-40 986 0
-41 986 0
986 36 42 0
-987 44 45 46 47 48 0
-44 987 0
-45 987 0
-46 987 0
-47 987 0
-48 987 0
987 43 49 0
-981 988 0
-989 0
-990 0
-991 0
-992 0
-982 993 0
-988 993 0
-982 -988 994 0
-989 994 0
-982 -989 995 0
-990 995 0
-982 -990 996 0
-991 996 0
-982 -991 997 0
-992 997 0
-982 -992 0
-983 998 0
-993 998 0
-983 -993 999 0
-994 999 0
-983 -994 1000 0
-995 1000 0
-983 -995 1001 0
-996 1001 0
-983 -996 1002 0
-997 1002 0
-983 -997 0
-984 1003 0
-998 1003 0
-984 -998 1004 0
-999 1004 0
-984 -999 1005 0
-1000 1005 0
-984 -1000 1006 0
-1001 1006 0
-984 -1001 1007 0
-1002 1007 0
-984 -1002 0
-985 1008 0
-1003 1008 0
-985 -1003 1009 0
-1004 1009 0
-985 -1004 1010 0
-1005 1010 0
-985 -1005 1011 0
-1006 1011 0
-985 -1006 1012 0
-1007 1012 0
-985 -1007 0
-986 1013 0
-1008 1013 0
-986 -1008 1014 0
-1009 1014 0
-986 -1009 1015 0
-1010 1015 0
-986 -1010 1016 0
-1011 1016 0
-986 -1011 1017 0
-1012 1017 0
-986 -1012 0
-987 -1017 0
-1023 2 3 4 5 6 7 0
-2 1023 0
-3 1023 0
-4 1023 0
-5 1023 0
-6 1023 0
-7 1023 0
1023 1 0
-1024 9 10 11 12 13 14 0
-9 1024 0
-10 1024 0
-11 1024 0
-12 1024 0
-13 1024 0
-14 1024 0
1024 8 0
-1025 16 17 18 19 20 21 0
-16 1025 0
-17 1025 0
-18 1025 0
-19 1025 0
-20 1025 0
-21 1025 0
1025 15 0
-1026 23 24 25 26 27 28 0
-23 1026 0
-24 1026 0
-25 1026 0
-26 1026 0
-27 1026 0
-28 1026 0
1026 22 0
-1027 30 31 32 33 34 35 0
-30 1027 0
-31 1027 0
-32 1027 0
-33 1027 0
-34 1027 0
-35 1027 0
1027 29 0
-1028 37 38 39 40 41 42 0
-37 1028 0
-38 1028 0
-39 1028 0
-40 1028 0
-41 1028 0
-42 1028 0
1028 36 0
-1029 44 45 46 47 48 49 0
-44 1029 0
-45 1029 0
-46 1029 0
-47 1029 0
-48 1029 0
-49 1029 0
1029 43 0
-1023 1030 0
-1031 0
-1032 0
-1033 0
-1034 0
-1035 0
-1024 1036 0
-1030 1036 0
-1024 -1030 1037 0
-1031 1037 0
-1024 -1031 1038 0
-1032 1038 0
-1024 -1032 1039 0
-1033 1039 0
-1024 -1033 1040 0
-1034 1040 0
-1024 -1034 1041 0
-1035 1041 0
-1024 -1035 0
-1025 1042 0
-1036 1042 0
-1025 -1036 1043 0
-1037 1043 0
-1025 -1037 1044 0
-1038 1044 0
-1025 -1038 1045 0
-1039 1045 0
-1025 -1039 1046 0
-1040 1046 0
-1025 -1040 1047 0
-1041 1047 0
-1025 -1041 0
-1026 1048 0
-1042 1048 0
-1026 -1042 1049 0
-1043 1049 0
-1026 -1043 1050 0
-1044 1050 0
-1026 -1044 1051 0
-1045 1051 0
-1026 -1045 1052 0
-1046 1052 0
-1026 -1046 1053 0
-1047 1053 0
-1026 -1047 0
-1027 1054 0
-1048 1054 0
-1027 -1048 1055 0
-1049 1055 0
-1027 -1049 1056 0
-1050 1056 0
-1027 -1050 1057 0
-1051 1057 0
-1027 -1051 1058 0
-1052 1058 0
-1027 -1052 1059 0
-1053 1059 0
-1027 -1053 0
-1028 1060 0
-1054 1060 0
-1028 -1054 1061 0
-1055 1061 0
-1028 -1055 1062 0
-1056 1062 0
-1028 -1056 1063 0
-1057 1063 0
-1028 -1057 1064 0
-1058 1064 0
-1028 -1058 1065 0
-1059 1065 0
-1028 -1059 0
-1029 -1065 0
-1072 3 0
-3 1072 0
1072 1 2 4 5 6 7 0
-1073 10 0
-10 1073 0
1073 8 9 11 12 13 14 0
-1074 17 0
-17 1074 0
1074 15 16 18 19 20 21 0
-1075 24 0
-24 1075 0
1075 22 23 25 26 27 28 0
-1076 31 0
-31 1076 0
1076 29 30 32 33 34 35 0
-1077 38 0
-38 1077 0
1077 36 37 39 40 41 42 0
-1078 45 0
-45 1078 0
1078 43 44 46 47 48 49 0
-1072 1079 0
-1073 1080 0
-1079 1080 0
-1073 -1079 0
-1074 1081 0
-1080 1081 0
-1074 -1080 0
-1075 1082 0
-1081 1082 0
-1075 -1081 0
-1076 1083 0
-1082 1083 0
-1076 -1082 0
-1077 1084 0
-1083 1084 0
-1077 -1083 0
-1078 -1084 0
-1086 3 4 0
-3 1086 0
-4 1086 0
1086 1 2 5 6 7 0
-1087 10 11 0
-10 1087 0
-11 1087 0
1087 8 9 12 13 14 0
-1088 17 18 0
-17 1088 0
-18 1088 0
1088 15 16 19 20 21 0
-1089 24 25 0
-24 1089 0
-25 1089 0
1089 22 23 26 27 28 0
-1090 31 32 0
-31 1090 0
-32 1090 0
1090 29 30 33 34 35 0
-1091 38 39 0
-38 1091 0
-39 1091 0
1091 36 37 40 41 42 0
-1092 45 46 0
-45 1092 0
-46 1092 0
1092 43 44 47 48 49 0
-1086 1093 0
-1094 0
-1087 1095 0
-1093 1095 0
-1087 -1093 1096 0
-1094 1096 0
-1087 -1094 0
-1088 1097 0
-1095 1097 0
-1088 -1095 1098 0
-1096 1098 0
-1088 -1096 0
-1089 1099 0
-1097 1099 0
-1089 -1097 1100 0
-1098 1100 0
-1089 -1098 0
-1090 1101 0
-1099 1101 0
-1090 -1099 1102 0
-1100 1102 0
-1090 -1100 0
-1091 1103 0
-1101 1103 0
-1091 -1101 1104 0
-1102 1104 0
-1091 -1102 0
-1092 -1104 0
-1107 3 4 5 0
-3 1107 0
-4 1107 0
-5 1107 0
1107 1 2 6 7 0
-1108 10 11 12 0
-10 1108 0
-11 1108 0
-12 1108 0
1108 8 9 13 14 0
-1109 17 18 19 0
-17 1109 0
-18 1109 0
-19 1109 0
1109 15 16 20 21 0
-1110 24 25 26 0
-24 1110 0
-25 1110 0
-26 1110 0
1110 22 23 27 28 0
-1111 31 32 33 0
-31 1111 0
-32 1111 0
-33 1111 0
1111 29 30 34 35 0
-1112 38 39 40 0
-38 1112 0
-39 1112 0
-40 1112 0
1112 36 37 41 42 0
-1113 45 46 47 0
-45 1113 0
-46 1113 0
-47 1113 0
1113 43 44 48 49 0
-1107 1114 0
-1115 0
-1116 0
-1108 1117 0
-1114 1117 0
-1108 -1114 1118 0
-1115 1118 0
-1108 -1115 1119 0
-1116 1119 0
-1108 -1116 0
-1109 1120 0
-1117 1120 0
-1109 -1117 1121 0
-1118 1121 0
-1109 -1118 1122 0
-1119 1122 0
-1109 -1119 0
-1110 1123 0
-1120 1123 0
-1110 -1120 1124 0
-1121 1124 0
-1110 -1121 1125 0
-1122 1125 0
-1110 -1122 0
-1111 1126 0
-1123 1126 0
-1111 -1123 1127 0
-1124 1127 0
-1111 -1124 1128 0
-1125 1128 0
-1111 -1125 0
-1112 1129 0
-1126 1129 0
-1112 -1126 1130 0
-1127 1130 0
-1112 -1127 1131 0
-1128 1131 0
-1112 -1128 0
-1113 -1131 0
-1135 3 4 5 6 0
-3 1135 0
-4 1135 0
-5 1135 0
-6 1135 0
1135 1 2 7 0
-1136 10 11 12 13 0
-10 1136 0
-11 1136 0
-12 1136 0
-13 1136 0
1136 8 9 14 0
-1137 17 18 19 20 0
-17 1137 0
-18 1137 0
-19 1137 0
-20 1137 0
1137 15 16 21 0
-1138 24 25 26 27 0
-24 1138 0
-25 1138 0
-26 1138 0
-27 1138 0
1138 22 23 28 0
-1139 31 32 33 34 0
-31 1139 0
-32 1139 0
-33 1139 0
-34 1139 0
1139 29 30 35 0
-1140 38 39 40 41 0
-38 1140 0
-39 1140 0
-40 1140 0
-41 1140 0
1140 36 37 42 0
-1141 45 46 47 48 0
-45 1141 0
-46 1141 0
-47 1141 0
-48 1141 0
1141 43 44 49 0
-1135 1142 0
-1143 0
-1144 0
-1145 0
-1136 1146 0
-1142 1146 0
-1136 -1142 1147 0
-1143 1147 0
-1136 -1143 1148 0
-1144 1148 0
-1136 -1144 1149 0
-1145 1149 0
-1136 -1145 0
-1137 1150 0
-1146 1150 0
-1137 -1146 1151 0
-1147 1151 0
-1137 -1147 1152 0
-1148 1152 0
-1137 -1148 1153 0
-1149 1153 0
-1137 -1149 0
-1138 1154 0
-1150 1154 0
-1138 -1150 1155 0
-1151 1155 0
-1138 -1151 1156 0
-1152 1156 0
-1138 -1152 1157 0
-1153 1157 0
-1138 -1153 0
-1139 1158 0
-1154 1158 0
-1139 -1154 1159 0
-1155 1159 0
-1139 -1155 1160 0
-1156 1160 0
-1139 -1156 1161 0
-1157 1161 0
-1139 -1157 0
-1140 1162 0
-1158 1162 0
-1140 -1158 1163 0
-1159 1163 0
-1140 -1159 1164 0
-1160 1164 0
-1140 -1160 1165 0
-1161 1165 0
-1140 -1161 0
-1141 -1165 0
-1170 3 4 5 6 7 0
-3 1170 0
-4 1170 0
-5 1170 0
-6 1170 0
-7 1170 0
1170 1 2 0
-1171 10 11 12 13 14 0
-10 1171 0
-11 1171 0
-12 1171 0
-13 1171 0
-14 1171 0
1171 8 9 0
-1172 17 18 19 20 21 0
-17 1172 0
-18 1172 0
-19 1172 0
-20 1172 0
-21 1172 0
1172 15 16 0
-1173 24 25 26 27 28 0
-24 1173 0
-25 1173 0
-26 1173 0
-27 1173 0
-28 1173 0
1173 22 23 0
-1174 31 32 33 34 35 0
-31 1174 0
-32 1174 0
-33 1174 0
-34 1174 0
-35 1174 0
1174 29 30 0
-1175 38 39 40 41 42 0
-38 1175 0
-39 1175 0
-40 1175 0
-41 1175 0
-42 1175 0
1175 36 37 0
-1176 45 46 47 48 49 0
-45 1176 0
-46 1176 0
-47 1176 0
-48 1176 0
-49 1176 0
1176 43 44 0
-1170 1177 0
-1178 0
-1179 0
-1180 0
-1181 0
-1171 1182 0
-1177 1182 0
-1171 -1177 1183 0
-1178 1183 0
-1171 -1178 1184 0
-1179 1184 0
-1171 -1179 1185 0
-1180 1185 0
-1171 -1180 1186 0
-1181 1186 0
-1171 -1181 0
-1172 1187 0
-1182 1187 0
-1172 -1182 1188 0
-1183 1188 0
-1172 -1183 1189 0
-1184 1189 0
-1172 -1184 1190 0
-1185 1190 0
-1172 -1185 1191 0
-1186 1191 0
-1172 -1186 0
-1173 1192 0
-1187 1192 0
-1173 -1187 1193 0
-1188 1193 0
-1173 -1188 1194 0
-1189 1194 0
-1173 -1189 1195 0
-1190 1195 0
-1173 -1190 1196 0
-1191 1196 0
-1173 -1191 0
-1174 1197 0
-1192 1197 0
-1174 -1192 1198 0
-1193 1198 0
-1174 -1193 1199 0
-1194 1199 0
-1174 -1194 1200 0
-1195 1200 0
-1174 -1195 1201 0
-1196 1201 0
-1174 -1196 0
-1175 1202 0
-1197 1202 0
-1175 -1197 1203 0
-1198 1203 0
-1175 -1198 1204 0
-1199 1204 0
-1175 -1199 1205 0
-1200 1205 0
-1175 -1200 1206 0
-1201 1206 0
-1175 -1201 0
-1176 -1206 0
-1212 4 0
-4 1212 0
1212 1 2 3 5 6 7 0
-1213 11 0
-11 1213 0
1213 8 9 10 12 13 14 0
-1214 18 0
-18 1214 0
1214 15 16 17 19 20 21 0
-1215 25 0
-25 1215 0
1215 22 23 24 26 27 28 0
-1216 32 0
-32 1216 0
1216 29 30 31 33 34 35 0
-1217 39 0
-39 1217 0
1217 36 37 38 40 41 42 0
-1218 46 0
-46 1218 0
1218 43 44 45 47 48 49 0
-1212 1219 0
-1213 1220 0
-1219 1220 0
-1213 -1219 0
-1214 1221 0
-1220 1221 0
-1214 -1220 0
-1215 1222 0
-1221 1222 0
-1215 -1221 0
-1216 1223 0
-1222 1223 0
-1216 -1222 0
-1217 1224 0
-1223 1224 0
-1217 -1223 0
-1218 -1224 0
-1226 4 5 0
-4 1226 0
-5 1226 0
1226 1 2 3 6 7 0
-1227 11 12 0
-11 1227 0
-12 1227 0
1227 8 9 10 13 14 0
-1228 18 19 0
-18 1228 0
-19 1228 0
1228 15 16 17 20 21 0
-1229 25 26 0
-25 1229 0
-26 1229 0
1229 22 23 24 27 28 0
-1230 32 33 0
-32 1230 0
-33 1230 0
1230 29 30 31 34 35 0
-1231 39 40 0
-39 1231 0
-40 1231 0
1231 36 37 38 41 42 0
-1232 46 47 0
-46 1232 0
-47 1232 0
1232 43 44 45 48 49 0
-1226 1233 0
-1234 0
-1227 1235 0
-1233 1235 0
-1227 -1233 1236 0
-1234 1236 0
-1227 -1234 0
-1228 1237 0
-1235 1237 0
-1228 -1235 1238 0
-1236 1238 0
-1228 -1236 0
-1229 1239 0
-1237 1239 0
-1229 -1237 1240 0
-1238 1240 0
-1229 -1238 0
-1230 1241 0
-1239 1241 0
-1230 -1239 1242 0
-1240 1242 0
-1230 -1240 0
-1231 1243 0
-1241 1243 0
-1231 -1241 1244 0
-1242 1244 0
-1231 -1242 0
-1232 -1244 0
-1247 4 5 6 0
-4 1247 0
-5 1247 0
-6 1247 0
1247 1 2 3 7 0
-1248 11 12 13 0
-11 1248 0
-12 1248 0
-13 1248 0
1248 8 9 10 14 0
-1249 18 19 20 0
-18 1249 0
-19 1249 0
-20 1249 0
1249 15 16 17 21 0
-1250 25 26 27 0
-25 1250 0
-26 1250 0
-27 1250 0
1250 22 23 24 28 0
-1251 32 33 34 0
-32 1251 0
-33 1251 0
-34 1251 0
1251 29 30 31 35 0
-1252 39 40 41 0
-39 1252 0
-40 1252 0
-41 1252 0
1252 36 37 38 42 0
-1253 46 47 48 0
-46 1253 0
-47 1253 0
-48 1253 0
1253 43 44 45 49 0
-1247 1254 0
-1255 0
-1256 0
-1248 1257 0
-1254 1257 0
-1248 -1254 1258 0
-1255 1258 0
-1248 -1255 1259 0
-1256 1259 0
-1248 -1256 0
-1249 1260 0
-1257 1260 0
-1249 -1257 1261 0
-1258 1261 0
-1249 -1258 1262 0
-1259 1262 0
-1249 -1259 0
-1250 1263 0
-1260 1263 0
-1250 -1260 1264 0
-1261 1264 0
-1250 -1261 1265 0
-1262 1265 0
-1250 -1262 0
-1251 1266 0
-1263 1266 0
-1251 -1263 1267 0
-1264 1267 0
-1251 -1264 1268 0
-1265 1268 0
-1251 -1265 0
-1252 1269 0
-1266 1269 0
-1252 -1266 1270 0
-1267 1270 0
-1252 -1267 1271 0
-1268 1271 0
-1252 -1268 0
-1253 -1271 0
-1275 4 5 6 7 0
-4 1275 0
-5 1275 0
-6 1275 0
-7 1275 0
1275 1 2 3 0
-1276 11 12 13 14 0
-11 1276 0
-12 1276 0
-13 1276 0
-14 1276 0
1276 8 9 10 0
-1277 18 19 20 21 0
-18 1277 0
-19 1277 0
-20 1277 0
-21 1277 0
1277 15 16 17 0
-1278 25 26 27 28 0
-25 1278 0
-26 1278 0
-27 1278 0
-28 1278 0
1278 22 23 24 0
-1279 32 33 34 35 0
-32 1279 0
-33 1279 0
-34 1279 0
-35 1279 0
1279 29 30 31 0
-1280 39 40 41 42 0
-39 1280 0
-40 1280 0
-41 1280 0
-42 1280 0
1280 36 37 38 0
-1281 46 47 48 49 0
-46 1281 0
-47 1281 0
-48 1281 0
-49 1281 0
1281 43 44 45 0
-1275 1282 0
-1283 0
-1284 0
-1285 0
-1276 1286 0
-1282 1286 0
-1276 -1282 1287 0
-1283 1287 0
-1276 -1283 1288 0
-1284 1288 0
-1276 -1284 1289 0
-1285 1289 0
-1276 -1285 0
-1277 1290 0
-1286 1290 0
-1277 -1286 1291 0
-1287 1291 0
-1277 -1287 1292 0
-1288 1292 0
-1277 -1288 1293 0
-1289 1293 0
-1277 -1289 0
-1278 1294 0
-1290 1294 0
-1278 -1290 1295 0
-1291 1295 0
-1278 -1291 1296 0
-1292 1296 0
-1278 -1292 1297 0
-1293 1297 0
-1278 -1293 0
-1279 1298 0
-1294 1298 0
-1279 -1294 1299 0
-1295 1299 0
-1279 -1295 1300 0
-1296 1300 0
-1279 -1296 1301 0
-1297 1301 0
-1279 -1297 0
-1280 1302 0
-1298 1302 0
-1280 -1298 1303 0
-1299 1303 0
-1280 -1299 1304 0
-1300 1304 0
-1280 -1300 1305 0
-1301 1305 0
-1280 -1301 0
-1281 -1305 0
-1310 5 0
-5 1310 0
1310 1 2 3 4 6 7 0
-1311 12 0
-12 1311 0
1311 8 9 10 11 13 14 0
-1312 19 0
-19 1312 0
1312 15 16 17 18 20 21 0
-1313 26 0
-26 1313 0
1313 22 23 24 25 27 28 0
-1314 33 0
-33 1314 0
1314 29 30 31 32 34 35 0
-1315 40 0
-40 1315 0
1315 36 37 38 39 41 42 0
-1316 47 0
-47 1316 0
1316 43 44 45 46 48 49 0
-1310 1317 0
-1311 1318 0
-1317 1318 0
-1311 -1317 0
-1312 1319 0
-1318 1319 0
-1312 -1318 0
-1313 1320 0
-1319 1320 0
-1313 -1319 0
-1314 1321 0
-1320 1321 0
-1314 -1320 0
-1315 1322 0
-1321 1322 0
-1315 -1321 0
-1316 -1322 0
-1324 5 6 0
-5 1324 0
-6 1324 0
1324 1 2 3 4 7 0
-1325 12 13 0
-12 1325 0
-13 1325 0
1325 8 9 10 11 14 0
-1326 19 20 0
-19 1326 0
-20 1326 0
1326 15 16 17 18 21 0
-1327 26 27 0
-26 1327 0
-27 1327 0
1327 22 23 24 25 28 0
-1328 33 34 0
-33 1328 0
-34 1328 0
1328 29 30 31 32 35 0
-1329 40 41 0
-40 1329 0
-41 1329 0
1329 36 37 38 39 42 0
-1330 47 48 0
-47 1330 0
-48 1330 0
1330 43 44 45 46 49 0
-1324 1331 0
-1332 0
-1325 1333 0
-1331 1333 0
-1325 -1331 1334 0
-1332 1334 0
-1325 -1332 0
-1326 1335 0
-1333 1335 0
-1326 -1333 1336 0
-1334 1336 0
-1326 -1334 0
-1327 1337 0
-1335 1337 0
-1327 -1335 1338 0
-1336 1338 0
-1327 -1336 0
-1328 1339 0
-1337 1339 0
-1328 -1337 1340 0
-1338 1340 0
-1328 -1338 0
-1329 1341 0
-1339 1341 0
-1329 -1339 1342 0
-1340 1342 0
-1329 -1340 0
-1330 -1342 0
-1345 5 6 7 0
-5 1345 0
-6 1345 0
-7 1345 0
1345 1 2 3 4 0
-1346 12 13 14 0
-12 1346 0
-13 1346 0
-14 1346 0
1346 8 9 10 11 0
-1347 19 20 21 0
-19 1347 0
-20 1347 0
-21 1347 0
1347 15 16 17 18 0
-1348 26 27 28 0
-26 1348 0
-27 1348 0
-28 1348 0
1348 22 23 24 25 0
-1349 33 34 35 0
-33 1349 0
-34 1349 0
-35 1349 0
1349 29 30 31 32 0
-1350 40 41 42 0
-40 1350 0
-41 1350 0
-42 1350 0
1350 36 37 38 39 0
-1351 47 48 49 0
-47 1351 0
-48 1351 0
-49 1351 0
1351 43 44 45 46 0
-1345 1352 0
-1353 0
-1354 0
-1346 1355 0
-1352 1355 0
-1346 -1352 1356 0
-1353 1356 0
-1346 -1353 1357 0
-1354 1357 0
-1346 -1354 0
-1347 1358 0
-1355 1358 0
-1347 -1355 1359 0
-1356 1359 0
-1347 -1356 1360 0
-1357 1360 0
-1347 -1357 0
-1348 1361 0
-1358 1361 0
-1348 -1358 1362 0
-1359 1362 0
-1348 -1359 1363 0
-1360 1363 0
-1348 -1360 0
-1349 1364 0
-1361 1364 0
-1349 -1361 1365 0
-1362 1365 0
-1349 -1362 1366 0
-1363 1366 0
-1349 -1363 0
-1350 1367 0
-1364 1367 0
-1350 -1364 1368 0
-1365 1368 0
-1350 -1365 1369 0
-1366 1369 0
-1350 -1366 0
-1351 -1369 0
-1373 6 0
-6 1373 0
1373 1 2 3 4 5 7 0
-1374 13 0
-13 1374 0
1374 8 9 10 11 12 14 0
-1375 20 0
-20 1375 0
1375 15 16 17 18 19 21 0
-1376 27 0
-27 1376 0
1376 22 23 24 25 26 28 0
-1377 34 0
-34 1377 0
1377 29 30 31 32 33 35 0
-1378 41 0
-41 1378 0
1378 36 37 38 39 40 42 0
-1379 48 0
-48 1379 0
1379 43 44 45 46 47 49 0
-1373 1380 0
-1374 1381 0
-1380 1381 0
-1374 -1380 0
-1375 1382 0
-1381 1382 0
-1375 -1381 0
-1376 1383 0
-1382 1383 0
-1376 -1382 0
-1377 1384 0
-1383 1384 0
-1377 -1383 0
-1378 1385 0
-1384 1385 0
-1378 -1384 0
-1379 -1385 0
-1387 6 7 0
-6 1387 0
-7 1387 0
1387 1 2 3 4 5 0
-1388 13 14 0
-13 1388 0
-14 1388 0
1388 8 9 10 11 12 0
-1389 20 21 0
-20 1389 0
-21 1389 0
1389 15 16 17 18 19 0
-1390 27 28 0
-27 1390 0
-28 1390 0
1390 22 23 24 25 26 0
-1391 34 35 0
-34 1391 0
-35 1391 0
1391 29 30 31 32 33 0
-1392 41 42 0
-41 1392 0
-42 1392 0
1392 36 37 38 39 40 0
-1393 48 49 0
-48 1393 0
-49 1393 0
1393 43 44 45 46 47 0
-1387 1394 0
-1395 0
-1388 1396 0
-1394 1396 0
-1388 -1394 1397 0
-1395 1397 0
-1388 -1395 0
-1389 1398 0
-1396 1398 0
-1389 -1396 1399 0
-1397 1399 0
-1389 -1397 0
-1390 1400 0
-1398 1400 0
-1390 -1398 1401 0
-1399 1401 0
-1390 -1399 0
-1391 1402 0
-1400 1402 0
-1391 -1400 1403 0
-1401 1403 0
-1391 -1401 0
-1392 1404 0
-1402 1404 0
-1392 -1402 1405 0
-1403 1405 0
-1392 -1403 0
-1393 -1405 0
-1408 7 0
-7 1408 0
1408 1 2 3 4 5 6 0
-1409 14 0
-14 1409 0
1409 8 9 10 11 12 13 0
-1410 21 0
-21 1410 0
1410 15 16 17 18 19 20 0
-1411 28 0
-28 1411 0
1411 22 23 24 25 26 27 0
-1412 35 0
-35 1412 0
1412 29 30 31 32 33 34 0
-1413 42 0
-42 1413 0
1413 36 37 38 39 40 41 0
-1414 49 0
-49 1414 0
1414 43 44 45 46 47 48 0
-1408 1415 0
-1409 1416 0
-1415 1416 0
-1409 -1415 0
-1410 1417 0
-1416 1417 0
-1410 -1416 0
-1411 1418 0
-1417 1418 0
-1411 -1417 0
-1412 1419 0
-1418 1419 0
-1412 -1418 0
-1413 1420 0
-1419 1420 0
-1413 -1419 0
-1414 -1420 0
-1 1422 0
-8 1423 0
-1422 1423 0
-8 -1422 0
-15 1424 0
-1423 1424 0
-15 -1423 0
-22 1425 0
-1424 1425 0
-22 -1424 0
-29 1426 0
-1425 1426 0
-29 -1425 0
-36 1427 0
-1426 1427 0
-36 -1426 0
-43 -1427 0
1 8 15 22 29 36 43 0
-2 1429 0
-9 1430 0
-1429 1430 0
-9 -1429 0
-16 1431 0
-1430 1431 0
-16 -1430 0
-23 1432 0
-1431 1432 0
-23 -1431 0
-30 1433 0
-1432 1433 0
-30 -1432 0
-37 1434 0
-1433 1434 0
-37 -1433 0
-44 -1434 0
2 9 16 23 30 37 44 0
-3 1436 0
-10 1437 0
-1436 1437 0
-10 -1436 0
-17 1438 0
-1437 1438 0
-17 -1437 0
-24 1439 0
-1438 1439 0
-24 -1438 0
-31 1440 0
-1439 1440 0
-31 -1439 0
-38 1441 0
-1440 1441 0
-38 -1440 0
-45 -1441 0
3 10 17 24 31 38 45 0
-4 1443 0
-11 1444 0
-1443 1444 0
-11 -1443 0
-18 1445 0
-1444 1445 0
-18 -1444 0
-25 1446 0
-1445 1446 0
-25 -1445 0
-32 1447 0
-1446 1447 0
-32 -1446 0
-39 1448 0
-1447 1448 0
-39 -1447 0
-46 -1448 0
4 11 18 25 32 39 46 0
-5 1450 0
-12 1451 0
-1450 1451 0
-12 -1450 0
-19 1452 0
-1451 1452 0
-19 -1451 0
-26 1453 0
-1452 1453 0
-26 -1452 0
-33 1454 0
-1453 1454 0
-33 -1453 0
-40 1455 0
-1454 1455 0
-40 -1454 0
-47 -1455 0
5 12 19 26 33 40 47 0
-6 1457 0
-13 1458 0
-1457 1458 0
-13 -1457 0
-20 1459 0
-1458 1459 0
-20 -1458 0
-27 1460 0
-1459 1460 0
-27 -1459 0
-34 1461 0
-1460 1461 0
-34 -1460 0
-41 1462 0
-1461 1462 0
-41 -1461 0
-48 -1462 0
6 13 20 27 34 41 48 0
-7 1464 0
-14 1465 0
-1464 1465 0
-14 -1464 0
-21 1466 0
-1465 1466 0
-21 -1465 0
-28 1467 0
-1466 1467 0
-28 -1466 0
-35 1468 0
-1467 1468 0
-35 -1467 0
-42 1469 0
-1468 1469 0
-42 -1468 0
-49 -1469 0
7 14 21 28 35 42 49 0
-1471 50 0
-50 1471 0
1471 51 52 53 54 55 56 0
-1472 57 0
-57 1472 0
1472 58 59 60 61 62 63 0
-1473 64 0
-64 1473 0
1473 65 66 67 68 69 70 0
-1474 71 0
-71 1474 0
1474 72 73 74 75 76 77 0
-1475 78 0
-78 1475 0
1475 79 80 81 82 83 84 0
-1476 85 0
-85 1476 0
1476 86 87 88 89 90 91 0
-1477 92 0
-92 1477 0
1477 93 94 95 96 97 98 0
-1471 1478 0
-1472 1479 0
-1478 1479 0
-1472 -1478 0
-1473 1480 0
-1479 1480 0
-1473 -1479 0
-1474 1481 0
-1480 1481 0
-1474 -1480 0
-1475 1482 0
-1481 1482 0
-1475 -1481 0
-1476 1483 0
-1482 1483 0
-1476 -1482 0
-1477 -1483 0
-1485 50 51 0
-50 1485 0
-51 1485 0
1485 52 53 54 55 56 0
-1486 57 58 0
-57 1486 0
-58 1486 0
1486 59 60 61 62 63 0
-1487 64 65 0
-64 1487 0
-65 1487 0
1487 66 67 68 69 70 0
-1488 71 72 0
-71 1488 0
-72 1488 0
1488 73 74 75 76 77 0
-1489 78 79 0
-78 1489 0
-79 1489 0
1489 80 81 82 83 84 0
-1490 85 86 0
-85 1490 0
-86 1490 0
1490 87 88 89 90 91 0
-1491 92 93 0
-92 1491 0
-93 1491 0
1491 94 95 96 97 98 0
-1485 1492 0
-1493 0
-1486 1494 0
-1492 1494 0
-1486 -1492 1495 0
-1493 1495 0
-1486 -1493 0
-1487 1496 0
-1494 1496 0
-1487 -1494 1497 0
-1495 1497 0
-1487 -1495 0
-1488 1498 0
-1496 1498 0
-1488 -1496 1499 0
-1497 1499 0
-1488 -1497 0
-1489 1500 0
-1498 1500 0
-1489 -1498 1501 0
-1499 1501 0
-1489 -1499 0
-1490 1502 0
-1500 1502 0
-1490 -1500 1503 0
-1501 1503 0
-1490 -1501 0
-1491 -1503 0
-1506 50 51 52 0
-50 1506 0
-51 1506 0
-52 1506 0
1506 53 54 55 56 0
-1507 57 58 59 0
-57 1507 0
-58 1507 0
-59 1507 0
1507 60 61 62 63 0
-1508 64 65 66 0
-64 1508 0
-65 1508 0
-66 1508 0
1508 67 68 69 70 0
-1509 71 72 73 0
-71 1509 0
-72 1509 0
-73 1509 0
1509 74 75 76 77 0
-1510 78 79 80 0
-78 1510 0
-79 1510 0
-80 1510 0
1510 81 82 83 84 0
-1511 85 86 87 0
-85 1511 0
-86 1511 0
-87 1511 0
1511 88 89 90 91 0
-1512 92 93 94 0
-92 1512 0
-93 1512 0
-94 1512 0
1512 95 96 97 98 0
-1506 1513 0
-1514 0
-1515 0
-1507 1516 0
-1513 1516 0
-1507 -1513 1517 0
-1514 1517 0
-1507 -1514 1518 0
-1515 1518 0
-1507 -1515 0
-1508 1519 0
-1516 1519 0
-1508 -1516 1520 0
-1517 1520 0
-1508 -1517 1521 0
-1518 1521 0
-1508 -1518 0
-1509 1522 0
-1519 1522 0
-1509 -1519 1523 0
-1520 1523 0
-1509 -1520 1524 0
-1521 1524 0
-1509 -1521 0
-1510 1525 0
-1522 1525 0
-1510 -1522 1526 0
-1523 1526 0
-1510 -1523 1527 0
-1524 1527 0
-1510 -1524 0
-1511 1528 0
-1525 1528 0
-1511 -1525 1529 0
-1526 1529 0
-1511 -1526 1530 0
-1527 1530 0
-1511 -1527 0
-1512 -1530 0
-1534 50 51 52 53 0
-50 1534 0
-51 1534 0
-52 1534 0
-53 1534 0
1534 54 55 56 0
-1535 57 58 59 60 0
-57 1535 0
-58 1535 0
-59 1535 0
-60 1535 0
1535 61 62 63 0
-1536 64 65 66 67 0
-64 1536 0
-65 1536 0
-66 1536 0
-67 1536 0
1536 68 69 70 0
-1537 71 72 73 74 0
-71 1537 0
-72 1537 0
-73 1537 0
-74 1537 0
1537 75 76 77 0
-1538 78 79 80 81 0
-78 1538 0
-79 1538 0
-80 1538 0
-81 1538 0
1538 82 83 84 0
-1539 85 86 87 88 0
-85 1539 0
-86 1539 0
-87 1539 0
-88 1539 0
1539 89 90 91 0
-1540 92 93 94 95 0
-92 1540 0
-93 1540 0
-94 1540 0
-95 1540 0
1540 96 97 98 0
-1534 1541 0
-1542 0
-1543 0
-1544 0
-1535 1545 0
-1541 1545 0
-1535 -1541 1546 0
-1542 1546 0
-1535 -1542 1547 0
-1543 1547 0
-1535 -1543 1548 0
-1544 1548 0
-1535 -1544 0
-1536 1549 0
-1545 1549 0
-1536 -1545 1550 0
-1546 1550 0
-1536 -1546 1551 0
-1547 1551 0
-1536 -1547 1552 0
-1548 1552 0
-1536 -1548 0
-1537 1553 0
-1549 1553 0
-1537 -1549 1554 0
-1550 1554 0
-1537 -1550 1555 0
-1551 1555 0
-1537 -1551 1556 0
-1552 1556 0
-1537 -1552 0
-1538 1557 0
-1553 1557 0
-1538 -1553 1558 0
-1554 1558 0
-1538 -1554 1559 0
-1555 1559 0
-1538 -1555 1560 0
-1556 1560 0
-1538 -1556 0
-1539 1561 0
-1557 1561 0
-1539 -1557 1562 0
-1558 1562 0
-1539 -1558 1563 0
-1559 1563 0
-1539 -1559 1564 0
-1560 1564 0
-1539 -1560 0
-1540 -1564 0
-1569 50 51 52 53 54 0
-50 1569 0
-51 1569 0
-52 1569 0
-53 1569 0
-54 1569 0
1569 55 56 0
-1570 57 58 59 60 61 0
-57 1570 0
-58 1570 0
-59 1570 0
-60 1570 0
-61 1570 0
1570 62 63 0
-1571 64 65 66 67 68 0
-64 1571 0
-65 1571 0
-66 1571 0
-67 1571 0
-68 1571 0
1571 69 70 0
-1572 71 72 73 74 75 0
-71 1572 0
-72 1572 0
-73 1572 0
-74 1572 0
-75 1572 0
1572 76 77 0
-1573 78 79 80 81 82 0
-78 1573 0
-79 1573 0
-80 1573 0
-81 1573 0
-82 1573 0
1573 83 84 0
-1574 85 86 87 88 89 0
-85 1574 0
-86 1574 0
-87 1574 0
-88 1574 0
-89 1574 0
1574 90 91 0
-1575 92 93 94 95 96 0
-92 1575 0
-93 1575 0
-94 1575 0
-95 1575 0
-96 1575 0
1575 97 98 0
-1569 1576 0
-1577 0
-1578 0
-1579 0
-1580 0
-1570 1581 0
-1576 1581 0
-1570 -1576 1582 0
-1577 1582 0
-1570 -1577 1583 0
-1578 1583 0
-1570 -1578 1584 0
-1579 1584 0
-1570 -1579 1585 0
-1580 1585 0
-1570 -1580 0
-1571 1586 0
-1581 1586 0
-1571 -1581 1587 0
-1582 1587 0
-1571 -1582 1588 0
-1583 1588 0
-1571 -1583 1589 0
-1584 1589 0
-1571 -1584 1590 0
-1585 1590 0
-1571 -1585 0
-1572 1591 0
-1586 1591 0
-1572 -1586 1592 0
-1587 1592 0
-1572 -1587 1593 0
-1588 1593 0
-1572 -1588 1594 0
-1589 1594 0
-1572 -1589 1595 0
-1590 1595 0
-1572 -1590 0
-1573 1596 0
-1591 1596 0
-1573 -1591 1597 0
-1592 1597 0
-1573 -1592 1598 0
-1593 1598 0
-1573 -1593 1599 0
-1594 1599 0
-1573 -1594 1600 0
-1595 1600 0
-1573 -1595 0
-1574 1601 0
-1596 1601 0
-1574 -1596 1602 0
-1597 1602 0
-1574 -1597 1603 0
-1598 1603 0
-1574 -1598 1604 0
-1599 1604 0
-1574 -1599 1605 0
-1600 1605 0
-1574 -1600 0
-1575 -1605 0
-1611 50 51 52 53 54 55 0
-50 1611 0
-51 1611 0
-52 1611 0
-53 1611 0
-54 1611 0
-55 1611 0
1611 56 0
-1612 57 58 59 60 61 62 0
-57 1612 0
-58 1612 0
-59 1612 0
-60 1612 0
-61 1612 0
-62 1612 0
1612 63 0
-1613 64 65 66 67 68 69 0
-64 1613 0
-65 1613 0
-66 1613 0
-67 1613 0
-68 1613 0
-69 1613 0
1613 70 0
-1614 71 72 73 74 75 76 0
-71 1614 0
-72 1614 0
-73 1614 0
-74 1614 0
-75 1614 0
-76 1614 0
1614 77 0
-1615 78 79 80 81 82 83 0
-78 1615 0
-79 1615 0
-80 1615 0
-81 1615 0
-82 1615 0
-83 1615 0
1615 84 0
-1616 85 86 87 88 89 90 0
-85 1616 0
-86 1616 0
-87 1616 0
-88 1616 0
-89 1616 0
-90 1616 0
1616 91 0
-1617 92 93 94 95 96 97 0
-92 1617 0
-93 1617 0
-94 1617 0
-95 1617 0
-96 1617 0
-97 1617 0
1617 98 0
-1611 1618 0
-1619 0
-1620 0
-1621 0
-1622 0
-1623 0
-1612 1624 0
-1618 1624 0
-1612 -1618 1625 0
-1619 1625 0
-1612 -1619 1626 0
-1620 1626 0
-1612 -1620 1627 0
-1621 1627 0
-1612 -1621 1628 0
-1622 1628 0
-1612 -1622 1629 0
-1623 1629 0
-1612 -1623 0
-1613 1630 0
-1624 1630 0
-1613 -1624 1631 0
-1625 1631 0
-1613 -1625 1632 0
-1626 1632 0
-1613 -1626 1633 0
-1627 1633 0
-1613 -1627 1634 0
-1628 1634 0
-1613 -1628 1635 0
-1629 1635 0
-1613 -1629 0
-1614 1636 0
-1630 1636 0
-1614 -1630 1637 0
-1631 1637 0
-1614 -1631 1638 0
-1632 1638 0
-1614 -1632 1639 0
-1633 1639 0
-1614 -1633 1640 0
-1634 1640 0
-1614 -1634 1641 0
-1635 1641 0
-1614 -1635 0
-1615 1642 0
-1636 1642 0
-1615 -1636 1643 0
-1637 1643 0
-1615 -1637 1644 0
-1638 1644 0
-1615 -1638 1645 0
-1639 1645 0
-1615 -1639 1646 0
-1640 1646 0
-1615 -1640 1647 0
-1641 1647 0
-1615 -1641 0
-1616 1648 0
-1642 1648 0
-1616 -1642 1649 0
-1643 1649 0
-1616 -1643 1650 0
-1644 1650 0
-1616 -1644 1651 0
-1645 1651 0
-1616 -1645 1652 0
-1646 1652 0
-1616 -1646 1653 0
-1647 1653 0
-1616 -1647 0
-1617 -1653 0
-1660 50 51 52 53 54 55 56 0
-50 1660 0
-51 1660 0
-52 1660 0
-53 1660 0
-54 1660 0
-55 1660 0
-56 1660 0
1660 0
-1661 57 58 59 60 61 62 63 0
-57 1661 0
-58 1661 0
-59 1661 0
-60 1661 0
-61 1661 0
-62 1661 0
-63 1661 0
1661 0
-1662 64 65 66 67 68 69 70 0
-64 1662 0
-65 1662 0
-66 1662 0
-67 1662 0
-68 1662 0
-69 1662 0
-70 1662 0
1662 0
-1663 71 72 73 74 75 76 77 0
-71 1663 0
-72 1663 0
-73 1663 0
-74 1663 0
-75 1663 0
-76 1663 0
-77 1663 0
1663 0
-1664 78 79 80 81 82 83 84 0
-78 1664 0
-79 1664 0
-80 1664 0
-81 1664 0
-82 1664 0
-83 1664 0
-84 1664 0
1664 0
-1665 85 86 87 88 89 90 91 0
-85 1665 0
-86 1665 0
-87 1665 0
-88 1665 0
-89 1665 0
-90 1665 0
-91 1665 0
1665 0
-1666 92 93 94 95 96 97 98 0
-92 1666 0
-93 1666 0
-94 1666 0
-95 1666 0
-96 1666 0
-97 1666 0
-98 1666 0
1666 0
-1667 51 0
-51 1667 0
1667 50 52 53 54 55 56 0
-1668 58 0
-58 1668 0
1668 57 59 60 61 62 63 0
-1669 65 0
-65 1669 0
1669 64 66 67 68 69 70 0
-1670 72 0
-72 1670 0
1670 71 73 74 75 76 77 0
-1671 79 0
-79 1671 0
1671 78 80 81 82 83 84 0
-1672 86 0
-86 1672 0
1672 85 87 88 89 90 91 0
-1673 93 0
-93 1673 0
1673 92 94 95 96 97 98 0
-1667 1674 0
-1668 1675 0
-1674 1675 0
-1668 -1674 0
-1669 1676 0
-1675 1676 0
-1669 -1675 0
-1670 1677 0
-1676 1677 0
-1670 -1676 0
-1671 1678 0
-1677 1678 0
-1671 -1677 0
-1672 1679 0
-1678 1679 0
-1672 -1678 0
-1673 -1679 0
-1681 51 52 0
-51 1681 0
-52 1681 0
1681 50 53 54 55 56 0
-1682 58 59 0
-58 1682 0
-59 1682 0
1682 57 60 61 62 63 0
-1683 65 66 0
-65 1683 0
-66 1683 0
1683 64 67 68 69 70 0
-1684 72 73 0
-72 1684 0
-73 1684 0
1684 71 74 75 76 77 0
-1685 79 80 0
-79 1685 0
-80 1685 0
1685 78 81 82 83 84 0
-1686 86 87 0
-86 1686 0
-87 1686 0
1686 85 88 89 90 91 0
-1687 93 94 0
-93 1687 0
-94 1687 0
1687 92 95 96 97 98 0
-1681 1688 0
-1689 0
-1682 1690 0
-1688 1690 0
-1682 -1688 1691 0
-1689 1691 0
-1682 -1689 0
-1683 1692 0
-1690 1692 0
-1683 -1690 1693 0
-1691 1693 0
-1683 -1691 0
-1684 1694 0
-1692 1694 0
-1684 -1692 1695 0
-1693 1695 0
-1684 -1693 0
-1685 1696 0
-1694 1696 0
-1685 -1694 1697 0
-1695 1697 0
-1685 -1695 0
-1686 1698 0
-1696 1698 0
-1686 -1696 1699 0
-1697 1699 0
-1686 -1697 0
-1687 -1699 0
-1702 51 52 53 0
-51 1702 0
-52 1702 0
-53 1702 0
1702 50 54 55 56 0
-1703 58 59 60 0
-58 1703 0
-59 1703 0
-60 1703 0
1703 57 61 62 63 0
-1704 65 66 67 0
-65 1704 0
-66 1704 0
-67 1704 0
1704 64 68 69 70 0
-1705 72 73 74 0
-72 1705 0
-73 1705 0
-74 1705 0
1705 71 75 76 77 0
-1706 79 80 81 0
-79 1706 0
-80 1706 0
-81 1706 0
1706 78 82 83 84 0
-1707 86 87 88 0
-86 1707 0
-87 1707 0
-88 1707 0
1707 85 89 90 91 0
-1708 93 94 95 0
-93 1708 0
-94 1708 0
-95 1708 0
1708 92 96 97 98 0
-1702 1709 0
-1710 0
-1711 0
-1703 1712 0
-1709 1712 0
-1703 -1709 1713 0
-1710 1713 0
-1703 -1710 1714 0
-1711 1714 0
-1703 -1711 0
-1704 1715 0
-1712 1715 0
-1704 -1712 1716 0
-1713 1716 0
-1704 -1713 1717 0
-1714 1717 0
-1704 -1714 0
-1705 1718 0
-1715 1718 0
-1705 -1715 1719 0
-1716 1719 0
-1705 -1716 1720 0
-1717 1720 0
-1705 -1717 0
-1706 1721 0
-1718 1721 0
-1706 -1718 1722 0
-1719 1722 0
-1706 -1719 1723 0
-1720 1723 0
-1706 -1720 0
-1707 1724 0
-1721 1724 0
-1707 -1721 1725 0
-1722 1725 0
-1707 -1722 1726 0
-1723 1726 0
-1707 -1723 0
-1708 -1726 0
-1730 51 52 53 54 0
-51 1730 0
-52 1730 0
-53 1730 0
-54 1730 0
1730 50 55 56 0
-1731 58 59 60 61 0
-58 1731 0
-59 1731 0
-60 1731 0
-61 1731 0
1731 57 62 63 0
-1732 65 66 67 68 0
-65 1732 0
-66 1732 0
-67 1732 0
-68 1732 0
1732 64 69 70 0
-1733 72 73 74 75 0
-72 1733 0
-73 1733 0
-74 1733 0
-75 1733 0
1733 71 76 77 0
-1734 79 80 81 82 0
-79 1734 0
-80 1734 0
-81 1734 0
-82 1734 0
1734 78 83 84 0
-1735 86 87 88 89 0
-86 1735 0
-87 1735 0
-88 1735 0
-89 1735 0
1735 85 90 91 0
-1736 93 94 95 96 0
-93 1736 0
-94 1736 0
-95 1736 0
-96 1736 0
1736 92 97 98 0
-1730 1737 0
-1738 0
-1739 0
-1740 0
-1731 1741 0
-1737 1741 0
-1731 -1737 1742 0
-1738 1742 0
-1731 -1738 1743 0
-1739 1743 0
-1731 -1739 1744 0
-1740 1744 0
-1731 -1740 0
-1732 1745 0
-1741 1745 0
-1732 -1741 1746 0
-1742 1746 0
-1732 -1742 1747 0
-1743 1747 0
-1732 -1743 1748 0
-1744 1748 0
-1732 -1744 0
-1733 1749 0
-1745 1749 0
-1733 -1745 1750 0
-1746 1750 0
-1733 -1746 1751 0
-1747 1751 0
-1733 -1747 1752 0
-1748 1752 0
-1733 -1748 0
-1734 1753 0
-1749 1753 0
-1734 -1749 1754 0
-1750 1754 0
-1734 -1750 1755 0
-1751 1755 0
-1734 -1751 1756 0
-1752 1756 0
-1734 -1752 0
-1735 1757 0
-1753 1757 0
-1735 -1753 1758 0
-1754 1758 0
-1735 -1754 1759 0
-1755 1759 0
-1735 -1755 1760 0
-1756 1760 0
-1735 -1756 0
-1736 -1760 0
-1765 51 52 53 54 55 0
-51 1765 0
-52 1765 0
-53 1765 0
-54 1765 0
-55 1765 0
1765 50 56 0
-1766 58 59 60 61 62 0
-58 1766 0
-59 1766 0
-60 1766 0
-61 1766 0
-62 1766 0
1766 57 63 0
-1767 65 66 67 68 69 0
-65 1767 0
-66 1767 0
-67 1767 0
-68 1767 0
-69 1767 0
1767 64 70 0
-1768 72 73 74 75 76 0
-72 1768 0
-73 1768 0
-74 1768 0
-75 1768 0
-76 1768 0
1768 71 77 0
-1769 79 80 81 82 83 0
-79 1769 0
-80 1769 0
-81 1769 0
-82 1769 0
-83 1769 0
1769 78 84 0
-1770 86 87 88 89 90 0
-86 1770 0
-87 1770 0
-88 1770 0
-89 1770 0
-90 1770 0
1770 85 91 0
-1771 93 94 95 96 97 0
-93 1771 0
-94 1771 0
-95 1771 0
-96 1771 0
-97 1771 0
1771 92 98 0
-1765 1772 0
-1773 0
-1774 0
-1775 0
-1776 0
-1766 1777 0
-1772 1777 0
-1766 -1772 1778 0
-1773 1778 0
-1766 -1773 1779 0
-1774 1779 0
-1766 -1774 1780 0
-1775 1780 0
-1766 -1775 1781 0
-1776 1781 0
-1766 -1776 0
-1767 1782 0
-1777 1782 0
-1767 -1777 1783 0
-1778 1783 0
-1767 -1778 1784 0
-1779 1784 0
-1767 -1779 1785 0
-1780 1785 0
-1767 -1780 1786 0
-1781 1786 0
-1767 -1781 0
-1768 1787 0
-1782 1787 0
-1768 -1782 1788 0
-1783 1788 0
-1768 -1783 1789 0
-1784 1789 0
-1768 -1784 1790 0
-1785 1790 0
-1768 -1785 1791 0
-1786 1791 0
-1768 -1786 0
-1769 1792 0
-1787 1792 0
-1769 -1787 1793 0
-1788 1793 0
-1769 -1788 1794 0
-1789 1794 0
-1769 -1789 1795 0
-1790 1795 0
-1769 -1790 1796 0
-1791 1796 0
-1769 -1791 0
-1770 1797 0
-1792 1797 0
-1770 -1792 1798 0
-1793 1798 0
-1770 -1793 1799 0
-1794 1799 0
-1770 -1794 1800 0
-1795 1800 0
-1770 -1795 1801 0
-1796 1801 0
-1770 -1796 0
-1771 -1801 0
-1807 51 52 53 54 55 56 0
-51 1807 0
-52 1807 0
-53 1807 0
-54 1807 0
-55 1807 0
-56 1807 0
1807 50 0
-1808 58 59 60 61 62 63 0
-58 1808 0
-59 1808 0
-60 1808 0
-61 1808 0
-62 1808 0
-63 1808 0
1808 57 0
-1809 65 66 67 68 69 70 0
-65 1809 0
-66 1809 0
-67 1809 0
-68 1809 0
-69 1809 0
-70 1809 0
1809 64 0
-1810 72 73 74 75 76 77 0
-72 1810 0
-73 1810 0
-74 1810 0
-75 1810 0
-76 1810 0
-77 1810 0
1810 71 0
-1811 79 80 81 82 83 84 0
-79 1811 0
-80 1811 0
-81 1811 0
-82 1811 0
-83 1811 0
-84 1811 0
1811 78 0
-1812 86 87 88 89 90 91 0
-86 1812 0
-87 1812 0
-88 1812 0
-89 1812 0
-90 1812 0
-91 1812 0
1812 85 0
-1813 93 94 95 96 97 98 0
-93 1813 0
-94 1813 0
-95 1813 0
-96 1813 0
-97 1813 0
-98 1813 0
1813 92 0
-1807 1814 0
-1815 0
-1816 0
-1817 0
-1818 0
-1819 0
-1808 1820 0
-1814 1820 0
-1808 -1814 1821 0
-1815 1821 0
-1808 -1815 1822 0
-1816 1822 0
-1808 -1816 1823 0
-1817 1823 0
-1808 -1817 1824 0
-1818 1824 0
-1808 -1818 1825 0
-1819 1825 0
-1808 -1819 0
-1809 1826 0
-1820 1826 0
-1809 -1820 1827 0
-1821 1827 0
-1809 -1821 1828 0
-1822 1828 0
-1809 -1822 1829 0
-1823 1829 0
-1809 -1823 1830 0
-1824 1830 0
-1809 -1824 1831 0
-1825 1831 0
-1809 -1825 0
-1810 1832 0
-1826 1832 0
-1810 -1826 1833 0
-1827 1833 0
-1810 -1827 1834 0
-1828 1834 0
-1810 -1828 1835 0
-1829 1835 0
-1810 -1829 1836 0
-1830 1836 0
-1810 -1830 1837 0
-1831 1837 0
-1810 -1831 0
-1811 1838 0
-1832 1838 0
-1811 -1832 1839 0
-1833 1839 0
-1811 -1833 1840 0
-1834 1840 0
-1811 -1834 1841 0
-1835 1841 0
-1811 -1835 1842 0
-1836 1842 0
-1811 -1836 1843 0
-1837 1843 0
-1811 -1837 0
-1812 1844 0
-1838 1844 0
-1812 -1838 1845 0
-1839 1845 0
-1812 -1839 1846 0
-1840 1846 0
-1812 -1840 1847 0
-1841 1847 0
-1812 -1841 1848 0
-1842 1848 0
-1812 -1842 1849 0
-1843 1849 0
-1812 -1843 0
-1813 -1849 0
-1856 52 0
-52 1856 0
1856 50 51 53 54 55 56 0
-1857 59 0
-59 1857 0
1857 57 58 60 61 62 63 0
-1858 66 0
-66 1858 0
1858 64 65 67 68 69 70 0
-1859 73 0
-73 1859 0
1859 71 72 74 75 76 77 0
-1860 80 0
-80 1860 0
1860 78 79 81 82 83 84 0
-1861 87 0
-87 1861 0
1861 85 86 88 89 90 91 0
-1862 94 0
-94 1862 0
1862 92 93 95 96 97 98 0
-1856 1863 0
-1857 1864 0
-1863 1864 0
-1857 -1863 0
-1858 1865 0
-1864 1865 0
-1858 -1864 0
-1859 1866 0
-1865 1866 0
-1859 -1865 0
-1860 1867 0
-1866 1867 0
-1860 -1866 0
-1861 1868 0
-1867 1868 0
-1861 -1867 0
-1862 -1868 0
-1870 52 53 0
-52 1870 0
-53 1870 0
1870 50 51 54 55 56 0
-1871 59 60 0
-59 1871 0
-60 1871 0
1871 57 58 61 62 63 0
-1872 66 67 0
-66 1872 0
-67 1872 0
1872 64 65 68 69 70 0
-1873 73 74 0
-73 1873 0
-74 1873 0
1873 71 72 75 76 77 0
-1874 80 81 0
-80 1874 0
-81 1874 0
1874 78 79 82 83 84 0
-1875 87 88 0
-87 1875 0
-88 1875 0
1875 85 86 89 90 91 0
-1876 94 95 0
-94 1876 0
-95 1876 0
1876 92 93 96 97 98 0
-1870 1877 0
-1878 0
-1871 1879 0
-1877 1879 0
-1871 -1877 1880 0
-1878 1880 0
-1871 -1878 0
-1872 1881 0
-1879 1881 0
-1872 -1879 1882 0
-1880 1882 0
-1872 -1880 0
-1873 1883 0
-1881 1883 0
-1873 -1881 1884 0
-1882 1884 0
-1873 -1882 0
-1874 1885 0
-1883 1885 0
-1874 -1883 1886 0
-1884 1886 0
-1874 -1884 0
-1875 1887 0
-1885 1887 0
-1875 -1885 1888 0
-1886 1888 0
-1875 -1886 0
-1876 -1888 0
-1891 52 53 54 0
-52 1891 0
-53 1891 0
-54 1891 0
1891 50 51 55 56 0
-1892 59 60 61 0
-59 1892 0
-60 1892 0
-61 1892 0
1892 57 58 62 63 0
-1893 66 67 68 0
-66 1893 0
-67 1893 0
-68 1893 0
1893 64 65 69 70 0
-1894 73 74 75 0
-73 1894 0
-74 1894 0
-75 1894 0
1894 71 72 76 77 0
-1895 80 81 82 0
-80 1895 0
-81 1895 0
-82 1895 0
1895 78 79 83 84 0
-1896 87 88 89 0
-87 1896 0
-88 1896 0
-89 1896 0
1896 85 86 90 91 0
-1897 94 95 96 0
-94 1897 0
-95 1897 0
-96 1897 0
1897 92 93 97 98 0
-1891 1898 0
-1899 0
-1900 0
-1892 1901 0
-1898 1901 0
-1892 -1898 1902 0
-1899 1902 0
-1892 -1899 1903 0
-1900 1903 0
-1892 -1900 0
-1893 1904 0
-1901 1904 0
-1893 -1901 1905 0
-1902 1905 0
-1893 -1902 1906 0
-1903 1906 0
-1893 -1903 0
-1894 1907 0
-1904 1907 0
-1894 -1904 1908 0
-1905 1908 0
-1894 -1905 1909 0
-1906 1909 0
-1894 -1906 0
-1895 1910 0
-1907 1910 0
-1895 -1907 1911 0
-1908 1911 0
-1895 -1908 1912 0
-1909 1912 0
-1895 -1909 0
-1896 1913 0
-1910 1913 0
-1896 -1910 1914 0
-1911 1914 0
-1896 -1911 1915 0
-1912 1915 0
-1896 -1912 0
-1897 -1915 0
-1919 52 53 54 55 0
-52 1919 0
-53 1919 0
-54 1919 0
-55 1919 0
1919 50 51 56 0
-1920 59 60 61 62 0
-59 1920 0
-60 1920 0
-61 1920 0
-62 1920 0
1920 57 58 63 0
-1921 66 67 68 69 0
-66 1921 0
-67 1921 0
-68 1921 0
-69 1921 0
1921 64 65 70 0
-1922 73 74 75 76 0
-73 1922 0
-74 1922 0
-75 1922 0
-76 1922 0
1922 71 72 77 0
-1923 80 81 82 83 0
-80 1923 0
-81 1923 0
-82 1923 0
-83 1923 0
1923 78 79 84 0
-1924 87 88 89 90 0
-87 1924 0
-88 1924 0
-89 1924 0
-90 1924 0
1924 85 86 91 0
-1925 94 95 96 97 0
-94 1925 0
-95 1925 0
-96 1925 0
-97 1925 0
1925 92 93 98 0
-1919 1926 0
-1927 0
-1928 0
-1929 0
-1920 1930 0
-1926 1930 0
-1920 -1926 1931 0
-1927 1931 0
-1920 -1927 1932 0
-1928 1932 0
-1920 -1928 1933 0
-1929 1933 0
-1920 -1929 0
-1921 1934 0
-1930 1934 0
-1921 -1930 1935 0
-1931 1935 0
-1921 -1931 1936 0
-1932 1936 0
-1921 -1932 1937 0
-1933 1937 0
-1921 -1933 0
-1922 1938 0
-1934 1938 0
-1922 -1934 1939 0
-1935 1939 0
-1922 -1935 1940 0
-1936 1940 0
-1922 -1936 1941 0
-1937 1941 0
-1922 -1937 0
-1923 1942 0
-1938 1942 0
-1923 -1938 1943 0
-1939 1943 0
-1923 -1939 1944 0
-1940 1944 0
-1923 -1940 1945 0
-1941 1945 0
-1923 -1941 0
-1924 1946 0
-1942 1946 0
-1924 -1942 1947 0
-1943 1947 0
-1924 -1943 1948 0
-1944 1948 0
-1924 -1944 1949 0
-1945 1949 0
-1924 -1945 0
-1925 -1949 0
-1954 52 53 54 55 56 0
-52 1954 0
-53 1954 0
-54 1954 0
-55 1954 0
-56 1954 0
1954 50 51 0
-1955 59 60 61 62 63 0
-59 1955 0
-60 1955 0
-61 1955 0
-62 1955 0
-63 1955 0
1955 57 58 0
-1956 66 67 68 69 70 0
-66 1956 0
-67 1956 0
-68 1956 0
-69 1956 0
-70 1956 0
1956 64 65 0
-1957 73 74 75 76 77 0
-73 1957 0
-74 1957 0
-75 1957 0
-76 1957 0
-77 1957 0
1957 71 72 0
-1958 80 81 82 83 84 0
-80 1958 0
-81 1958 0
-82 1958 0
-83 1958 0
-84 1958 0
1958 78 79 0
-1959 87 88 89 90 91 0
-87 1959 0
-88 1959 0
-89 1959 0
-90 1959 0
-91 1959 0
1959 85 86 0
-1960 94 95 96 97 98 0
-94 1960 0
-95 1960 0
-96 1960 0
-97 1960 0
-98 1960 0
1960 92 93 0
-1954 1961 0
-1962 0
-1963 0
-1964 0
-1965 0
-1955 1966 0
-1961 1966 0
-1955 -1961 1967 0
-1962 1967 0
-1955 -1962 1968 0
-1963 1968 0
-1955 -1963 1969 0
-1964 1969 0
-1955 -1964 1970 0
-1965 1970 0
-1955 -1965 0
-1956 1971 0
-1966 1971 0
-1956 -1966 1972 0
-1967 1972 0
-1956 -1967 1973 0
-1968 1973 0
-1956 -1968 1974 0
-1969 1974 0
-1956 -1969 1975 0
-1970 1975 0
-1956 -1970 0
-1957 1976 0
-1971 1976 0
-1957 -1971 1977 0
-1972 1977 0
-1957 -1972 1978 0
-1973 1978 0
-1957 -1973 1979 0
-1974 1979 0
-1957 -1974 1980 0
-1975 1980 0
-1957 -1975 0
-1958 1981 0
-1976 1981 0
-1958 -1976 1982 0
-1977 1982 0
-1958 -1977 1983 0
-1978 1983 0
-1958 -1978 1984 0
-1979 1984 0
-1958 -1979 1985 0
-1980 1985 0
-1958 -1980 0
-1959 1986 0
-1981 1986 0
-1959 -1981 1987 0
-1982 1987 0
-1959 -1982 1988 0
-1983 1988 0
-1959 -1983 1989 0
-1984 1989 0
-1959 -1984 1990 0
-1985 1990 0
-1959 -1985 0
-1960 -1990 0
-1996 53 0
-53 1996 0
1996 50 51 52 54 55 56 0
-1997 60 0
-60 1997 0
1997 57 58 59 61 62 63 0
-1998 67 0
-67 1998 0
1998 64 65 66 68 69 70 0
-1999 74 0
-74 1999 0
1999 71 72 73 75 76 77 0
-2000 81 0
-81 2000 0
2000 78 79 80 82 83 84 0
-2001 88 0
-88 2001 0
2001 85 86 87 89 90 91 0
-2002 95 0
-95 2002 0
2002 92 93 94 96 97 98 0
-1996 2003 0
-1997 2004 0
-2003 2004 0
-1997 -2003 0
-1998 2005 0
-2004 2005 0
-1998 -2004 0
-1999 2006 0
-2005 2006 0
-1999 -2005 0
-2000 2007 0
-2006 2007 0
-2000 -2006 0
-2001 2008 0
-2007 2008 0
-2001 -2007 0
-2002 -2008 0
-2010 53 54 0
-53 2010 0
-54 2010 0
2010 50 51 52 55 56 0
-2011 60 61 0
-60 2011 0
-61 2011 0
2011 57 58 59 62 63 0
-2012 67 68 0
-67 2012 0
-68 2012 0
2012 64 65 66 69 70 0
-2013 74 75 0
-74 2013 0
-75 2013 0
2013 71 72 73 76 77 0
-2014 81 82 0
-81 2014 0
-82 2014 0
2014 78 79 80 83 84 0
-2015 88 89 0
-88 2015 0
-89 2015 0
2015 85 86 87 90 91 0
-2016 95 96 0
-95 2016 0
-96 2016 0
2016 92 93 94 97 98 0
-2010 2017 0
-2018 0
-2011 2019 0
-2017 2019 0
-2011 -2017 2020 0
-2018 2020 0
-2011 -2018 0
-2012 2021 0
-2019 2021 0
-2012 -2019 2022 0
-2020 2022 0
-2012 -2020 0
-2013 2023 0
-2021 2023 0
-2013 -2021 2024 0
-2022 2024 0
-2013 -2022 0
-2014 2025 0
-2023 2025 0
-2014 -2023 2026 0
-2024 2026 0
-2014 -2024 0
-2015 2027 0
-2025 2027 0
-2015 -2025 2028 0
-2026 2028 0
-2015 -2026 0
-2016 -2028 0
-2031 53 54 55 0
-53 2031 0
-54 2031 0
-55 2031 0
2031 50 51 52 56 0
-2032 60 61 62 0
-60 2032 0
-61 2032 0
-62 2032 0
2032 57 58 59 63 0
-2033 67 68 69 0
-67 2033 0
-68 2033 0
-69 2033 0
2033 64 65 66 70 0
-2034 74 75 76 0
-74 2034 0
-75 2034 0
-76 2034 0
2034 71 72 73 77 0
-2035 81 82 83 0
-81 2035 0
-82 2035 0
-83 2035 0
2035 78 79 80 84 0
-2036 88 89 90 0
-88 2036 0
-89 2036 0
-90 2036 0
2036 85 86 87 91 0
-2037 95 96 97 0
-95 2037 0
-96 2037 0
-97 2037 0
2037 92 93 94 98 0
-2031 2038 0
-2039 0
-2040 0
-2032 2041 0
-2038 2041 0
-2032 -2038 2042 0
-2039 2042 0
-2032 -2039 2043 0
-2040 2043 0
-2032 -2040 0
-2033 2044 0
-2041 2044 0
-2033 -2041 2045 0
-2042 2045 0
-2033 -2042 2046 0
-2043 2046 0
-2033 -2043 0
-2034 2047 0
-2044 2047 0
-2034 -2044 2048 0
-2045 2048 0
-2034 -2045 2049 0
-2046 2049 0
-2034 -2046 0
-2035 2050 0
-2047 2050 0
-2035 -2047 2051 0
-2048 2051 0
-2035 -2048 2052 0
-2049 2052 0
-2035 -2049 0
-2036 2053 0
-2050 2053 0
-2036 -2050 2054 0
-2051 2054 0
-2036 -2051 2055 0
-2052 2055 0
-2036 -2052 0
-2037 -2055 0
-2059 53 54 55 56 0
-53 2059 0
-54 2059 0
-55 2059 0
-56 2059 0
2059 50 51 52 0
-2060 60 61 62 63 0
-60 2060 0
-61 2060 0
-62 2060 0
-63 2060 0
2060 57 58 59 0
-2061 67 68 69 70 0
-67 2061 0
-68 2061 0
-69 2061 0
-70 2061 0
2061 64 65 66 0
-2062 74 75 76 77 0
-74 2062 0
-75 2062 0
-76 2062 0
-77 2062 0
2062 71 72 73 0
-2063 81 82 83 84 0
-81 2063 0
-82 2063 0
-83 2063 0
-84 2063 0
2063 78 79 80 0
-2064 88 89 90 91 0
-88 2064 0
-89 2064 0
-90 2064 0
-91 2064 0
2064 85 86 87 0
-2065 95 96 97 98 0
-95 2065 0
-96 2065 0
-97 2065 0
-98 2065 0
2065 92 93 94 0
-2059 2066 0
-2067 0
-2068 0
-2069 0
-2060 2070 0
-2066 2070 0
-2060 -2066 2071 0
-2067 2071 0
-2060 -2067 2072 0
-2068 2072 0
-2060 -2068 2073 0
-2069 2073 0
-2060 -2069 0
-2061 2074 0
-2070 2074 0
-2061 -2070 2075 0
-2071 2075 0
-2061 -2071 2076 0
-2072 2076 0
-2061 -2072 2077 0
-2073 2077 0
-2061 -2073 0
-2062 2078 0
-2074 2078 0
-2062 -2074 2079 0
-2075 2079 0
-2062 -2075 2080 0
-2076 2080 0
-2062 -2076 2081 0
-2077 2081 0
-2062 -2077 0
-2063 2082 0
-2078 2082 0
-2063 -2078 2083 0
-2079 2083 0
-2063 -2079 2084 0
-2080 2084 0
-2063 -2080 2085 0
-2081 2085 0
-2063 -2081 0
-2064 2086 0
-2082 2086 0
-2064 -2082 2087 0
-2083 2087 0
-2064 -2083 2088 0
-2084 2088 0
-2064 -2084 2089 0
-2085 2089 0
-2064 -2085 0
-2065 -2089 0
-2094 54 0
-54 2094 0
2094 50 51 52 53 55 56 0
-2095 61 0
-61 2095 0
2095 57 58 59 60 62 63 0
-2096 68 0
-68 2096 0
2096 64 65 66 67 69 70 0
-2097 75 0
-75 2097 0
2097 71 72 73 74 76 77 0
-2098 82 0
-82 2098 0
2098 78 79 80 81 83 84 0
-2099 89 0
-89 2099 0
2099 85 86 87 88 90 91 0
-2100 96 0
-96 2100 0
2100 92 93 94 95 97 98 0
-2094 2101 0
-2095 2102 0
-2101 2102 0
-2095 -2101 0
-2096 2103 0
-2102 2103 0
-2096 -2102 0
-2097 2104 0
-2103 2104 0
-2097 -2103 0
-2098 2105 0
-2104 2105 0
-2098 -2104 0
-2099 2106 0
-2105 2106 0
-2099 -2105 0
-2100 -2106 0
-2108 54 55 0
-54 2108 0
-55 2108 0
2108 50 51 52 53 56 0
-2109 61 62 0
-61 2109 0
-62 2109 0
2109 57 58 59 60 63 0
-2110 68 69 0
-68 2110 0
-69 2110 0
2110 64 65 66 67 70 0
-2111 75 76 0
-75 2111 0
-76 2111 0
2111 71 72 73 74 77 0
-2112 82 83 0
-82 2112 0
-83 2112 0
2112 78 79 80 81 84 0
-2113 89 90 0
-89 2113 0
-90 2113 0
2113 85 86 87 88 91 0
-2114 96 97 0
-96 2114 0
-97 2114 0
2114 92 93 94 95 98 0
-2108 2115 0
-2116 0
-2109 2117 0
-2115 2117 0
-2109 -2115 2118 0
-2116 2118 0
-2109 -2116 0
-2110 2119 0
-2117 2119 0
-2110 -2117 2120 0
-2118 2120 0
-2110 -2118 0
-2111 2121 0
-2119 2121 0
-2111 -2119 2122 0
-2120 2122 0
-2111 -2120 0
-2112 2123 0
-2121 2123 0
-2112 -2121 2124 0
-2122 2124 0
-2112 -2122 0
-2113 2125 0
-2123 2125 0
-2113 -2123 2126 0
-2124 2126 0
-2113 -2124 0
-2114 -2126 0
-2129 54 55 56 0
-54 2129 0
-55 2129 0
-56 2129 0
2129 50 51 52 53 0
-2130 61 62 63 0
-61 2130 0
-62 2130 0
-63 2130 0
2130 57 58 59 60 0
-2131 68 69 70 0
-68 2131 0
-69 2131 0
-70 2131 0
2131 64 65 66 67 0
-2132 75 76 77 0
-75 2132 0
-76 2132 0
-77 2132 0
2132 71 72 73 74 0
-2133 82 83 84 0
-82 2133 0
-83 2133 0
-84 2133 0
2133 78 79 80 81 0
-2134 89 90 91 0
-89 2134 0
-90 2134 0
-91 2134 0
2134 85 86 87 88 0
-2135 96 97 98 0
-96 2135 0
-97 2135 0
-98 2135 0
2135 92 93 94 95 0
-2129 2136 0
-2137 0
-2138 0
-2130 2139 0
-2136 2139 0
-2130 -2136 2140 0
-2137 2140 0
-2130 -2137 2141 0
-2138 2141 0
-2130 -2138 0
-2131 2142 0
-2139 2142 0
-2131 -2139 2143 0
-2140 2143 0
-2131 -2140 2144 0
-2141 2144 0
-2131 -2141 0
-2132 2145 0
-2142 2145 0
-2132 -2142 2146 0
-2143 2146 0
-2132 -2143 2147 0
-2144 2147 0
-2132 -2144 0
-2133 2148 0
-2145 2148 0
-2133 -2145 2149 0
-2146 2149 0
-2133 -2146 2150 0
-2147 2150 0
-2133 -2147 0
-2134 2151 0
-2148 2151 0
-2134 -2148 2152 0
-2149 2152 0
-2134 -2149 2153 0
-2150 2153 0
-2134 -2150 0
-2135 -2153 0
-2157 55 0
-55 2157 0
2157 50 51 52 53 54 56 0
-2158 62 0
-62 2158 0
2158 57 58 59 60 61 63 0
-2159 69 0
-69 2159 0
2159 64 65 66 67 68 70 0
-2160 76 0
-76 2160 0
2160 71 72 73 74 75 77 0
-2161 83 0
-83 2161 0
2161 78 79 80 81 82 84 0
-2162 90 0
-90 2162 0
2162 85 86 87 88 89 91 0
-2163 97 0
-97 2163 0
2163 92 93 94 95 96 98 0
-2157 2164 0
-2158 2165 0
-2164 2165 0
-2158 -2164 0
-2159 2166 0
-2165 2166 0
-2159 -2165 0
-2160 2167 0
-2166 2167 0
-2160 -2166 0
-2161 2168 0
-2167 2168 0
-2161 -2167 0
-2162 2169 0
-2168 2169 0
-2162 -2168 0
-2163 -2169 0
-2171 55 56 0
-55 2171 0
-56 2171 0
2171 50 51 52 53 54 0
-2172 62 63 0
-62 2172 0
-63 2172 0
2172 57 58 59 60 61 0
-2173 69 70 0
-69 2173 0
-70 2173 0
2173 64 65 66 67 68 0
-2174 76 77 0
-76 2174 0
-77 2174 0
2174 71 72 73 74 75 0
-2175 83 84 0
-83 2175 0
-84 2175 0
2175 78 79 80 81 82 0
-2176 90 91 0
-90 2176 0
-91 2176 0
2176 85 86 87 88 89 0
-2177 97 98 0
-97 2177 0
-98 2177 0
2177 92 93 94 95 96 0
-2171 2178 0
-2179 0
-2172 2180 0
-2178 2180 0
-2172 -2178 2181 0
-2179 2181 0
-2172 -2179 0
-2173 2182 0
-2180 2182 0
-2173 -2180 2183 0
-2181 2183 0
-2173 -2181 0
-2174 2184 0
-2182 2184 0
-2174 -2182 2185 0
-2183 2185 0
-2174 -2183 0
-2175 2186 0
-2184 2186 0
-2175 -2184 2187 0
-2185 2187 0
-2175 -2185 0
-2176 2188 0
-2186 2188 0
-2176 -2186 2189 0
-2187 2189 0
-2176 -2187 0
-2177 -2189 0
-2192 56 0
-56 2192 0
2192 50 51 52 53 54 55 0
-2193 63 0
-63 2193 0
2193 57 58 59 60 61 62 0
-2194 70 0
-70 2194 0
2194 64 65 66 67 68 69 0
-2195 77 0
-77 2195 0
2195 71 72 73 74 75 76 0
-2196 84 0
-84 2196 0
2196 78 79 80 81 82 83 0
-2197 91 0
-91 2197 0
2197 85 86 87 88 89 90 0
-2198 98 0
-98 2198 0
2198 92 93 94 95 96 97 0
-2192 2199 0
-2193 2200 0
-2199 2200 0
-2193 -2199 0
-2194 2201 0
-2200 2201 0
-2194 -2200 0
-2195 2202 0
-2201 2202 0
-2195 -2201 0
-2196 2203 0
-2202 2203 0
-2196 -2202 0
-2197 2204 0
-2203 2204 0
-2197 -2203 0
-2198 -2204 0
-50 2206 0
-57 2207 0
-2206 2207 0
-57 -2206 0
-64 2208 0
-2207 2208 0
-64 -2207 0
-71 2209 0
-2208 2209 0
-71 -2208 0
-78 2210 0
-2209 2210 0
-78 -2209 0
-85 2211 0
-2210 2211 0
-85 -2210 0
-92 -2211 0
50 57 64 71 78 85 92 0
-51 2213 0
-58 2214 0
-2213 2214 0
-58 -2213 0
-65 2215 0
-2214 2215 0
-65 -2214 0
-72 2216 0
-2215 2216 0
-72 -2215 0
-79 2217 0
-2216 2217 0
-79 -2216 0
-86 2218 0
-2217 2218 0
-86 -2217 0
-93 -2218 0
51 58 65 72 79 86 93 0
-52 2220 0
-59 2221 0
-2220 2221 0
-59 -2220 0
-66 2222 0
-2221 2222 0
-66 -2221 0
-73 2223 0
-2222 2223 0
-73 -2222 0
-80 2224 0
-2223 2224 0
-80 -2223 0
-87 2225 0
-2224 2225 0
-87 -2224 0
-94 -2225 0
52 59 66 73 80 87 94 0
-53 2227 0
-60 2228 0
-2227 2228 0
-60 -2227 0
-67 2229 0
-2228 2229 0
-67 -2228 0
-74 2230 0
-2229 2230 0
-74 -2229 0
-81 2231 0
-2230 2231 0
-81 -2230 0
-88 2232 0
-2231 2232 0
-88 -2231 0
-95 -2232 0
53 60 67 74 81 88 95 0
-54 2234 0
-61 2235 0
-2234 2235 0
-61 -2234 0
-68 2236 0
-2235 2236 0
-68 -2235 0
-75 2237 0
-2236 2237 0
-75 -2236 0
-82 2238 0
-2237 2238 0
-82 -2237 0
-89 2239 0
-2238 2239 0
-89 -2238 0
-96 -2239 0
54 61 68 75 82 89 96 0
-55 2241 0
-62 2242 0
-2241 2242 0
-62 -2241 0
-69 2243 0
-2242 2243 0
-69 -2242 0
-76 2244 0
-2243 2244 0
-76 -2243 0
-83 2245 0
-2244 2245 0
-83 -2244 0
-90 2246 0
-2245 2246 0
-90 -2245 0
-97 -2246 0
55 62 69 76 83 90 97 0
-56 2248 0
-63 2249 0
-2248 2249 0
-63 -2248 0
-70 2250 0
-2249 2250 0
-70 -2249 0
-77 2251 0
-2250 2251 0
-77 -2250 0
-84 2252 0
-2251 2252 0
-84 -2251 0
-91 2253 0
-2252 2253 0
-91 -2252 0
-98 -2253 0
56 63 70 77 84 91 98 0
-2255 99 0
-99 2255 0
2255 100 101 102 103 104 105 0
-2256 106 0
-106 2256 0
2256 107 108 109 110 111 112 0
-2257 113 0
-113 2257 0
2257 114 115 116 117 118 119 0
-2258 120 0
-120 2258 0
2258 121 122 123 124 125 126 0
-2259 127 0
-127 2259 0
2259 128 129 130 131 132 133 0
-2260 134 0
-134 2260 0
2260 135 136 137 138 139 140 0
-2261 141 0
-141 2261 0
2261 142 143 144 145 146 147 0
-2255 2262 0
-2256 2263 0
-2262 2263 0
-2256 -2262 0
-2257 2264 0
-2263 2264 0
-2257 -2263 0
-2258 2265 0
-2264 2265 0
-2258 -2264 0
-2259 2266 0
-2265 2266 0
-2259 -2265 0
-2260 2267 0
-2266 2267 0
-2260 -2266 0
-2261 -2267 0
-2269 99 100 0
-99 2269 0
-100 2269 0
2269 101 102 103 104 105 0
-2270 106 107 0
-106 2270 0
-107 2270 0
2270 108 109 110 111 112 0
-2271 113 114 0
-113 2271 0
-114 2271 0
2271 115 116 117 118 119 0
-2272 120 121 0
-120 2272 0
-121 2272 0
2272 122 123 124 125 126 0
-2273 127 128 0
-127 2273 0
-128 2273 0
2273 129 130 131 132 133 0
-2274 134 135 0
-134 2274 0
-135 2274 0
2274 136 137 138 139 140 0
-2275 141 142 0
-141 2275 0
-142 2275 0
2275 143 144 145 146 147 0
-2269 2276 0
-2277 0
-2270 2278 0
-2276 2278 0
-2270 -2276 2279 0
-2277 2279 0
-2270 -2277 0
-2271 2280 0
-2278 2280 0
-2271 -2278 2281 0
-2279 2281 0
-2271 -2279 0
-2272 2282 0
-2280 2282 0
-2272 -2280 2283 0
-2281 2283 0
-2272 -2281 0
-2273 2284 0
-2282 2284 0
-2273 -2282 2285 0
-2283 2285 0
-2273 -2283 0
-2274 2286 0
-2284 2286 0
-2274 -2284 2287 0
-2285 2287 0
-2274 -2285 0
-2275 -2287 0
-2290 99 100 101 0
-99 2290 0
-100 2290 0
-101 2290 0
2290 102 103 104 105 0
-2291 106 107 108 0
-106 2291 0
-107 2291 0
-108 2291 0
2291 109 110 111 112 0
-2292 113 114 115 0
-113 2292 0
-114 2292 0
-115 2292 0
2292 116 117 118 119 0
-2293 120 121 122 0
-120 2293 0
-121 2293 0
-122 2293 0
2293 123 124 125 126 0
-2294 127 128 129 0
-127 2294 0
-128 2294 0
-129 2294 0
2294 130 131 132 133 0
-2295 134 135 136 0
-134 2295 0
-135 2295 0
-136 2295 0
2295 137 138 139 140 0
-2296 141 142 143 0
-141 2296 0
-142 2296 0
-143 2296 0
2296 144 145 146 147 0
-2290 2297 0
-2298 0
-2299 0
-2291 2300 0
-2297 2300 0
-2291 -2297 2301 0
-2298 2301 0
-2291 -2298 2302 0
-2299 2302 0
-2291 -2299 0
-2292 2303 0
-2300 2303 0
-2292 -2300 2304 0
-2301 2304 0
-2292 -2301 2305 0
-2302 2305 0
-2292 -2302 0
-2293 2306 0
-2303 2306 0
-2293 -2303 2307 0
-2304 2307 0
-2293 -2304 2308 0
-2305 2308 0
-2293 -2305 0
-2294 2309 0
-2306 2309 0
-2294 -2306 2310 0
-2307 2310 0
-2294 -2307 2311 0
-2308 2311 0
-2294 -2308 0
-2295 2312 0
-2309 2312 0
-2295 -2309 2313 0
-2310 2313 0
-2295 -2310 2314 0
-2311 2314 0
-2295 -2311 0
-2296 -2314 0
-2318 99 100 101 102 0
-99 2318 0
-100 2318 0
-101 2318 0
-102 2318 0
2318 103 104 105 0
-2319 106 107 108 109 0
-106 2319 0
-107 2319 0
-108 2319 0
-109 2319 0
2319 110 111 112 0
-2320 113 114 115 116 0
-113 2320 0
-114 2320 0
-115 2320 0
-116 2320 0
2320 117 118 119 0
-2321 120 121 122 123 0
-120 2321 0
-121 2321 0
-122 2321 0
-123 2321 0
2321 124 125 126 0
-2322 127 128 129 130 0
-127 2322 0
-128 2322 0
-129 2322 0
-130 2322 0
2322 131 132 133 0
-2323 134 135 136 137 0
-134 2323 0
-135 2323 0
-136 2323 0
-137 2323 0
2323 138 139 140 0
-2324 141 142 143 144 0
-141 2324 0
-142 2324 0
-143 2324 0
-144 2324 0
2324 145 146 147 0
-2318 2325 0
-2326 0
-2327 0
-2328 0
-2319 2329 0
-2325 2329 0
-2319 -2325 2330 0
-2326 2330 0
-2319 -2326 2331 0
-2327 2331 0
-2319 -2327 2332 0
-2328 2332 0
-2319 -2328 0
-2320 2333 0
-2329 2333 0
-2320 -2329 2334 0
-2330 2334 0
-2320 -2330 2335 0
-2331 2335 0
-2320 -2331 2336 0
-2332 2336 0
-2320 -2332 0
-2321 2337 0
-2333 2337 0
-2321 -2333 2338 0
-2334 2338 0
-2321 -2334 2339 0
-2335 2339 0
-2321 -2335 2340 0
-2336 2340 0
-2321 -2336 0
-2322 2341 0
-2337 2341 0
-2322 -2337 2342 0
-2338 2342 0
-2322 -2338 2343 0
-2339 2343 0
-2322 -2339 2344 0
-2340 2344 0
-2322 -2340 0
-2323 2345 0
-2341 2345 0
-2323 -2341 2346 0
-2342 2346 0
-2323 -2342 2347 0
-2343 2347 0
-2323 -2343 2348 0
-2344 2348 0
-2323 -2344 0
-2324 -2348 0
-2353 99 100 101 102 103 0
-99 2353 0
-100 2353 0
-101 2353 0
-102 2353 0
-103 2353 0
2353 104 105 0
-2354 106 107 108 109 110 0
-106 2354 0
-107 2354 0
-108 2354 0
-109 2354 0
-110 2354 0
2354 111 112 0
-2355 113 114 115 116 117 0
-113 2355 0
-114 2355 0
-115 2355 0
-116 2355 0
-117 2355 0
2355 118 119 0
-2356 120 121 122 123 124 0
-120 2356 0
-121 2356 0
-122 2356 0
-123 2356 0
-124 2356 0
2356 125 126 0
-2357 127 128 129 130 131 0
-127 2357 0
-128 2357 0
-129 2357 0
-130 2357 0
-131 2357 0
2357 132 133 0
-2358 134 135 136 137 138 0
-134 2358 0
-135 2358 0
-136 2358 0
-137 2358 0
-138 2358 0
2358 139 140 0
-2359 141 142 143 144 145 0
-141 2359 0
-142 2359 0
-143 2359 0
-144 2359 0
-145 2359 0
2359 146 147 0
-2353 2360 0
-2361 0
-2362 0
-2363 0
-2364 0
-2354 2365 0
-2360 2365 0
-2354 -2360 2366 0
-2361 2366 0
-2354 -2361 2367 0
-2362 2367 0
-2354 -2362 2368 0
-2363 2368 0
-2354 -2363 2369 0
-2364 2369 0
-2354 -2364 0
-2355 2370 0
-2365 2370 0
-2355 -2365 2371 0
-2366 2371 0
-2355 -2366 2372 0
-2367 2372 0
-2355 -2367 2373 0
-2368 2373 0
-2355 -2368 2374 0
-2369 2374 0
-2355 -2369 0
-2356 2375 0
-2370 2375 0
-2356 -2370 2376 0
-2371 2376 0
-2356 -2371 2377 0
-2372 2377 0
-2356 -2372 2378 0
-2373 2378 0
-2356 -2373 2379 0
-2374 2379 0
-2356 -2374 0
-2357 2380 0
-2375 2380 0
-2357 -2375 2381 0
-2376 2381 0
-2357 -2376 2382 0
-2377 2382 0
-2357 -2377 2383 0
-2378 2383 0
-2357 -2378 2384 0
-2379 2384 0
-2357 -2379 0
-2358 2385 0
-2380 2385 0
-2358 -2380 2386 0
-2381 2386 0
-2358 -2381 2387 0
-2382 2387 0
-2358 -2382 2388 0
-2383 2388 0
-2358 -2383 2389 0
-2384 2389 0
-2358 -2384 0
-2359 -2389 0
-2395 99 100 101 102 103 104 0
-99 2395 0
-100 2395 0
-101 2395 0
-102 2395 0
-103 2395 0
-104 2395 0
2395 105 0
-2396 106 107 108 109 110 111 0
-106 2396 0
-107 2396 0
-108 2396 0
-109 2396 0
-110 2396 0
-111 2396 0
2396 112 0
-2397 113 114 115 116 117 118 0
-113 2397 0
-114 2397 0
-115 2397 0
-116 2397 0
-117 2397 0
-118 2397 0
2397 119 0
-2398 120 121 122 123 124 125 0
-120 2398 0
-121 2398 0
-122 2398 0
-123 2398 0
-124 2398 0
-125 2398 0
2398 126 0
-2399 127 128 129 130 131 132 0
-127 2399 0
-128 2399 0
-129 2399 0
-130 2399 0
-131 2399 0
-132 2399 0
2399 133 0
-2400 134 135 136 137 138 139 0
-134 2400 0
-135 2400 0
-136 2400 0
-137 2400 0
-138 2400 0
-139 2400 0
2400 140 0
-2401 141 142 143 144 145 146 0
-141 2401 0
-142 2401 0
-143 2401 0
-144 2401 0
-145 2401 0
-146 2401 0
2401 147 0
-2395 2402 0
-2403 0
-2404 0
-2405 0
-2406 0
-2407 0
-2396 2408 0
-2402 2408 0
-2396 -2402 2409 0
-2403 2409 0
-2396 -2403 2410 0
-2404 2410 0
-2396 -2404 2411 0
-2405 2411 0
-2396 -2405 2412 0
-2406 2412 0
-2396 -2406 2413 0
-2407 2413 0
-2396 -2407 0
-2397 2414 0
-2408 2414 0
-2397 -2408 2415 0
-2409 2415 0
-2397 -2409 2416 0
-2410 2416 0
-2397 -2410 2417 0
-2411 2417 0
-2397 -2411 2418 0
-2412 2418 0
-2397 -2412 2419 0
-2413 2419 0
-2397 -2413 0
-2398 2420 0
-2414 2420 0
-2398 -2414 2421 0
-2415 2421 0
-2398 -2415 2422 0
-2416 2422 0
-2398 -2416 2423 0
-2417 2423 0
-2398 -2417 2424 0
-2418 2424 0
-2398 -2418 2425 0
-2419 2425 0
-2398 -2419 0
-2399 2426 0
-2420 2426 0
-2399 -2420 2427 0
-2421 2427 0
-2399 -2421 2428 0
-2422 2428 0
-2399 -2422 2429 0
-2423 2429 0
-2399 -2423 2430 0
-2424 2430 0
-2399 -2424 2431 0
-2425 2431 0
-2399 -2425 0
-2400 2432 0
-2426 2432 0
-2400 -2426 2433 0
-2427 2433 0
-2400 -2427 2434 0
-2428 2434 0
-2400 -2428 2435 0
-2429 2435 0
-2400 -2429 2436 0
-2430 2436 0
-2400 -2430 2437 0
-2431 2437 0
-2400 -2431 0
-2401 -2437 0
-2444 99 100 101 102 103 104 105 0
-99 2444 0
-100 2444 0
-101 2444 0
-102 2444 0
-103 2444 0
-104 2444 0
-105 2444 0
2444 0
-2445 106 107 108 109 110 111 112 0
-106 2445 0
-107 2445 0
-108 2445 0
-109 2445 0
-110 2445 0
-111 2445 0
-112 2445 0
2445 0
-2446 113 114 115 116 117 118 119 0
-113 2446 0
-114 2446 0
-115 2446 0
-116 2446 0
-117 2446 0
-118 2446 0
-119 2446 0
2446 0
-2447 120 121 122 123 124 125 126 0
-120 2447 0
-121 2447 0
-122 2447 0
-123 2447 0
-124 2447 0
-125 2447 0
-126 2447 0
2447 0
-2448 127 128 129 130 131 132 133 0
-127 2448 0
-128 2448 0
-129 2448 0
-130 2448 0
-131 2448 0
-132 2448 0
-133 2448 0
2448 0
-2449 134 135 136 137 138 139 140 0
-134 2449 0
-135 2449 0
-136 2449 0
-137 2449 0
-138 2449 0
-139 2449 0
-140 2449 0
2449 0
-2450 141 142 143 144 145 146 147 0
-141 2450 0
-142 2450 0
-143 2450 0
-144 2450 0
-145 2450 0
-146 2450 0
-147 2450 0
2450 0
-2451 100 0
-100 2451 0
2451 99 101 102 103 104 105 0
-2452 107 0
-107 2452 0
2452 106 108 109 110 111 112 0
-2453 114 0
-114 2453 0
2453 113 115 116 117 118 119 0
-2454 121 0
-121 2454 0
2454 120 122 123 124 125 126 0
-2455 128 0
-128 2455 0
2455 127 129 130 131 132 133 0
-2456 135 0
-135 2456 0
2456 134 136 137 138 139 140 0
-2457 142 0
-142 2457 0
2457 141 143 144 145 146 147 0
-2451 2458 0
-2452 2459 0
-2458 2459 0
-2452 -2458 0
-2453 2460 0
-2459 2460 0
-2453 -2459 0
-2454 2461 0
-2460 2461 0
-2454 -2460 0
-2455 2462 0
-2461 2462 0
-2455 -2461 0
-2456 2463 0
-2462 2463 0
-2456 -2462 0
-2457 -2463 0
-2465 100 101 0
-100 2465 0
-101 2465 0
2465 99 102 103 104 105 0
-2466 107 108 0
-107 2466 0
-108 2466 0
2466 106 109 110 111 112 0
-2467 114 115 0
-114 2467 0
-115 2467 0
2467 113 116 117 118 119 0
-2468 121 122 0
-121 2468 0
-122 2468 0
2468 120 123 124 125 126 0
-2469 128 129 0
-128 2469 0
-129 2469 0
2469 127 130 131 132 133 0
-2470 135 136 0
-135 2470 0
-136 2470 0
2470 134 137 138 139 140 0
-2471 142 143 0
-142 2471 0
-143 2471 0
2471 141 144 145 146 147 0
-2465 2472 0
-2473 0
-2466 2474 0
-2472 2474 0
-2466 -2472 2475 0
-2473 2475 0
-2466 -2473 0
-2467 2476 0
-2474 2476 0
-2467 -2474 2477 0
-2475 2477 0
-2467 -2475 0
-2468 2478 0
-2476 2478 0
-2468 -2476 2479 0
-2477 2479 0
-2468 -2477 0
-2469 2480 0
-2478 2480 0
-2469 -2478 2481 0
-2479 2481 0
-2469 -2479 0
-2470 2482 0
-2480 2482 0
-2470 -2480 2483 0
-2481 2483 0
-2470 -2481 0
-2471 -2483 0
-2486 100 101 102 0
-100 2486 0
-101 2486 0
-102 2486 0
2486 99 103 104 105 0
-2487 107 108 109 0
-107 2487 0
-108 2487 0
-109 2487 0
2487 106 110 111 112 0
-2488 114 115 116 0
-114 2488 0
-115 2488 0
-116 2488 0
2488 113 117 118 119 0
-2489 121 122 123 0
-121 2489 0
-122 2489 0
-123 2489 0
2489 120 124 125 126 0
-2490 128 129 130 0
-128 2490 0
-129 2490 0
-130 2490 0
2490 127 131 132 133 0
-2491 135 136 137 0
-135 2491 0
-136 2491 0
-137 2491 0
2491 134 138 139 140 0
-2492 142 143 144 0
-142 2492 0
-143 2492 0
-144 2492 0
2492 141 145 146 147 0
-2486 2493 0
-2494 0
-2495 0
-2487 2496 0
-2493 2496 0
-2487 -2493 2497 0
-2494 2497 0
-2487 -2494 2498 0
-2495 2498 0
-2487 -2495 0
-2488 2499 0
-2496 2499 0
-2488 -2496 2500 0
-2497 2500 0
-2488 -2497 2501 0
-2498 2501 0
-2488 -2498 0
-2489 2502 0
-2499 2502 0
-2489 -2499 2503 0
-2500 2503 0
-2489 -2500 2504 0
-2501 2504 0
-2489 -2501 0
-2490 2505 0
-2502 2505 0
-2490 -2502 2506 0
-2503 2506 0
-2490 -2503 2507 0
-2504 2507 0
-2490 -2504 0
-2491 2508 0
-2505 2508 0
-2491 -2505 2509 0
-2506 2509 0
-2491 -2506 2510 0
-2507 2510 0
-2491 -2507 0
-2492 -2510 0
-2514 100 101 102 103 0
-100 2514 0
-101 2514 0
-102 2514 0
-103 2514 0
2514 99 104 105 0
-2515 107 108 109 110 0
-107 2515 0
-108 2515 0
-109 2515 0
-110 2515 0
2515 106 111 112 0
-2516 114 115 116 117 0
-114 2516 0
-115 2516 0
-116 2516 0
-117 2516 0
2516 113 118 119 0
-2517 121 122 123 124 0
-121 2517 0
-122 2517 0
-123 2517 0
-124 2517 0
2517 120 125 126 0
-2518 128 129 130 131 0
-128 2518 0
-129 2518 0
-130 2518 0
-131 2518 0
2518 127 132 133 0
-2519 135 136 137 138 0
-135 2519 0
-136 2519 0
-137 2519 0
-138 2519 0
2519 134 139 140 0
-2520 142 143 144 145 0
-142 2520 0
-143 2520 0
-144 2520 0
-145 2520 0
2520 141 146 147 0
-2514 2521 0
-2522 0
-2523 0
-2524 0
-2515 2525 0
-2521 2525 0
-2515 -2521 2526 0
-2522 2526 0
-2515 -2522 2527 0
-2523 2527 0
-2515 -2523 2528 0
-2524 2528 0
-2515 -2524 0
-2516 2529 0
-2525 2529 0
-2516 -2525 2530 0
-2526 2530 0
-2516 -2526 2531 0
-2527 2531 0
-2516 -2527 2532 0
-2528 2532 0
-2516 -2528 0
-2517 2533 0
-2529 2533 0
-2517 -2529 2534 0
-2530 2534 0
-2517 -2530 2535 0
-2531 2535 0
-2517 -2531 2536 0
-2532 2536 0
-2517 -2532 0
-2518 2537 0
-2533 2537 0
-2518 -2533 2538 0
-2534 2538 0
-2518 -2534 2539 0
-2535 2539 0
-2518 -2535 2540 0
-2536 2540 0
-2518 -2536 0
-2519 2541 0
-2537 2541 0
-2519 -2537 2542 0
-2538 2542 0
-2519 -2538 2543 0
-2539 2543 0
-2519 -2539 2544 0
-2540 2544 0
-2519 -2540 0
-2520 -2544 0
-2549 100 101 102 103 104 0
-100 2549 0
-101 2549 0
-102 2549 0
-103 2549 0
-104 2549 0
2549 99 105 0
-2550 107 108 109 110 111 0
-107 2550 0
-108 2550 0
-109 2550 0
-110 2550 0
-111 2550 0
2550 106 112 0
-2551 114 115 116 117 118 0
-114 2551 0
-115 2551 0
-116 2551 0
-117 2551 0
-118 2551 0
2551 113 119 0
-2552 121 122 123 124 125 0
-121 2552 0
-122 2552 0
-123 2552 0
-124 2552 0
-125 2552 0
2552 120 126 0
-2553 128 129 130 131 132 0
-128 2553 0
-129 2553 0
-130 2553 0
-131 2553 0
-132 2553 0
2553 127 133 0
-2554 135 136 137 138 139 0
-135 2554 0
-136 2554 0
-137 2554 0
-138 2554 0
-139 2554 0
2554 134 140 0
-2555 142 143 144 145 146 0
-142 2555 0
-143 2555 0
-144 2555 0
-145 2555 0
-146 2555 0
2555 141 147 0
-2549 2556 0
-2557 0
-2558 0
-2559 0
-2560 0
-2550 2561 0
-2556 2561 0
-2550 -2556 2562 0
-2557 2562 0
-2550 -2557 2563 0
-2558 2563 0
-2550 -2558 2564 0
-2559 2564 0
-2550 -2559 2565 0
-2560 2565 0
-2550 -2560 0
-2551 2566 0
-2561 2566 0
-2551 -2561 2567 0
-2562 2567 0
-2551 -2562 2568 0
-2563 2568 0
-2551 -2563 2569 0
-2564 2569 0
-2551 -2564 2570 0
-2565 2570 0
-2551 -2565 0
-2552 2571 0
-2566 2571 0
-2552 -2566 2572 0
-2567 2572 0
-2552 -2567 2573 0
-2568 2573 0
-2552 -2568 2574 0
-2569 2574 0
-2552 -2569 2575 0
-2570 2575 0
-2552 -2570 0
-2553 2576 0
-2571 2576 0
-2553 -2571 2577 0
-2572 2577 0
-2553 -2572 2578 0
-2573 2578 0
-2553 -2573 2579 0
-2574 2579 0
-2553 -2574 2580 0
-2575 2580 0
-2553 -2575 0
-2554 2581 0
-2576 2581 0
-2554 -2576 2582 0
-2577 2582 0
-2554 -2577 2583 0
-2578 2583 0
-2554 -2578 2584 0
-2579 2584 0
-2554 -2579 2585 0
-2580 2585 0
-2554 -2580 0
-2555 -2585 0
-2591 100 101 102 103 104 105 0
-100 2591 0
-101 2591 0
-102 2591 0
-103 2591 0
-104 2591 0
-105 2591 0
2591 99 0
-2592 107 108 109 110 111 112 0
-107 2592 0
-108 2592 0
-109 2592 0
-110 2592 0
-111 2592 0
-112 2592 0
2592 106 0
-2593 114 115 116 117 118 119 0
-114 2593 0
-115 2593 0
-116 2593 0
-117 2593 0
-118 2593 0
-119 2593 0
2593 113 0
-2594 121 122 123 124 125 126 0
-121 2594 0
-122 2594 0
-123 2594 0
-124 2594 0
-125 2594 0
-126 2594 0
2594 120 0
-2595 128 129 130 131 132 133 0
-128 2595 0
-129 2595 0
-130 2595 0
-131 2595 0
-132 2595 0
-133 2595 0
2595 127 0
-2596 135 136 137 138 139 140 0
-135 2596 0
-136 2596 0
-137 2596 0
-138 2596 0
-139 2596 0
-140 2596 0
2596 134 0
-2597 142 143 144 145 146 147 0
-142 2597 0
-143 2597 0
-144 2597 0
-145 2597 0
-146 2597 0
-147 2597 0
2597 141 0
-2591 2598 0
-2599 0
-2600 0
-2601 0
-2602 0
-2603 0
-2592 2604 0
-2598 2604 0
-2592 -2598 2605 0
-2599 2605 0
-2592 -2599 2606 0
-2600 2606 0
-2592 -2600 2607 0
-2601 2607 0
-2592 -2601 2608 0
-2602 2608 0
-2592 -2602 2609 0
-2603 2609 0
-2592 -2603 0
-2593 2610 0
-2604 2610 0
-2593 -2604 2611 0
-2605 2611 0
-2593 -2605 2612 0
-2606 2612 0
-2593 -2606 2613 0
-2607 2613 0
-2593 -2607 2614 0
-2608 2614 0
-2593 -2608 2615 0
-2609 2615 0
-2593 -2609 0
-2594 2616 0
-2610 2616 0
-2594 -2610 2617 0
-2611 2617 0
-2594 -2611 2618 0
-2612 2618 0
-2594 -2612 2619 0
-2613 2619 0
-2594 -2613 2620 0
-2614 2620 0
-2594 -2614 2621 0
-2615 2621 0
-2594 -2615 0
-2595 2622 0
-2616 2622 0
-2595 -2616 2623 0
-2617 2623 0
-2595 -2617 2624 0
-2618 2624 0
-2595 -2618 2625 0
-2619 2625 0
-2595 -2619 2626 0
-2620 2626 0
-2595 -2620 2627 0
-2621 2627 0
-2595 -2621 0
-2596 2628 0
-2622 2628 0
-2596 -2622 2629 0
-2623 2629 0
-2596 -2623 2630 0
-2624 2630 0
-2596 -2624 2631 0
-2625 2631 0
-2596 -2625 2632 0
-2626 2632 0
-2596 -2626 2633 0
-2627 2633 0
-2596 -2627 0
-2597 -2633 0
-2640 101 0
-101 2640 0
2640 99 100 102 103 104 105 0
-2641 108 0
-108 2641 0
2641 106 107 109 110 111 112 0
-2642 115 0
-115 2642 0
2642 113 114 116 117 118 119 0
-2643 122 0
-122 2643 0
2643 120 121 123 124 125 126 0
-2644 129 0
-129 2644 0
2644 127 128 130 131 132 133 0
-2645 136 0
-136 2645 0
2645 134 135 137 138 139 140 0
-2646 143 0
-143 2646 0
2646 141 142 144 145 146 147 0
-2640 2647 0
-2641 2648 0
-2647 2648 0
-2641 -2647 0
-2642 2649 0
-2648 2649 0
-2642 -2648 0
-2643 2650 0
-2649 2650 0
-2643 -2649 0
-2644 2651 0
-2650 2651 0
-2644 -2650 0
-2645 2652 0
-2651 2652 0
-2645 -2651 0
-2646 -2652 0
-2654 101 102 0
-101 2654 0
-102 2654 0
2654 99 100 103 104 105 0
-2655 108 109 0
-108 2655 0
-109 2655 0
2655 106 107 110 111 112 0
-2656 115 116 0
-115 2656 0
-116 2656 0
2656 113 114 117 118 119 0
-2657 122 123 0
-122 2657 0
-123 2657 0
2657 120 121 124 125 126 0
-2658 129 130 0
-129 2658 0
-130 2658 0
2658 127 128 131 132 133 0
-2659 136 137 0
-136 2659 0
-137 2659 0
2659 134 135 138 139 140 0
-2660 143 144 0
-143 2660 0
-144 2660 0
2660 141 142 145 146 147 0
-2654 2661 0
-2662 0
-2655 2663 0
-2661 2663 0
-2655 -2661 2664 0
-2662 2664 0
-2655 -2662 0
-2656 2665 0
-2663 2665 0
-2656 -2663 2666 0
-2664 2666 0
-2656 -2664 0
-2657 2667 0
-2665 2667 0
-2657 -2665 2668 0
-2666 2668 0
-2657 -2666 0
-2658 2669 0
-2667 2669 0
-2658 -2667 2670 0
-2668 2670 0
-2658 -2668 0
-2659 2671 0
-2669 2671 0
-2659 -2669 2672 0
-2670 2672 0
-2659 -2670 0
-2660 -2672 0
-2675 101 102 103 0
-101 2675 0
-102 2675 0
-103 2675 0
2675 99 100 104 105 0
-2676 108 109 110 0
-108 2676 0
-109 2676 0
-110 2676 0
2676 106 107 111 112 0
-2677 115 116 117 0
-115 2677 0
-116 2677 0
-117 2677 0
2677 113 114 118 119 0
-2678 122 123 124 0
-122 2678 0
-123 2678 0
-124 2678 0
2678 120 121 125 126 0
-2679 129 130 131 0
-129 2679 0
-130 2679 0
-131 2679 0
2679 127 128 132 133 0
-2680 136 137 138 0
-136 2680 0
-137 2680 0
-138 2680 0
2680 134 135 139 140 0
-2681 143 144 145 0
-143 2681 0
-144 2681 0
-145 2681 0
2681 141 142 146 147 0
-2675 2682 0
-2683 0
-2684 0
-2676 2685 0
-2682 2685 0
-2676 -2682 2686 0
-2683 2686 0
-2676 -2683 2687 0
-2684 2687 0
-2676 -2684 0
-2677 2688 0
-2685 2688 0
-2677 -2685 2689 0
-2686 2689 0
-2677 -2686 2690 0
-2687 2690 0
-2677 -2687 0
-2678 2691 0
-2688 2691 0
-2678 -2688 2692 0
-2689 2692 0
-2678 -2689 2693 0
-2690 2693 0
-2678 -2690 0
-2679 2694 0
-2691 2694 0
-2679 -2691 2695 0
-2692 2695 0
-2679 -2692 2696 0
-2693 2696 0
-2679 -2693 0
-2680 2697 0
-2694 2697 0
-2680 -2694 2698 0
-2695 2698 0
-2680 -2695 2699 0
-2696 2699 0
-2680 -2696 0
-2681 -2699 0
-2703 101 102 103 104 0
-101 2703 0
-102 2703 0
-103 2703 0
-104 2703 0
2703 99 100 105 0
-2704 108 109 110 111 0
-108 2704 0
-109 2704 0
-110 2704 0
-111 2704 0
2704 106 107 112 0
-2705 115 116 117 118 0
-115 2705 0
-116 2705 0
-117 2705 0
-118 2705 0
2705 113 114 119 0
-2706 122 123 124 125 0
-122 2706 0
-123 2706 0
-124 2706 0
-125 2706 0
2706 120 121 126 0
-2707 129 130 131 132 0
-129 2707 0
-130 2707 0
-131 2707 0
-132 2707 0
2707 127 128 133 0
-2708 136 137 138 139 0
-136 2708 0
-137 2708 0
-138 2708 0
-139 2708 0
2708 134 135 140 0
-2709 143 144 145 146 0
-143 2709 0
-144 2709 0
-145 2709 0
-146 2709 0
2709 141 142 147 0
-2703 2710 0
-2711 0
-2712 0
-2713 0
-2704 2714 0
-2710 2714 0
-2704 -2710 2715 0
-2711 2715 0
-2704 -2711 2716 0
-2712 2716 0
-2704 -2712 2717 0
-2713 2717 0
-2704 -2713 0
-2705 2718 0
-2714 2718 0
-2705 -2714 2719 0
-2715 2719 0
-2705 -2715 2720 0
-2716 2720 0
-2705 -2716 2721 0
-2717 2721 0
-2705 -2717 0
-2706 2722 0
-2718 2722 0
-2706 -2718 2723 0
-2719 2723 0
-2706 -2719 2724 0
-2720 2724 0
-2706 -2720 2725 0
-2721 2725 0
-2706 -2721 0
-2707 2726 0
-2722 2726 0
-2707 -2722 2727 0
-2723 2727 0
-2707 -2723 2728 0
-2724 2728 0
-2707 -2724 2729 0
-2725 2729 0
-2707 -2725 0
-2708 2730 0
-2726 2730 0
-2708 -2726 2731 0
-2727 2731 0
-2708 -2727 2732 0
-2728 2732 0
-2708 -2728 2733 0
-2729 2733 0
-2708 -2729 0
-2709 -2733 0
-2738 101 102 103 104 105 0
-101 2738 0
-102 2738 0
-103 2738 0
-104 2738 0
-105 2738 0
2738 99 100 0
-2739 108 109 110 111 112 0
-108 2739 0
-109 2739 0
-110 2739 0
-111 2739 0
-112 2739 0
2739 106 107 0
-2740 115 116 117 118 119 0
-115 2740 0
-116 2740 0
-117 2740 0
-118 2740 0
-119 2740 0
2740 113 114 0
-2741 122 123 124 125 126 0
-122 2741 0
-123 2741 0
-124 2741 0
-125 2741 0
-126 2741 0
2741 120 121 0
-2742 129 130 131 132 133 0
-129 2742 0
-130 2742 0
-131 2742 0
-132 2742 0
-133 2742 0
2742 127 128 0
-2743 136 137 138 139 140 0
-136 2743 0
-137 2743 0
-138 2743 0
-139 2743 0
-140 2743 0
2743 134 135 0
-2744 143 144 145 146 147 0
-143 2744 0
-144 2744 0
-145 2744 0
-146 2744 0
-147 2744 0
2744 141 142 0
-2738 2745 0
-2746 0
-2747 0
-2748 0
-2749 0
-2739 2750 0
-2745 2750 0
-2739 -2745 2751 0
-2746 2751 0
-2739 -2746 2752 0
-2747 2752 0
-2739 -2747 2753 0
-2748 2753 0
-2739 -2748 2754 0
-2749 2754 0
-2739 -2749 0
-2740 2755 0
-2750 2755 0
-2740 -2750 2756 0
-2751 2756 0
-2740 -2751 2757 0
-2752 2757 0
-2740 -2752 2758 0
-2753 2758 0
-2740 -2753 2759 0
-2754 2759 0
-2740 -2754 0
-2741 2760 0
-2755 2760 0
-2741 -2755 2761 0
-2756 2761 0
-2741 -2756 2762 0
-2757 2762 0
-2741 -2757 2763 0
-2758 2763 0
-2741 -2758 2764 0
-2759 2764 0
-2741 -2759 0
-2742 2765 0
-2760 2765 0
-2742 -2760 2766 0
-2761 2766 0
-2742 -2761 2767 0
-2762 2767 0
-2742 -2762 2768 0
-2763 2768 0
-2742 -2763 2769 0
-2764 2769 0
-2742 -2764 0
-2743 2770 0
-2765 2770 0
-2743 -2765 2771 0
-2766 2771 0
-2743 -2766 2772 0
-2767 2772 0
-2743 -2767 2773 0
-2768 2773 0
-2743 -2768 2774 0
-2769 2774 0
-2743 -2769 0
-2744 -2774 0
-2780 102 0
-102 2780 0
2780 99 100 101 103 104 105 0
-2781 109 0
-109 2781 0
2781 106 107 108 110 111 112 0
-2782 116 0
-116 2782 0
2782 113 114 115 117 118 119 0
-2783 123 0
-123 2783 0
2783 120 121 122 124 125 126 0
-2784 130 0
-130 2784 0
2784 127 128 129 131 132 133 0
-2785 137 0
-137 2785 0
2785 134 135 136 138 139 140 0
-2786 144 0
-144 2786 0
2786 141 142 143 145 146 147 0
-2780 2787 0
-2781 2788 0
-2787 2788 0
-2781 -2787 0
-2782 2789 0
-2788 2789 0
-2782 -2788 0
-2783 2790 0
-2789 2790 0
-2783 -2789 0
-2784 2791 0
-2790 2791 0
-2784 -2790 0
-2785 2792 0
-2791 2792 0
-2785 -2791 0
-2786 -2792 0
-2794 102 103 0
-102 2794 0
-103 2794 0
2794 99 100 101 104 105 0
-2795 109 110 0
-109 2795 0
-110 2795 0
2795 106 107 108 111 112 0
-2796 116 117 0
-116 2796 0
-117 2796 0
2796 113 114 115 118 119 0
-2797 123 124 0
-123 2797 0
-124 2797 0
2797 120 121 122 125 126 0
-2798 130 131 0
-130 2798 0
-131 2798 0
2798 127 128 129 132 133 0
-2799 137 138 0
-137 2799 0
-138 2799 0
2799 134 135 136 139 140 0
-2800 144 145 0
-144 2800 0
-145 2800 0
2800 141 142 143 146 147 0
-2794 2801 0
-2802 0
-2795 2803 0
-2801 2803 0
-2795 -2801 2804 0
-2802 2804 0
-2795 -2802 0
-2796 2805 0
-2803 2805 0
-2796 -2803 2806 0
-2804 2806 0
-2796 -2804 0
-2797 2807 0
-2805 2807 0
-2797 -2805 2808 0
-2806 2808 0
-2797 -2806 0
-2798 2809 0
-2807 2809 0
-2798 -2807 2810 0
-2808 2810 0
-2798 -2808 0
-2799 2811 0
-2809 2811 0
-2799 -2809 2812 0
-2810 2812 0
-2799 -2810 0
-2800 -2812 0
-2815 102 103 104 0
-102 2815 0
-103 2815 0
-104 2815 0
2815 99 100 101 105 0
-2816 109 110 111 0
-109 2816 0
-110 2816 0
-111 2816 0
2816 106 107 108 112 0
-2817 116 117 118 0
-116 2817 0
-117 2817 0
-118 2817 0
2817 113 114 115 119 0
-2818 123 124 125 0
-123 2818 0
-124 2818 0
-125 2818 0
2818 120 121 122 126 0
-2819 130 131 132 0
-130 2819 0
-131 2819 0
-132 2819 0
2819 127 128 129 133 0
-2820 137 138 139 0
-137 2820 0
-138 2820 0
-139 2820 0
2820 134 135 136 140 0
-2821 144 145 146 0
-144 2821 0
-145 2821 0
-146 2821 0
2821 141 142 143 147 0
-2815 2822 0
-2823 0
-2824 0
-2816 2825 0
-2822 2825 0
-2816 -2822 2826 0
-2823 2826 0
-2816 -2823 2827 0
-2824 2827 0
-2816 -2824 0
-2817 2828 0
-2825 2828 0
-2817 -2825 2829 0
-2826 2829 0
-2817 -2826 2830 0
-2827 2830 0
-2817 -2827 0
-2818 2831 0
-2828 2831 0
-2818 -2828 2832 0
-2829 2832 0
-2818 -2829 2833 0
-2830 2833 0
-2818 -2830 0
-2819 2834 0
-2831 2834 0
-2819 -2831 2835 0
-2832 2835 0
-2819 -2832 2836 0
-2833 2836 0
-2819 -2833 0
-2820 2837 0
-2834 2837 0
-2820 -2834 2838 0
-2835 2838 0
-2820 -2835 2839 0
-2836 2839 0
-2820 -2836 0
-2821 -2839 0
-2843 102 103 104 105 0
-102 2843 0
-103 2843 0
-104 2843 0
-105 2843 0
2843 99 100 101 0
-2844 109 110 111 112 0
-109 2844 0
-110 2844 0
-111 2844 0
-112 2844 0
2844 106 107 108 0
-2845 116 117 118 119 0
-116 2845 0
-117 2845 0
-118 2845 0
-119 2845 0
2845 113 114 115 0
-2846 123 124 125 126 0
-123 2846 0
-124 2846 0
-125 2846 0
-126 2846 0
2846 120 121 122 0
-2847 130 131 132 133 0
-130 2847 0
-131 2847 0
-132 2847 0
-133 2847 0
2847 127 128 129 0
-2848 137 138 139 140 0
-137 2848 0
-138 2848 0
-139 2848 0
-140 2848 0
2848 134 135 136 0
-2849 144 145 146 147 0
-144 2849 0
-145 2849 0
-146 2849 0
-147 2849 0
2849 141 142 143 0
-2843 2850 0
-2851 0
-2852 0
-2853 0
-2844 2854 0
-2850 2854 0
-2844 -2850 2855 0
-2851 2855 0
-2844 -2851 2856 0
-2852 2856 0
-2844 -2852 2857 0
-2853 2857 0
-2844 -2853 0
-2845 2858 0
-2854 2858 0
-2845 -2854 2859 0
-2855 2859 0
-2845 -2855 2860 0
-2856 2860 0
-2845 -2856 2861 0
-2857 2861 0
-2845 -2857 0
-2846 2862 0
-2858 2862 0
-2846 -2858 2863 0
-2859 2863 0
-2846 -2859 2864 0
-2860 2864 0
-2846 -2860 2865 0
-2861 2865 0
-2846 -2861 0
-2847 2866 0
-2862 2866 0
-2847 -2862 2867 0
-2863 2867 0
-2847 -2863 2868 0
-2864 2868 0
-2847 -2864 2869 0
-2865 2869 0
-2847 -2865 0
-2848 2870 0
-2866 2870 0
-2848 -2866 2871 0
-2867 2871 0
-2848 -2867 2872 0
-2868 2872 0
-2848 -2868 2873 0
-2869 2873 0
-2848 -2869 0
-2849 -2873 0
-2878 103 0
-103 2878 0
2878 99 100 101 102 104 105 0
-2879 110 0
-110 2879 0
2879 106 107 108 109 111 112 0
-2880 117 0
-117 2880 0
2880 113 114 115 116 118 119 0
-2881 124 0
-124 2881 0
2881 120 121 122 123 125 126 0
-2882 131 0
-131 2882 0
2882 127 128 129 130 132 133 0
-2883 138 0
-138 2883 0
2883 134 135 136 137 139 140 0
-2884 145 0
-145 2884 0
2884 141 142 143 144 146 147 0
-2878 2885 0
-2879 2886 0
-2885 2886 0
-2879 -2885 0
-2880 2887 0
-2886 2887 0
-2880 -2886 0
-2881 2888 0
-2887 2888 0
-2881 -2887 0
-2882 2889 0
-2888 2889 0
-2882 -2888 0
-2883 2890 0
-2889 2890 0
-2883 -2889 0
-2884 -2890 0
-2892 103 104 0
-103 2892 0
-104 2892 0
2892 99 100 101 102 105 0
-2893 110 111 0
-110 2893 0
-111 2893 0
2893 106 107 108 109 112 0
-2894 117 118 0
-117 2894 0
-118 2894 0
2894 113 114 115 116 119 0
-2895 124 125 0
-124 2895 0
-125 2895 0
2895 120 121 122 123 126 0
-2896 131 132 0
-131 2896 0
-132 2896 0
2896 127 128 129 130 133 0
-2897 138 139 0
-138 2897 0
-139 2897 0
2897 134 135 136 137 140 0
-2898 145 146 0
-145 2898 0
-146 2898 0
2898 141 142 143 144 147 0
-2892 2899 0
-2900 0
-2893 2901 0
-2899 2901 0
-2893 -2899 2902 0
-2900 2902 0
-2893 -2900 0
-2894 2903 0
-2901 2903 0
-2894 -2901 2904 0
-2902 2904 0
-2894 -2902 0
-2895 2905 0
-2903 2905 0
-2895 -2903 2906 0
-2904 2906 0
-2895 -2904 0
-2896 2907 0
-2905 2907 0
-2896 -2905 2908 0
-2906 2908 0
-2896 -2906 0
-2897 2909 0
-2907 2909 0
-2897 -2907 2910 0
-2908 2910 0
-2897 -2908 0
-2898 -2910 0
-2913 103 104 105 0
-103 2913 0
-104 2913 0
-105 2913 0
2913 99 100 101 102 0
-2914 110 111 112 0
-110 2914 0
-111 2914 0
-112 2914 0
2914 106 107 108 109 0
-2915 117 118 119 0
-117 2915 0
-118 2915 0
-119 2915 0
2915 113 114 115 116 0
-2916 124 125 126 0
-124 2916 0
-125 2916 0
-126 2916 0
2916 120 121 122 123 0
-2917 131 132 133 0
-131 2917 0
-132 2917 0
-133 2917 0
2917 127 128 129 130 0
-2918 138 139 140 0
-138 2918 0
-139 2918 0
-140 2918 0
2918 134 135 136 137 0
-2919 145 146 147 0
-145 2919 0
-146 2919 0
-147 2919 0
2919 141 142 143 144 0
-2913 2920 0
-2921 0
-2922 0
-2914 2923 0
-2920 2923 0
-2914 -2920 2924 0
-2921 2924 0
-2914 -2921 2925 0
-2922 2925 0
-2914 -2922 0
-2915 2926 0
-2923 2926 0
-2915 -2923 2927 0
-2924 2927 0
-2915 -2924 2928 0
-2925 2928 0
-2915 -2925 0
-2916 2929 0
-2926 2929 0
-2916 -2926 2930 0
-2927 2930 0
-2916 -2927 2931 0
-2928 2931 0
-2916 -2928 0
-2917 2932 0
-2929 2932 0
-2917 -2929 2933 0
-2930 2933 0
-2917 -2930 2934 0
-2931 2934 0
-2917 -2931 0
-2918 2935 0
-2932 2935 0
-2918 -2932 2936 0
-2933 2936 0
-2918 -2933 2937 0
-2934 2937 0
-2918 -2934 0
-2919 -2937 0
-2941 104 0
-104 2941 0
2941 99 100 101 102 103 105 0
-2942 111 0
-111 2942 0
2942 106 107 108 109 110 112 0
-2943 118 0
-118 2943 0
2943 113 114 115 116 117 119 0
-2944 125 0
-125 2944 0
2944 120 121 122 123 124 126 0
-2945 132 0
-132 2945 0
2945 127 128 129 130 131 133 0
-2946 139 0
-139 2946 0
2946 134 135 136 137 138 140 0
-2947 146 0
-146 2947 0
2947 141 142 143 144 145 147 0
-2941 2948 0
-2942 2949 0
-2948 2949 0
-2942 -2948 0
-2943 2950 0
-2949 2950 0
-2943 -2949 0
-2944 2951 0
-2950 2951 0
-2944 -2950 0
-2945 2952 0
-2951 2952 0
-2945 -2951 0
-2946 2953 0
-2952 2953 0
-2946 -2952 0
-2947 -2953 0
-2955 104 105 0
-104 2955 0
-105 2955 0
2955 99 100 101 102 103 0
-2956 111 112 0
-111 2956 0
-112 2956 0
2956 106 107 108 109 110 0
-2957 118 119 0
-118 2957 0
-119 2957 0
2957 113 114 115 116 117 0
-2958 125 126 0
-125 2958 0
-126 2958 0
2958 120 121 122 123 124 0
-2959 132 133 0
-132 2959 0
-133 2959 0
2959 127 128 129 130 131 0
-2960 139 140 0
-139 2960 0
-140 2960 0
2960 134 135 136 137 138 0
-2961 146 147 0
-146 2961 0
-147 2961 0
2961 141 142 143 144 145 0
-2955 2962 0
-2963 0
-2956 2964 0
-2962 2964 0
-2956 -2962 2965 0
-2963 2965 0
-2956 -2963 0
-2957 2966 0
-2964 2966 0
-2957 -2964 2967 0
-2965 2967 0
-2957 -2965 0
-2958 2968 0
-2966 2968 0
-2958 -2966 2969 0
-2967 2969 0
-2958 -2967 0
-2959 2970 0
-2968 2970 0
-2959 -2968 2971 0
-2969 2971 0
-2959 -2969 0
-2960 2972 0
-2970 2972 0
-2960 -2970 2973 0
-2971 2973 0
-2960 -2971 0
-2961 -2973 0
-2976 105 0
-105 2976 0
2976 99 100 101 102 103 104 0
-2977 112 0
-112 2977 0
2977 106 107 108 109 110 111 0
-2978 119 0
-119 2978 0
2978 113 114 115 116 117 118 0
-2979 126 0
-126 2979 0
2979 120 121 122 123 124 125 0
-2980 133 0
-133 2980 0
2980 127 128 129 130 131 132 0
-2981 140 0
-140 2981 0
2981 134 135 136 137 138 139 0
-2982 147 0
-147 2982 0
2982 141 142 143 144 145 146 0
-2976 2983 0
-2977 2984 0
-2983 2984 0
-2977 -2983 0
-2978 2985 0
-2984 2985 0
-2978 -2984 0
-2979 2986 0
-2985 2986 0
-2979 -2985 0
-2980 2987 0
-2986 2987 0
-2980 -2986 0
-2981 2988 0
-2987 2988 0
-2981 -2987 0
-2982 -2988 0
-99 2990 0
-106 2991 0
-2990 2991 0
-106 -2990 0
-113 2992 0
-2991 2992 0
-113 -2991 0
-120 2993 0
-2992 2993 0
-120 -2992 0
-127 2994 0
-2993 2994 0
-127 -2993 0
-134 2995 0
-2994 2995 0
-134 -2994 0
-141 -2995 0
99 106 113 120 127 134 141 0
-100 2997 0
-107 2998 0
-2997 2998 0
-107 -2997 0
-114 2999 0
-2998 2999 0
-114 -2998 0
-121 3000 0
-2999 3000 0
-121 -2999 0
-128 3001 0
-3000 3001 0
-128 -3000 0
-135 3002 0
-3001 3002 0
-135 -3001 0
-142 -3002 0
100 107 114 121 128 135 142 0
-101 3004 0
-108 3005 0
-3004 3005 0
-108 -3004 0
-115 3006 0
-3005 3006 0
-115 -3005 0
-122 3007 0
-3006 3007 0
-122 -3006 0
-129 3008 0
-3007 3008 0
-129 -3007 0
-136 3009 0
-3008 3009 0
-136 -3008 0
-143 -3009 0
101 108 115 122 129 136 143 0
-102 3011 0
-109 3012 0
-3011 3012 0
-109 -3011 0
-116 3013 0
-3012 3013 0
-116 -3012 0
-123 3014 0
-3013 3014 0
-123 -3013 0
-130 3015 0
-3014 3015 0
-130 -3014 0
-137 3016 0
-3015 3016 0
-137 -3015 0
-144 -3016 0
102 109 116 123 130 137 144 0
-103 3018 0
-110 3019 0
-3018 3019 0
-110 -3018 0
-117 3020 0
-3019 3020 0
-117 -3019 0
-124 3021 0
-3020 3021 0
-124 -3020 0
-131 3022 0
-3021 3022 0
-131 -3021 0
-138 3023 0
-3022 3023 0
-138 -3022 0
-145 -3023 0
103 110 117 124 131 138 145 0
-104 3025 0
-111 3026 0
-3025 3026 0
-111 -3025 0
-118 3027 0
-3026 3027 0
-118 -3026 0
-125 3028 0
-3027 3028 0
-125 -3027 0
-132 3029 0
-3028 3029 0
-132 -3028 0
-139 3030 0
-3029 3030 0
-139 -3029 0
-146 -3030 0
104 111 118 125 132 139 146 0
-105 3032 0
-112 3033 0
-3032 3033 0
-112 -3032 0
-119 3034 0
-3033 3034 0
-119 -3033 0
-126 3035 0
-3034 3035 0
-126 -3034 0
-133 3036 0
-3035 3036 0
-133 -3035 0
-140 3037 0
-3036 3037 0
-140 -3036 0
-147 -3037 0
105 112 119 126 133 140 147 0
-3039 148 0
-148 3039 0
3039 149 150 151 152 153 154 0
-3040 155 0
-155 3040 0
3040 156 157 158 159 160 161 0
-3041 162 0
-162 3041 0
3041 163 164 165 166 167 168 0
-3042 169 0
-169 3042 0
3042 170 171 172 173 174 175 0
-3043 176 0
-176 3043 0
3043 177 178 179 180 181 182 0
-3044 183 0
-183 3044 0
3044 184 185 186 187 188 189 0
-3045 190 0
-190 3045 0
3045 191 192 193 194 195 196 0
-3039 3046 0
-3040 3047 0
-3046 3047 0
-3040 -3046 0
-3041 3048 0
-3047 3048 0
-3041 -3047 0
-3042 3049 0
-3048 3049 0
-3042 -3048 0
-3043 3050 0
-3049 3050 0
-3043 -3049 0
-3044 3051 0
-3050 3051 0
-3044 -3050 0
-3045 -3051 0
-3053 148 149 0
-148 3053 0
-149 3053 0
3053 150 151 152 153 154 0
-3054 155 156 0
-155 3054 0
-156 3054 0
3054 157 158 159 160 161 0
-3055 162 163 0
-162 3055 0
-163 3055 0
3055 164 165 166 167 168 0
-3056 169 170 0
-169 3056 0
-170 3056 0
3056 171 172 173 174 175 0
-3057 176 177 0
-176 3057 0
-177 3057 0
3057 178 179 180 181 182 0
-3058 183 184 0
-183 3058 0
-184 3058 0
3058 185 186 187 188 189 0
-3059 190 191 0
-190 3059 0
-191 3059 0
3059 192 193 194 195 196 0
-3053 3060 0
-3061 0
-3054 3062 0
-3060 3062 0
-3054 -3060 3063 0
-3061 3063 0
-3054 -3061 0
-3055 3064 0
-3062 3064 0
-3055 -3062 3065 0
-3063 3065 0
-3055 -3063 0
-3056 3066 0
-3064 3066 0
-3056 -3064 3067 0
-3065 3067 0
-3056 -3065 0
-3057 3068 0
-3066 3068 0
-3057 -3066 3069 0
-3067 3069 0
-3057 -3067 0
-3058 3070 0
-3068 3070 0
-3058 -3068 3071 0
-3069 3071 0
-3058 -3069 0
-3059 -3071 0
-3074 148 149 150 0
-148 3074 0
-149 3074 0
-150 3074 0
3074 151 152 153 154 0
-3075 155 156 157 0
-155 3075 0
-156 3075 0
-157 3075 0
3075 158 159 160 161 0
-3076 162 163 164 0
-162 3076 0
-163 3076 0
-164 3076 0
3076 165 166 167 168 0
-3077 169 170 171 0
-169 3077 0
-170 3077 0
-171 3077 0
3077 172 173 174 175 0
-3078 176 177 178 0
-176 3078 0
-177 3078 0
-178 3078 0
3078 179 180 181 182 0
-3079 183 184 185 0
-183 3079 0
-184 3079 0
-185 3079 0
3079 186 187 188 189 0
-3080 190 191 192 0
-190 3080 0
-191 3080 0
-192 3080 0
3080 193 194 195 196 0
-3074 3081 0
-3082 0
-3083 0
-3075 3084 0
-3081 3084 0
-3075 -3081 3085 0
-3082 3085 0
-3075 -3082 3086 0
-3083 3086 0
-3075 -3083 0
-3076 3087 0
-3084 3087 0
-3076 -3084 3088 0
-3085 3088 0
-3076 -3085 3089 0
-3086 3089 0
-3076 -3086 0
-3077 3090 0
-3087 3090 0
-3077 -3087 3091 0
-3088 3091 0
-3077 -3088 3092 0
-3089 3092 0
-3077 -3089 0
-3078 3093 0
-3090 3093 0
-3078 -3090 3094 0
-3091 3094 0
-3078 -3091 3095 0
-3092 3095 0
-3078 -3092 0
-3079 3096 0
-3093 3096 0
-3079 -3093 3097 0
-3094 3097 0
-3079 -3094 3098 0
-3095 3098 0
-3079 -3095 0
-3080 -3098 0
-3102 148 149 150 151 0
-148 3102 0
-149 3102 0
-150 3102 0
-151 3102 0
3102 152 153 154 0
-3103 155 156 157 158 0
-155 3103 0
-156 3103 0
-157 3103 0
-158 3103 0
3103 159 160 161 0
-3104 162 163 164 165 0
-162 3104 0
-163 3104 0
-164 3104 0
-165 3104 0
3104 166 167 168 0
-3105 169 170 171 172 0
-169 3105 0
-170 3105 0
-171 3105 0
-172 3105 0
3105 173 174 175 0
-3106 176 177 178 179 0
-176 3106 0
-177 3106 0
-178 3106 0
-179 3106 0
3106 180 181 182 0
-3107 183 184 185 186 0
-183 3107 0
-184 3107 0
-185 3107 0
-186 3107 0
3107 187 188 189 0
-3108 190 191 192 193 0
-190 3108 0
-191 3108 0
-192 3108 0
-193 3108 0
3108 194 195 196 0
-3102 3109 0
-3110 0
-3111 0
-3112 0
-3103 3113 0
-3109 3113 0
-3103 -3109 3114 0
-3110 3114 0
-3103 -3110 3115 0
-3111 3115 0
-3103 -3111 3116 0
-3112 3116 0
-3103 -3112 0
-3104 3117 0
-3113 3117 0
-3104 -3113 3118 0
-3114 3118 0
-3104 -3114 3119 0
-3115 3119 0
-3104 -3115 3120 0
-3116 3120 0
-3104 -3116 0
-3105 3121 0
-3117 3121 0
-3105 -3117 3122 0
-3118 3122 0
-3105 -3118 3123 0
-3119 3123 0
-3105 -3119 3124 0
-3120 3124 0
-3105 -3120 0
-3106 3125 0
-3121 3125 0
-3106 -3121 3126 0
-3122 3126 0
-3106 -3122 3127 0
-3123 3127 0
-3106 -3123 3128 0
-3124 3128 0
-3106 -3124 0
-3107 3129 0
-3125 3129 0
-3107 -3125 3130 0
-3126 3130 0
-3107 -3126 3131 0
-3127 3131 0
-3107 -3127 3132 0
-3128 3132 0
-3107 -3128 0
-3108 -3132 0
-3137 148 149 150 151 152 0
-148 3137 0
-149 3137 0
-150 3137 0
-151 3137 0
-152 3137 0
3137 153 154 0
-3138 155 156 157 158 159 0
-155 3138 0
-156 3138 0
-157 3138 0
-158 3138 0
-159 3138 0
3138 160 161 0
-3139 162 163 164 165 166 0
-162 3139 0
-163 3139 0
-164 3139 0
-165 3139 0
-166 3139 0
3139 167 168 0
-3140 169 170 171 172 173 0
-169 3140 0
-170 3140 0
-171 3140 0
-172 3140 0
-173 3140 0
3140 174 175 0
-3141 176 177 178 179 180 0
-176 3141 0
-177 3141 0
-178 3141 0
-179 3141 0
-180 3141 0
3141 181 182 0
-3142 183 184 185 186 187 0
-183 3142 0
-184 3142 0
-185 3142 0
-186 3142 0
-187 3142 0
3142 188 189 0
-3143 190 191 192 193 194 0
-190 3143 0
-191 3143 0
-192 3143 0
-193 3143 0
-194 3143 0
3143 195 196 0
-3137 3144 0
-3145 0
-3146 0
-3147 0
-3148 0
-3138 3149 0
-3144 3149 0
-3138 -3144 3150 0
-3145 3150 0
-3138 -3145 3151 0
-3146 3151 0
-3138 -3146 3152 0
-3147 3152 0
-3138 -3147 3153 0
-3148 3153 0
-3138 -3148 0
-3139 3154 0
-3149 3154 0
-3139 -3149 3155 0
-3150 3155 0
-3139 -3150 3156 0
-3151 3156 0
-3139 -3151 3157 0
-3152 3157 0
-3139 -3152 3158 0
-3153 3158 0
-3139 -3153 0
-3140 3159 0
-3154 3159 0
-3140 -3154 3160 0
-3155 3160 0
-3140 -3155 3161 0
-3156 3161 0
-3140 -3156 3162 0
-3157 3162 0
-3140 -3157 3163 0
-3158 3163 0
-3140 -3158 0
-3141 3164 0
-3159 3164 0
-3141 -3159 3165 0
-3160 3165 0
-3141 -3160 3166 0
-3161 3166 0
-3141 -3161 3167 0
-3162 3167 0
-3141 -3162 3168 0
-3163 3168 0
-3141 -3163 0
-3142 3169 0
-3164 3169 0
-3142 -3164 3170 0
-3165 3170 0
-3142 -3165 3171 0
-3166 3171 0
-3142 -3166 3172 0
-3167 3172 0
-3142 -3167 3173 0
-3168 3173 0
-3142 -3168 0
-3143 -3173 0
-3179 148 149 150 151 152 153 0
-148 3179 0
-149 3179 0
-150 3179 0
-151 3179 0
-152 3179 0
-153 3179 0
3179 154 0
-3180 155 156 157 158 159 160 0
-155 3180 0
-156 3180 0
-157 3180 0
-158 3180 0
-159 3180 0
-160 3180 0
3180 161 0
-3181 162 163 164 165 166 167 0
-162 3181 0
-163 3181 0
-164 3181 0
-165 3181 0
-166 3181 0
-167 3181 0
3181 168 0
-3182 169 170 171 172 173 174 0
-169 3182 0
-170 3182 0
-171 3182 0
-172 3182 0
-173 3182 0
-174 3182 0
3182 175 0
-3183 176 177 178 179 180 181 0
-176 3183 0
-177 3183 0
-178 3183 0
-179 3183 0
-180 3183 0
-181 3183 0
3183 182 0
-3184 183 184 185 186 187 188 0
-183 3184 0
-184 3184 0
-185 3184 0
-186 3184 0
-187 3184 0
-188 3184 0
3184 189 0
-3185 190 191 192 193 194 195 0
-190 3185 0
-191 3185 0
-192 3185 0
-193 3185 0
-194 3185 0
-195 3185 0
3185 196 0
-3179 3186 0
-3187 0
-3188 0
-3189 0
-3190 0
-3191 0
-3180 3192 0
-3186 3192 0
-3180 -3186 3193 0
-3187 3193 0
-3180 -3187 3194 0
-3188 3194 0
-3180 -3188 3195 0
-3189 3195 0
-3180 -3189 3196 0
-3190 3196 0
-3180 -3190 3197 0
-3191 3197 0
-3180 -3191 0
-3181 3198 0
-3192 3198 0
-3181 -3192 3199 0
-3193 3199 0
-3181 -3193 3200 0
-3194 3200 0
-3181 -3194 3201 0
-3195 3201 0
-3181 -3195 3202 0
-3196 3202 0
-3181 -3196 3203 0
-3197 3203 0
-3181 -3197 0
-3182 3204 0
-3198 3204 0
-3182 -3198 3205 0
-3199 3205 0
-3182 -3199 3206 0
-3200 3206 0
-3182 -3200 3207 0
-3201 3207 0
-3182 -3201 3208 0
-3202 3208 0
-3182 -3202 3209 0
-3203 3209 0
-3182 -3203 0
-3183 3210 0
-3204 3210 0
-3183 -3204 3211 0
-3205 3211 0
-3183 -3205 3212 0
-3206 3212 0
-3183 -3206 3213 0
-3207 3213 0
-3183 -3207 3214 0
-3208 3214 0
-3183 -3208 3215 0
-3209 3215 0
-3183 -3209 0
-3184 3216 0
-3210 3216 0
-3184 -3210 3217 0
-3211 3217 0
-3184 -3211 3218 0
-3212 3218 0
-3184 -3212 3219 0
-3213 3219 0
-3184 -3213 3220 0
-3214 3220 0
-3184 -3214 3221 0
-3215 3221 0
-3184 -3215 0
-3185 -3221 0
-3228 148 149 150 151 152 153 154 0
-148 3228 0
-149 3228 0
-150 3228 0
-151 3228 0
-152 3228 0
-153 3228 0
-154 3228 0
3228 0
-3229 155 156 157 158 159 160 161 0
-155 3229 0
-156 3229 0
-157 3229 0
-158 3229 0
-159 3229 0
-160 3229 0
-161 3229 0
3229 0
-3230 162 163 164 165 166 167 168 0
-162 3230 0
-163 3230 0
-164 3230 0
-165 3230 0
-166 3230 0
-167 3230 0
-168 3230 0
3230 0
-3231 169 170 171 172 173 174 175 0
-169 3231 0
-170 3231 0
-171 3231 0
-172 3231 0
-173 3231 0
-174 3231 0
-175 3231 0
3231 0
-3232 176 177 178 179 180 181 182 0
-176 3232 0
-177 3232 0
-178 3232 0
-179 3232 0
-180 3232 0
-181 3232 0
-182 3232 0
3232 0
-3233 183 184 185 186 187 188 189 0
-183 3233 0
-184 3233 0
-185 3233 0
-186 3233 0
-187 3233 0
-188 3233 0
-189 3233 0
3233 0
-3234 190 191 192 193 194 195 196 0
-190 3234 0
-191 3234 0
-192 3234 0
-193 3234 0
-194 3234 0
-195 3234 0
-196 3234 0
3234 0
-3235 149 0
-149 3235 0
3235 148 150 151 152 153 154 0
-3236 156 0
-156 3236 0
3236 155 157 158 159 160 161 0
-3237 163 0
-163 3237 0
3237 162 164 165 166 167 168 0
-3238 170 0
-170 3238 0
3238 169 171 172 173 174 175 0
-3239 177 0
-177 3239 0
3239 176 178 179 180 181 182 0
-3240 184 0
-184 3240 0
3240 183 185 186 187 188 189 0
-3241 191 0
-191 3241 0
3241 190 192 193 194 195 196 0
-3235 3242 0
-3236 3243 0
-3242 3243 0
-3236 -3242 0
-3237 3244 0
-3243 3244 0
-3237 -3243 0
-3238 3245 0
-3244 3245 0
-3238 -3244 0
-3239 3246 0
-3245 3246 0
-3239 -3245 0
-3240 3247 0
-3246 3247 0
-3240 -3246 0
-3241 -3247 0
-3249 149 150 0
-149 3249 0
-150 3249 0
3249 148 151 152 153 154 0
-3250 156 157 0
-156 3250 0
-157 3250 0
3250 155 158 159 160 161 0
-3251 163 164 0
-163 3251 0
-164 3251 0
3251 162 165 166 167 168 0
-3252 170 171 0
-170 3252 0
-171 3252 0
3252 169 172 173 174 175 0
-3253 177 178 0
-177 3253 0
-178 3253 0
3253 176 179 180 181 182 0
-3254 184 185 0
-184 3254 0
-185 3254 0
3254 183 186 187 188 189 0
-3255 191 192 0
-191 3255 0
-192 3255 0
3255 190 193 194 195 196 0
-3249 3256 0
-3257 0
-3250 3258 0
-3256 3258 0
-3250 -3256 3259 0
-3257 3259 0
-3250 -3257 0
-3251 3260 0
-3258 3260 0
-3251 -3258 3261 0
-3259 3261 0
-3251 -3259 0
-3252 3262 0
-3260 3262 0
-3252 -3260 3263 0
-3261 3263 0
-3252 -3261 0
-3253 3264 0
-3262 3264 0
-3253 -3262 3265 0
-3263 3265 0
-3253 -3263 0
-3254 3266 0
-3264 3266 0
-3254 -3264 3267 0
-3265 3267 0
-3254 -3265 0
-3255 -3267 0
-3270 149 150 151 0
-149 3270 0
-150 3270 0
-151 3270 0
3270 148 152 153 154 0
-3271 156 157 158 0
-156 3271 0
-157 3271 0
-158 3271 0
3271 155 159 160 161 0
-3272 163 164 165 0
-163 3272 0
-164 3272 0
-165 3272 0
3272 162 166 167 168 0
-3273 170 171 172 0
-170 3273 0
-171 3273 0
-172 3273 0
3273 169 173 174 175 0
-3274 177 178 179 0
-177 3274 0
-178 3274 0
-179 3274 0
3274 176 180 181 182 0
-3275 184 185 186 0
-184 3275 0
-185 3275 0
-186 3275 0
3275 183 187 188 189 0
-3276 191 192 193 0
-191 3276 0
-192 3276 0
-193 3276 0
3276 190 194 195 196 0
-3270 3277 0
-3278 0
-3279 0
-3271 3280 0
-3277 3280 0
-3271 -3277 3281 0
-3278 3281 0
-3271 -3278 3282 0
-3279 3282 0
-3271 -3279 0
-3272 3283 0
-3280 3283 0
-3272 -3280 3284 0
-3281 3284 0
-3272 -3281 3285 0
-3282 3285 0
-3272 -3282 0
-3273 3286 0
-3283 3286 0
-3273 -3283 3287 0
-3284 3287 0
-3273 -3284 3288 0
-3285 3288 0
-3273 -3285 0
-3274 3289 0
-3286 3289 0
-3274 -3286 3290 0
-3287 3290 0
-3274 -3287 3291 0
-3288 3291 0
-3274 -3288 0
-3275 3292 0
-3289 3292 0
-3275 -3289 3293 0
-3290 3293 0
-3275 -3290 3294 0
-3291 3294 0
-3275 -3291 0
-3276 -3294 0
-3298 149 150 151 152 0
-149 3298 0
-150 3298 0
-151 3298 0
-152 3298 0
3298 148 153 154 0
-3299 156 157 158 159 0
-156 3299 0
-157 3299 0
-158 3299 0
-159 3299 0
3299 155 160 161 0
-3300 163 164 165 166 0
-163 3300 0
-164 3300 0
-165 3300 0
-166 3300 0
3300 162 167 168 0
-3301 170 171 172 173 0
-170 3301 0
-171 3301 0
-172 3301 0
-173 3301 0
3301 169 174 175 0
-3302 177 178 179 180 0
-177 3302 0
-178 3302 0
-179 3302 0
-180 3302 0
3302 176 181 182 0
-3303 184 185 186 187 0
-184 3303 0
-185 3303 0
-186 3303 0
-187 3303 0
3303 183 188 189 0
-3304 191 192 193 194 0
-191 3304 0
-192 3304 0
-193 3304 0
-194 3304 0
3304 190 195 196 0
-3298 3305 0
-3306 0
-3307 0
-3308 0
-3299 3309 0
-3305 3309 0
-3299 -3305 3310 0
-3306 3310 0
-3299 -3306 3311 0
-3307 3311 0
-3299 -3307 3312 0
-3308 3312 0
-3299 -3308 0
-3300 3313 0
-3309 3313 0
-3300 -3309 3314 0
-3310 3314 0
-3300 -3310 3315 0
-3311 3315 0
-3300 -3311 3316 0
-3312 3316 0
-3300 -3312 0
-3301 3317 0
-3313 3317 0
-3301 -3313 3318 0
-3314 3318 0
-3301 -3314 3319 0
-3315 3319 0
-3301 -3315 3320 0
-3316 3320 0
-3301 -3316 0
-3302 3321 0
-3317 3321 0
-3302 -3317 3322 0
-3318 3322 0
-3302 -3318 3323 0
-3319 3323 0
-3302 -3319 3324 0
-3320 3324 0
-3302 -3320 0
-3303 3325 0
-3321 3325 0
-3303 -3321 3326 0
-3322 3326 0
-3303 -3322 3327 0
-3323 3327 0
-3303 -3323 3328 0
-3324 3328 0
-3303 -3324 0
-3304 -3328 0
-3333 149 150 151 152 153 0
-149 3333 0
-150 3333 0
-151 3333 0
-152 3333 0
-153 3333 0
3333 148 154 0
-3334 156 157 158 159 160 0
-156 3334 0
-157 3334 0
-158 3334 0
-159 3334 0
-160 3334 0
3334 155 161 0
-3335 163 164 165 166 167 0
-163 3335 0
-164 3335 0
-165 3335 0
-166 3335 0
-167 3335 0
3335 162 168 0
-3336 170 171 172 173 174 0
-170 3336 0
-171 3336 0
-172 3336 0
-173 3336 0
-174 3336 0
3336 169 175 0
-3337 177 178 179 180 181 0
-177 3337 0
-178 3337 0
-179 3337 0
-180 3337 0
-181 3337 0
3337 176 182 0
-3338 184 185 186 187 188 0
-184 3338 0
-185 3338 0
-186 3338 0
-187 3338 0
-188 3338 0
3338 183 189 0
-3339 191 192 193 194 195 0
-191 3339 0
-192 3339 0
-193 3339 0
-194 3339 0
-195 3339 0
3339 190 196 0
-3333 3340 0
-3341 0
-3342 0
-3343 0
-3344 0
-3334 3345 0
-3340 3345 0
-3334 -3340 3346 0
-3341 3346 0
-3334 -3341 3347 0
-3342 3347 0
-3334 -3342 3348 0
-3343 3348 0
-3334 -3343 3349 0
-3344 3349 0
-3334 -3344 0
-3335 3350 0
-3345 3350 0
-3335 -3345 3351 0
-3346 3351 0
-3335 -3346 3352 0
-3347 3352 0
-3335 -3347 3353 0
-3348 3353 0
-3335 -3348 3354 0
-3349 3354 0
-3335 -3349 0
-3336 3355 0
-3350 3355 0
-3336 -3350 3356 0
-3351 3356 0
-3336 -3351 3357 0
-3352 3357 0
-3336 -3352 3358 0
-3353 3358 0
-3336 -3353 3359 0
-3354 3359 0
-3336 -3354 0
-3337 3360 0
-3355 3360 0
-3337 -3355 3361 0
-3356 3361 0
-3337 -3356 3362 0
-3357 3362 0
-3337 -3357 3363 0
-3358 3363 0
-3337 -3358 3364 0
-3359 3364 0
-3337 -3359 0
-3338 3365 0
-3360 3365 0
-3338 -3360 3366 0
-3361 3366 0
-3338 -3361 3367 0
-3362 3367 0
-3338 -3362 3368 0
-3363 3368 0
-3338 -3363 3369 0
-3364 3369 0
-3338 -3364 0
-3339 -3369 0
-3375 149 150 151 152 153 154 0
-149 3375 0
-150 3375 0
-151 3375 0
-152 3375 0
-153 3375 0
-154 3375 0
3375 148 0
-3376 156 157 158 159 160 161 0
-156 3376 0
-157 3376 0
-158 3376 0
-159 3376 0
-160 3376 0
-161 3376 0
3376 155 0
-3377 163 164 165 166 167 168 0
-163 3377 0
-164 3377 0
-165 3377 0
-166 3377 0
-167 3377 0
-168 3377 0
3377 162 0
-3378 170 171 172 173 174 175 0
-170 3378 0
-171 3378 0
-172 3378 0
-173 3378 0
-174 3378 0
-175 3378 0
3378 169 0
-3379 177 178 179 180 181 182 0
-177 3379 0
-178 3379 0
-179 3379 0
-180 3379 0
-181 3379 0
-182 3379 0
3379 176 0
-3380 184 185 186 187 188 189 0
-184 3380 0
-185 3380 0
-186 3380 0
-187 3380 0
-188 3380 0
-189 3380 0
3380 183 0
-3381 191 192 193 194 195 196 0
-191 3381 0
-192 3381 0
-193 3381 0
-194 3381 0
-195 3381 0
-196 3381 0
3381 190 0
-3375 3382 0
-3383 0
-3384 0
-3385 0
-3386 0
-3387 0
-3376 3388 0
-3382 3388 0
-3376 -3382 3389 0
-3383 3389 0
-3376 -3383 3390 0
-3384 3390 0
-3376 -3384 3391 0
-3385 3391 0
-3376 -3385 3392 0
-3386 3392 0
-3376 -3386 3393 0
-3387 3393 0
-3376 -3387 0
-3377 3394 0
-3388 3394 0
-3377 -3388 3395 0
-3389 3395 0
-3377 -3389 3396 0
-3390 3396 0
-3377 -3390 3397 0
-3391 3397 0
-3377 -3391 3398 0
-3392 3398 0
-3377 -3392 3399 0
-3393 3399 0
-3377 -3393 0
-3378 3400 0
-3394 3400 0
-3378 -3394 3401 0
-3395 3401 0
-3378 -3395 3402 0
-3396 3402 0
-3378 -3396 3403 0
-3397 3403 0
-3378 -3397 3404 0
-3398 3404 0
-3378 -3398 3405 0
-3399 3405 0
-3378 -3399 0
-3379 3406 0
-3400 3406 0
-3379 -3400 3407 0
-3401 3407 0
-3379 -3401 3408 0
-3402 3408 0
-3379 -3402 3409 0
-3403 3409 0
-3379 -3403 3410 0
-3404 3410 0
-3379 -3404 3411 0
-3405 3411 0
-3379 -3405 0
-3380 3412 0
-3406 3412 0
-3380 -3406 3413 0
-3407 3413 0
-3380 -3407 3414 0
-3408 3414 0
-3380 -3408 3415 0
-3409 3415 0
-3380 -3409 3416 0
-3410 3416 0
-3380 -3410 3417 0
-3411 3417 0
-3380 -3411 0
-3381 -3417 0
-3424 150 0
-150 3424 0
3424 148 149 151 152 153 154 0
-3425 157 0
-157 3425 0
3425 155 156 158 159 160 161 0
-3426 164 0
-164 3426 0
3426 162 163 165 166 167 168 0
-3427 171 0
-171 3427 0
3427 169 170 172 173 174 175 0
-3428 178 0
-178 3428 0
3428 176 177 179 180 181 182 0
-3429 185 0
-185 3429 0
3429 183 184 186 187 188 189 0
-3430 192 0
-192 3430 0
3430 190 191 193 194 195 196 0
-3424 3431 0
-3425 3432 0
-3431 3432 0
-3425 -3431 0
-3426 3433 0
-3432 3433 0
-3426 -3432 0
-3427 3434 0
-3433 3434 0
-3427 -3433 0
-3428 3435 0
-3434 3435 0
-3428 -3434 0
-3429 3436 0
-3435 3436 0
-3429 -3435 0
-3430 -3436 0
-3438 150 151 0
-150 3438 0
-151 3438 0
3438 148 149 152 153 154 0
-3439 157 158 0
-157 3439 0
-158 3439 0
3439 155 156 159 160 161 0
-3440 164 165 0
-164 3440 0
-165 3440 0
3440 162 163 166 167 168 0
-3441 171 172 0
-171 3441 0
-172 3441 0
3441 169 170 173 174 175 0
-3442 178 179 0
-178 3442 0
-179 3442 0
3442 176 177 180 181 182 0
-3443 185 186 0
-185 3443 0
-186 3443 0
3443 183 184 187 188 189 0
-3444 192 193 0
-192 3444 0
-193 3444 0
3444 190 191 194 195 196 0
-3438 3445 0
-3446 0
-3439 3447 0
-3445 3447 0
-3439 -3445 3448 0
-3446 3448 0
-3439 -3446 0
-3440 3449 0
-3447 3449 0
-3440 -3447 3450 0
-3448 3450 0
-3440 -3448 0
-3441 3451 0
-3449 3451 0
-3441 -3449 3452 0
-3450 3452 0
-3441 -3450 0
-3442 3453 0
-3451 3453 0
-3442 -3451 3454 0
-3452 3454 0
-3442 -3452 0
-3443 3455 0
-3453 3455 0
-3443 -3453 3456 0
-3454 3456 0
-3443 -3454 0
-3444 -3456 0
-3459 150 151 152 0
-150 3459 0
-151 3459 0
-152 3459 0
3459 148 149 153 154 0
-3460 157 158 159 0
-157 3460 0
-158 3460 0
-159 3460 0
3460 155 156 160 161 0
-3461 164 165 166 0
-164 3461 0
-165 3461 0
-166 3461 0
3461 162 163 167 168 0
-3462 171 172 173 0
-171 3462 0
-172 3462 0
-173 3462 0
3462 169 170 174 175 0
-3463 178 179 180 0
-178 3463 0
-179 3463 0
-180 3463 0
3463 176 177 181 182 0
-3464 185 186 187 0
-185 3464 0
-186 3464 0
-187 3464 0
3464 183 184 188 189 0
-3465 192 193 194 0
-192 3465 0
-193 3465 0
-194 3465 0
3465 190 191 195 196 0
-3459 3466 0
-3467 0
-3468 0
-3460 3469 0
-3466 3469 0
-3460 -3466 3470 0
-3467 3470 0
-3460 -3467 3471 0
-3468 3471 0
-3460 -3468 0
-3461 3472 0
-3469 3472 0
-3461 -3469 3473 0
-3470 3473 0
-3461 -3470 3474 0
-3471 3474 0
-3461 -3471 0
-3462 3475 0
-3472 3475 0
-3462 -3472 3476 0
-3473 3476 0
-3462 -3473 3477 0
-3474 3477 0
-3462 -3474 0
-3463 3478 0
-3475 3478 0
-3463 -3475 3479 0
-3476 3479 0
-3463 -3476 3480 0
-3477 3480 0
-3463 -3477 0
-3464 3481 0
-3478 3481 0
-3464 -3478 3482 0
-3479 3482 0
-3464 -3479 3483 0
-3480 3483 0
-3464 -3480 0
-3465 -3483 0
-3487 150 151 152 153 0
-150 3487 0
-151 3487 0
-152 3487 0
-153 3487 0
3487 148 149 154 0
-3488 157 158 159 160 0
-157 3488 0
-158 3488 0
-159 3488 0
-160 3488 0
3488 155 156 161 0
-3489 164 165 166 167 0
-164 3489 0
-165 3489 0
-166 3489 0
-167 3489 0
3489 162 163 168 0
-3490 171 172 173 174 0
-171 3490 0
-172 3490 0
-173 3490 0
-174 3490 0
3490 169 170 175 0
-3491 178 179 180 181 0
-178 3491 0
-179 3491 0
-180 3491 0
-181 3491 0
3491 176 177 182 0
-3492 185 186 187 188 0
-185 3492 0
-186 3492 0
-187 3492 0
-188 3492 0
3492 183 184 189 0
-3493 192 193 194 195 0
-192 3493 0
-193 3493 0
-194 3493 0
-195 3493 0
3493 190 191 196 0
-3487 3494 0
-3495 0
-3496 0
-3497 0
-3488 3498 0
-3494 3498 0
-3488 -3494 3499 0
-3495 3499 0
-3488 -3495 3500 0
-3496 3500 0
-3488 -3496 3501 0
-3497 3501 0
-3488 -3497 0
-3489 3502 0
-3498 3502 0
-3489 -3498 3503 0
-3499 3503 0
-3489 -3499 3504 0
-3500 3504 0
-3489 -3500 3505 0
-3501 3505 0
-3489 -3501 0
-3490 3506 0
-3502 3506 0
-3490 -3502 3507 0
-3503 3507 0
-3490 -3503 3508 0
-3504 3508 0
-3490 -3504 3509 0
-3505 3509 0
-3490 -3505 0
-3491 3510 0
-3506 3510 0
-3491 -3506 3511 0
-3507 3511 0
-3491 -3507 3512 0
-3508 3512 0
-3491 -3508 3513 0
-3509 3513 0
-3491 -3509 0
-3492 3514 0
-3510 3514 0
-3492 -3510 3515 0
-3511 3515 0
-3492 -3511 3516 0
-3512 3516 0
-3492 -3512 3517 0
-3513 3517 0
-3492 -3513 0
-3493 -3517 0
-3522 150 151 152 153 154 0
-150 3522 0
-151 3522 0
-152 3522 0
-153 3522 0
-154 3522 0
3522 148 149 0
-3523 157 158 159 160 161 0
-157 3523 0
-158 3523 0
-159 3523 0
-160 3523 0
-161 3523 0
3523 155 156 0
-3524 164 165 166 167 168 0
-164 3524 0
-165 3524 0
-166 3524 0
-167 3524 0
-168 3524 0
3524 162 163 0
-3525 171 172 173 174 175 0
-171 3525 0
-172 3525 0
-173 3525 0
-174 3525 0
-175 3525 0
3525 169 170 0
-3526 178 179 180 181 182 0
-178 3526 0
-179 3526 0
-180 3526 0
-181 3526 0
-182 3526 0
3526 176 177 0
-3527 185 186 187 188 189 0
-185 3527 0
-186 3527 0
-187 3527 0
-188 3527 0
-189 3527 0
3527 183 184 0
-3528 192 193 194 195 196 0
-192 3528 0
-193 3528 0
-194 3528 0
-195 3528 0
-196 3528 0
3528 190 191 0
-3522 3529 0
-3530 0
-3531 0
-3532 0
-3533 0
-3523 3534 0
-3529 3534 0
-3523 -3529 3535 0
-3530 3535 0
-3523 -3530 3536 0
-3531 3536 0
-3523 -3531 3537 0
-3532 3537 0
-3523 -3532 3538 0
-3533 3538 0
-3523 -3533 0
-3524 3539 0
-3534 3539 0
-3524 -3534 3540 0
-3535 3540 0
-3524 -3535 3541 0
-3536 3541 0
-3524 -3536 3542 0
-3537 3542 0
-3524 -3537 3543 0
-3538 3543 0
-3524 -3538 0
-3525 3544 0
-3539 3544 0
-3525 -3539 3545 0
-3540 3545 0
-3525 -3540 3546 0
-3541 3546 0
-3525 -3541 3547 0
-3542 3547 0
-3525 -3542 3548 0
-3543 3548 0
-3525 -3543 0
-3526 3549 0
-3544 3549 0
-3526 -3544 3550 0
-3545 3550 0
-3526 -3545 3551 0
-3546 3551 0
-3526 -3546 3552 0
-3547 3552 0
-3526 -3547 3553 0
-3548 3553 0
-3526 -3548 0
-3527 3554 0
-3549 3554 0
-3527 -3549 3555 0
-3550 3555 0
-3527 -3550 3556 0
-3551 3556 0
-3527 -3551 3557 0
-3552 3557 0
-3527 -3552 3558 0
-3553 3558 0
-3527 -3553 0
-3528 -3558 0
-3564 151 0
-151 3564 0
3564 148 149 150 152 153 154 0
-3565 158 0
-158 3565 0
3565 155 156 157 159 160 161 0
-3566 165 0
-165 3566 0
3566 162 163 164 166 167 168 0
-3567 172 0
-172 3567 0
3567 169 170 171 173 174 175 0
-3568 179 0
-179 3568 0
3568 176 177 178 180 181 182 0
-3569 186 0
-186 3569 0
3569 183 184 185 187 188 189 0
-3570 193 0
-193 3570 0
3570 190 191 192 194 195 196 0
-3564 3571 0
-3565 3572 0
-3571 3572 0
-3565 -3571 0
-3566 3573 0
-3572 3573 0
-3566 -3572 0
-3567 3574 0
-3573 3574 0
-3567 -3573 0
-3568 3575 0
-3574 3575 0
-3568 -3574 0
-3569 3576 0
-3575 3576 0
-3569 -3575 0
-3570 -3576 0
-3578 151 152 0
-151 3578 0
-152 3578 0
3578 148 149 150 153 154 0
-3579 158 159 0
-158 3579 0
-159 3579 0
3579 155 156 157 160 161 0
-3580 165 166 0
-165 3580 0
-166 3580 0
3580 162 163 164 167 168 0
-3581 172 173 0
-172 3581 0
-173 3581 0
3581 169 170 171 174 175 0
-3582 179 180 0
-179 3582 0
-180 3582 0
3582 176 177 178 181 182 0
-3583 186 187 0
-186 3583 0
-187 3583 0
3583 183 184 185 188 189 0
-3584 193 194 0
-193 3584 0
-194 3584 0
3584 190 191 192 195 196 0
-3578 3585 0
-3586 0
-3579 3587 0
-3585 3587 0
-3579 -3585 3588 0
-3586 3588 0
-3579 -3586 0
-3580 3589 0
-3587 3589 0
-3580 -3587 3590 0
-3588 3590 0
-3580 -3588 0
-3581 3591 0
-3589 3591 0
-3581 -3589 3592 0
-3590 3592 0
-3581 -3590 0
-3582 3593 0
-3591 3593 0
-3582 -3591 3594 0
-3592 3594 0
-3582 -3592 0
-3583 3595 0
-3593 3595 0
-3583 -3593 3596 0
-3594 3596 0
-3583 -3594 0
-3584 -3596 0
-3599 151 152 153 0
-151 3599 0
-152 3599 0
-153 3599 0
3599 148 149 150 154 0
-3600 158 159 160 0
-158 3600 0
-159 3600 0
-160 3600 0
3600 155 156 157 161 0
-3601 165 166 167 0
-165 3601 0
-166 3601 0
-167 3601 0
3601 162 163 164 168 0
-3602 172 173 174 0
-172 3602 0
-173 3602 0
-174 3602 0
3602 169 170 171 175 0
-3603 179 180 181 0
-179 3603 0
-180 3603 0
-181 3603 0
3603 176 177 178 182 0
-3604 186 187 188 0
-186 3604 0
-187 3604 0
-188 3604 0
3604 183 184 185 189 0
-3605 193 194 195 0
-193 3605 0
-194 3605 0
-195 3605 0
3605 190 191 192 196 0
-3599 3606 0
-3607 0
-3608 0
-3600 3609 0
-3606 3609 0
-3600 -3606 3610 0
-3607 3610 0
-3600 -3607 3611 0
-3608 3611 0
-3600 -3608 0
-3601 3612 0
-3609 3612 0
-3601 -3609 3613 0
-3610 3613 0
-3601 -3610 3614 0
-3611 3614 0
-3601 -3611 0
-3602 3615 0
-3612 3615 0
-3602 -3612 3616 0
-3613 3616 0
-3602 -3613 3617 0
-3614 3617 0
-3602 -3614 0
-3603 3618 0
-3615 3618 0
-3603 -3615 3619 0
-3616 3619 0
-3603 -3616 3620 0
-3617 3620 0
-3603 -3617 0
-3604 3621 0
-3618 3621 0
-3604 -3618 3622 0
-3619 3622 0
-3604 -3619 3623 0
-3620 3623 0
-3604 -3620 0
-3605 -3623 0
-3627 151 152 153 154 0
-151 3627 0
-152 3627 0
-153 3627 0
-154 3627 0
3627 148 149 150 0
-3628 158 159 160 161 0
-158 3628 0
-159 3628 0
-160 3628 0
-161 3628 0
3628 155 156 157 0
-3629 165 166 167 168 0
-165 3629 0
-166 3629 0
-167 3629 0
-168 3629 0
3629 162 163 164 0
-3630 172 173 174 175 0
-172 3630 0
-173 3630 0
-174 3630 0
-175 3630 0
3630 169 170 171 0
-3631 179 180 181 182 0
-179 3631 0
-180 3631 0
-181 3631 0
-182 3631 0
3631 176 177 178 0
-3632 186 187 188 189 0
-186 3632 0
-187 3632 0
-188 3632 0
-189 3632 0
3632 183 184 185 0
-3633 193 194 195 196 0
-193 3633 0
-194 3633 0
-195 3633 0
-196 3633 0
3633 190 191 192 0
-3627 3634 0
-3635 0
-3636 0
-3637 0
-3628 3638 0
-3634 3638 0
-3628 -3634 3639 0
-3635 3639 0
-3628 -3635 3640 0
-3636 3640 0
-3628 -3636 3641 0
-3637 3641 0
-3628 -3637 0
-3629 3642 0
-3638 3642 0
-3629 -3638 3643 0
-3639 3643 0
-3629 -3639 3644 0
-3640 3644 0
-3629 -3640 3645 0
-3641 3645 0
-3629 -3641 0
-3630 3646 0
-3642 3646 0
-3630 -3642 3647 0
-3643 3647 0
-3630 -3643 3648 0
-3644 3648 0
-3630 -3644 3649 0
-3645 3649 0
-3630 -3645 0
-3631 3650 0
-3646 3650 0
-3631 -3646 3651 0
-3647 3651 0
-3631 -3647 3652 0
-3648 3652 0
-3631 -3648 3653 0
-3649 3653 0
-3631 -3649 0
-3632 3654 0
-3650 3654 0
-3632 -3650 3655 0
-3651 3655 0
-3632 -3651 3656 0
-3652 3656 0
-3632 -3652 3657 0
-3653 3657 0
-3632 -3653 0
-3633 -3657 0
-3662 152 0
-152 3662 0
3662 148 149 150 151 153 154 0
-3663 159 0
-159 3663 0
3663 155 156 157 158 160 161 0
-3664 166 0
-166 3664 0
3664 162 163 164 165 167 168 0
-3665 173 0
-173 3665 0
3665 169 170 171 172 174 175 0
-3666 180 0
-180 3666 0
3666 176 177 178 179 181 182 0
-3667 187 0
-187 3667 0
3667 183 184 185 186 188 189 0
-3668 194 0
-194 3668 0
3668 190 191 192 193 195 196 0
-3662 3669 0
-3663 3670 0
-3669 3670 0
-3663 -3669 0
-3664 3671 0
-3670 3671 0
-3664 -3670 0
-3665 3672 0
-3671 3672 0
-3665 -3671 0
-3666 3673 0
-3672 3673 0
-3666 -3672 0
-3667 3674 0
-3673 3674 0
-3667 -3673 0
-3668 -3674 0
-3676 152 153 0
-152 3676 0
-153 3676 0
3676 148 149 150 151 154 0
-3677 159 160 0
-159 3677 0
-160 3677 0
3677 155 156 157 158 161 0
-3678 166 167 0
-166 3678 0
-167 3678 0
3678 162 163 164 165 168 0
-3679 173 174 0
-173 3679 0
-174 3679 0
3679 169 170 171 172 175 0
-3680 180 181 0
-180 3680 0
-181 3680 0
3680 176 177 178 179 182 0
-3681 187 188 0
-187 3681 0
-188 3681 0
3681 183 184 185 186 189 0
-3682 194 195 0
-194 3682 0
-195 3682 0
3682 190 191 192 193 196 0
-3676 3683 0
-3684 0
-3677 3685 0
-3683 3685 0
-3677 -3683 3686 0
-3684 3686 0
-3677 -3684 0
-3678 3687 0
-3685 3687 0
-3678 -3685 3688 0
-3686 3688 0
-3678 -3686 0
-3679 3689 0
-3687 3689 0
-3679 -3687 3690 0
-3688 3690 0
-3679 -3688 0
-3680 3691 0
-3689 3691 0
-3680 -3689 3692 0
-3690 3692 0
-3680 -3690 0
-3681 3693 0
-3691 3693 0
-3681 -3691 3694 0
-3692 3694 0
-3681 -3692 0
-3682 -3694 0
-3697 152 153 154 0
-152 3697 0
-153 3697 0
-154 3697 0
3697 148 149 150 151 0
-3698 159 160 161 0
-159 3698 0
-160 3698 0
-161 3698 0
3698 155 156 157 158 0
-3699 166 167 168 0
-166 3699 0
-167 3699 0
-168 3699 0
3699 162 163 164 165 0
-3700 173 174 175 0
-173 3700 0
-174 3700 0
-175 3700 0
3700 169 170 171 172 0
-3701 180 181 182 0
-180 3701 0
-181 3701 0
-182 3701 0
3701 176 177 178 179 0
-3702 187 188 189 0
-187 3702 0
-188 3702 0
-189 3702 0
3702 183 184 185 186 0
-3703 194 195 196 0
-194 3703 0
-195 3703 0
-196 3703 0
3703 190 191 192 193 0
-3697 3704 0
-3705 0
-3706 0
-3698 3707 0
-3704 3707 0
-3698 -3704 3708 0
-3705 3708 0
-3698 -3705 3709 0
-3706 3709 0
-3698 -3706 0
-3699 3710 0
-3707 3710 0
-3699 -3707 3711 0
-3708 3711 0
-3699 -3708 3712 0
-3709 3712 0
-3699 -3709 0
-3700 3713 0
-3710 3713 0
-3700 -3710 3714 0
-3711 3714 0
-3700 -3711 3715 0
-3712 3715 0
-3700 -3712 0
-3701 3716 0
-3713 3716 0
-3701 -3713 3717 0
-3714 3717 0
-3701 -3714 3718 0
-3715 3718 0
-3701 -3715 0
-3702 3719 0
-3716 3719 0
-3702 -3716 3720 0
-3717 3720 0
-3702 -3717 3721 0
-3718 3721 0
-3702 -3718 0
-3703 -3721 0
-3725 153 0
-153 3725 0
3725 148 149 150 151 152 154 0
-3726 160 0
-160 3726 0
3726 155 156 157 158 159 161 0
-3727 167 0
-167 3727 0
3727 162 163 164 165 166 168 0
-3728 174 0
-174 3728 0
3728 169 170 171 172 173 175 0
-3729 181 0
-181 3729 0
3729 176 177 178 179 180 182 0
-3730 188 0
-188 3730 0
3730 183 184 185 186 187 189 0
-3731 195 0
-195 3731 0
3731 190 191 192 193 194 196 0
-3725 3732 0
-3726 3733 0
-3732 3733 0
-3726 -3732 0
-3727 3734 0
-3733 3734 0
-3727 -3733 0
-3728 3735 0
-3734 3735 0
-3728 -3734 0
-3729 3736 0
-3735 3736 0
-3729 -3735 0
-3730 3737 0
-3736 3737 0
-3730 -3736 0
-3731 -3737 0
-3739 153 154 0
-153 3739 0
-154 3739 0
3739 148 149 150 151 152 0
-3740 160 161 0
-160 3740 0
-161 3740 0
3740 155 156 157 158 159 0
-3741 167 168 0
-167 3741 0
-168 3741 0
3741 162 163 164 165 166 0
-3742 174 175 0
-174 3742 0
-175 3742 0
3742 169 170 171 172 173 0
-3743 181 182 0
-181 3743 0
-182 3743 0
3743 176 177 178 179 180 0
-3744 188 189 0
-188 3744 0
-189 3744 0
3744 183 184 185 186 187 0
-3745 195 196 0
-195 3745 0
-196 3745 0
3745 190 191 192 193 194 0
-3739 3746 0
-3747 0
-3740 3748 0
-3746 3748 0
-3740 -3746 3749 0
-3747 3749 0
-3740 -3747 0
-3741 3750 0
-3748 3750 0
-3741 -3748 3751 0
-3749 3751 0
-3741 -3749 0
-3742 3752 0
-3750 3752 0
-3742 -3750 3753 0
-3751 3753 0
-3742 -3751 0
-3743 3754 0
-3752 3754 0
-3743 -3752 3755 0
-3753 3755 0
-3743 -3753 0
-3744 3756 0
-3754 3756 0
-3744 -3754 3757 0
-3755 3757 0
-3744 -3755 0
-3745 -3757 0
-3760 154 0
-154 3760 0
3760 148 149 150 151 152 153 0
-3761 161 0
-161 3761 0
3761 155 156 157 158 159 160 0
-3762 168 0
-168 3762 0
3762 162 163 164 165 166 167 0
-3763 175 0
-175 3763 0
3763 169 170 171 172 173 174 0
-3764 182 0
-182 3764 0
3764 176 177 178 179 180 181 0
-3765 189 0
-189 3765 0
3765 183 184 185 186 187 188 0
-3766 196 0
-196 3766 0
3766 190 191 192 193 194 195 0
-3760 3767 0
-3761 3768 0
-3767 3768 0
-3761 -3767 0
-3762 3769 0
-3768 3769 0
-3762 -3768 0
-3763 3770 0
-3769 3770 0
-3763 -3769 0
-3764 3771 0
-3770 3771 0
-3764 -3770 0
-3765 3772 0
-3771 3772 0
-3765 -3771 0
-3766 -3772 0
-148 3774 0
-155 3775 0
-3774 3775 0
-155 -3774 0
-162 3776 0
-3775 3776 0
-162 -3775 0
-169 3777 0
-3776 3777 0
-169 -3776 0
-176 3778 0
-3777 3778 0
-176 -3777 0
-183 3779 0
-3778 3779 0
-183 -3778 0
-190 -3779 0
148 155 162 169 176 183 190 0
-149 3781 0
-156 3782 0
-3781 3782 0
-156 -3781 0
-163 3783 0
-3782 3783 0
-163 -3782 0
-170 3784 0
-3783 3784 0
-170 -3783 0
-177 3785 0
-3784 3785 0
-177 -3784 0
-184 3786 0
-3785 3786 0
-184 -3785 0
-191 -3786 0
149 156 163 170 177 184 191 0
-150 3788 0
-157 3789 0
-3788 3789 0
-157 -3788 0
-164 3790 0
-3789 3790 0
-164 -3789 0
-171 3791 0
-3790 3791 0
-171 -3790 0
-178 3792 0
-3791 3792 0
-178 -3791 0
-185 3793 0
-3792 3793 0
-185 -3792 0
-192 -3793 0
150 157 164 171 178 185 192 0
-151 3795 0
-158 3796 0
-3795 3796 0
-158 -3795 0
-165 3797 0
-3796 3797 0
-165 -3796 0
-172 3798 0
-3797 3798 0
-172 -3797 0
-179 3799 0
-3798 3799 0
-179 -3798 0
-186 3800 0
-3799 3800 0
-186 -3799 0
-193 -3800 0
151 158 165 172 179 186 193 0
-152 3802 0
-159 3803 0
-3802 3803 0
-159 -3802 0
-166 3804 0
-3803 3804 0
-166 -3803 0
-173 3805 0
-3804 3805 0
-173 -3804 0
-180 3806 0
-3805 3806 0
-180 -3805 0
-187 3807 0
-3806 3807 0
-187 -3806 0
-194 -3807 0
152 159 166 173 180 187 194 0
-153 3809 0
-160 3810 0
-3809 3810 0
-160 -3809 0
-167 3811 0
-3810 3811 0
-167 -3810 0
-174 3812 0
-3811 3812 0
-174 -3811 0
-181 3813 0
-3812 3813 0
-181 -3812 0
-188 3814 0
-3813 3814 0
-188 -3813 0
-195 -3814 0
153 160 167 174 181 188 195 0
-154 3816 0
-161 3817 0
-3816 3817 0
-161 -3816 0
-168 3818 0
-3817 3818 0
-168 -3817 0
-175 3819 0
-3818 3819 0
-175 -3818 0
-182 3820 0
-3819 3820 0
-182 -3819 0
-189 3821 0
-3820 3821 0
-189 -3820 0
-196 -3821 0
154 161 168 175 182 189 196 0
-3823 197 0
-197 3823 0
3823 198 199 200 201 202 203 0
-3824 204 0
-204 3824 0
3824 205 206 207 208 209 210 0
-3825 211 0
-211 3825 0
3825 212 213 214 215 216 217 0
-3826 218 0
-218 3826 0
3826 219 220 221 222 223 224 0
-3827 225 0
-225 3827 0
3827 226 227 228 229 230 231 0
-3828 232 0
-232 3828 0
3828 233 234 235 236 237 238 0
-3829 239 0
-239 3829 0
3829 240 241 242 243 244 245 0
-3823 3830 0
-3824 3831 0
-3830 3831 0
-3824 -3830 0
-3825 3832 0
-3831 3832 0
-3825 -3831 0
-3826 3833 0
-3832 3833 0
-3826 -3832 0
-3827 3834 0
-3833 3834 0
-3827 -3833 0
-3828 3835 0
-3834 3835 0
-3828 -3834 0
-3829 -3835 0
-3837 197 198 0
-197 3837 0
-198 3837 0
3837 199 200 201 202 203 0
-3838 204 205 0
-204 3838 0
-205 3838 0
3838 206 207 208 209 210 0
-3839 211 212 0
-211 3839 0
-212 3839 0
3839 213 214 215 216 217 0
-3840 218 219 0
-218 3840 0
-219 3840 0
3840 220 221 222 223 224 0
-3841 225 226 0
-225 3841 0
-226 3841 0
3841 227 228 229 230 231 0
-3842 232 233 0
-232 3842 0
-233 3842 0
3842 234 235 236 237 238 0
-3843 239 240 0
-239 3843 0
-240 3843 0
3843 241 242 243 244 245 0
-3837 3844 0
-3845 0
-3838 3846 0
-3844 3846 0
-3838 -3844 3847 0
-3845 3847 0
-3838 -3845 0
-3839 3848 0
-3846 3848 0
-3839 -3846 3849 0
-3847 3849 0
-3839 -3847 0
-3840 3850 0
-3848 3850 0
-3840 -3848 3851 0
-3849 3851 0
-3840 -3849 0
-3841 3852 0
-3850 3852 0
-3841 -3850 3853 0
-3851 3853 0
-3841 -3851 0
-3842 3854 0
-3852 3854 0
-3842 -3852 3855 0
-3853 3855 0
-3842 -3853 0
-3843 -3855 0
-3858 197 198 199 0
-197 3858 0
-198 3858 0
-199 3858 0
3858 200 201 202 203 0
-3859 204 205 206 0
-204 3859 0
-205 3859 0
-206 3859 0
3859 207 208 209 210 0
-3860 211 212 213 0
-211 3860 0
-212 3860 0
-213 3860 0
3860 214 215 216 217 0
-3861 218 219 220 0
-218 3861 0
-219 3861 0
-220 3861 0
3861 221 222 223 224 0
-3862 225 226 227 0
-225 3862 0
-226 3862 0
-227 3862 0
3862 228 229 230 231 0
-3863 232 233 234 0
-232 3863 0
-233 3863 0
-234 3863 0
3863 235 236 237 238 0
-3864 239 240 241 0
-239 3864 0
-240 3864 0
-241 3864 0
3864 242 243 244 245 0
-3858 3865 0
-3866 0
-3867 0
-3859 3868 0
-3865 3868 0
-3859 -3865 3869 0
-3866 3869 0
-3859 -3866 3870 0
-3867 3870 0
-3859 -3867 0
-3860 3871 0
-3868 3871 0
-3860 -3868 3872 0
-3869 3872 0
-3860 -3869 3873 0
-3870 3873 0
-3860 -3870 0
-3861 3874 0
-3871 3874 0
-3861 -3871 3875 0
-3872 3875 0
-3861 -3872 3876 0
-3873 3876 0
-3861 -3873 0
-3862 3877 0
-3874 3877 0
-3862 -3874 3878 0
-3875 3878 0
-3862 -3875 3879 0
-3876 3879 0
-3862 -3876 0
-3863 3880 0
-3877 3880 0
-3863 -3877 3881 0
-3878 3881 0
-3863 -3878 3882 0
-3879 3882 0
-3863 -3879 0
-3864 -3882 0
-3886 197 198 199 200 0
-197 3886 0
-198 3886 0
-199 3886 0
-200 3886 0
3886 201 202 203 0
-3887 204 205 206 207 0
-204 3887 0
-205 3887 0
-206 3887 0
-207 3887 0
3887 208 209 210 0
-3888 211 212 213 214 0
-211 3888 0
-212 3888 0
-213 3888 0
-214 3888 0
3888 215 216 217 0
-3889 218 219 220 221 0
-218 3889 0
-219 3889 0
-220 3889 0
-221 3889 0
3889 222 223 224 0
-3890 225 226 227 228 0
-225 3890 0
-226 3890 0
-227 3890 0
-228 3890 0
3890 229 230 231 0
-3891 232 233 234 235 0
-232 3891 0
-233 3891 0
-234 3891 0
-235 3891 0
3891 236 237 238 0
-3892 239 240 241 242 0
-239 3892 0
-240 3892 0
-241 3892 0
-242 3892 0
3892 243 244 245 0
-3886 3893 0
-3894 0
-3895 0
-3896 0
-3887 3897 0
-3893 3897 0
-3887 -3893 3898 0
-3894 3898 0
-3887 -3894 3899 0
-3895 3899 0
-3887 -3895 3900 0
-3896 3900 0
-3887 -3896 0
-3888 3901 0
-3897 3901 0
-3888 -3897 3902 0
-3898 3902 0
-3888 -3898 3903 0
-3899 3903 0
-3888 -3899 3904 0
-3900 3904 0
-3888 -3900 0
-3889 3905 0
-3901 3905 0
-3889 -3901 3906 0
-3902 3906 0
-3889 -3902 3907 0
-3903 3907 0
-3889 -3903 3908 0
-3904 3908 0
-3889 -3904 0
-3890 3909 0
-3905 3909 0
-3890 -3905 3910 0
-3906 3910 0
-3890 -3906 3911 0
-3907 3911 0
-3890 -3907 3912 0
-3908 3912 0
-3890 -3908 0
-3891 3913 0
-3909 3913 0
-3891 -3909 3914 0
-3910 3914 0
-3891 -3910 3915 0
-3911 3915 0
-3891 -3911 3916 0
-3912 3916 0
-3891 -3912 0
-3892 -3916 0
-3921 197 198 199 200 201 0
-197 3921 0
-198 3921 0
-199 3921 0
-200 3921 0
-201 3921 0
3921 202 203 0
-3922 204 205 206 207 208 0
-204 3922 0
-205 3922 0
-206 3922 0
-207 3922 0
-208 3922 0
3922 209 210 0
-3923 211 212 213 214 215 0
-211 3923 0
-212 3923 0
-213 3923 0
-214 3923 0
-215 3923 0
3923 216 217 0
-3924 218 219 220 221 222 0
-218 3924 0
-219 3924 0
-220 3924 0
-221 3924 0
-222 3924 0
3924 223 224 0
-3925 225 226 227 228 229 0
-225 3925 0
-226 3925 0
-227 3925 0
-228 3925 0
-229 3925 0
3925 230 231 0
-3926 232 233 234 235 236 0
-232 3926 0
-233 3926 0
-234 3926 0
-235 3926 0
-236 3926 0
3926 237 238 0
-3927 239 240 241 242 243 0
-239 3927 0
-240 3927 0
-241 3927 0
-242 3927 0
-243 3927 0
3927 244 245 0
-3921 3928 0
-3929 0
-3930 0
-3931 0
-3932 0
-3922 3933 0
-3928 3933 0
-3922 -3928 3934 0
-3929 3934 0
-3922 -3929 3935 0
-3930 3935 0
-3922 -3930 3936 0
-3931 3936 0
-3922 -3931 3937 0
-3932 3937 0
-3922 -3932 0
-3923 3938 0
-3933 3938 0
-3923 -3933 3939 0
-3934 3939 0
-3923 -3934 3940 0
-3935 3940 0
-3923 -3935 3941 0
-3936 3941 0
-3923 -3936 3942 0
-3937 3942 0
-3923 -3937 0
-3924 3943 0
-3938 3943 0
-3924 -3938 3944 0
-3939 3944 0
-3924 -3939 3945 0
-3940 3945 0
-3924 -3940 3946 0
-3941 3946 0
-3924 -3941 3947 0
-3942 3947 0
-3924 -3942 0
-3925 3948 0
-3943 3948 0
-3925 -3943 3949 0
-3944 3949 0
-3925 -3944 3950 0
-3945 3950 0
-3925 -3945 3951 0
-3946 3951 0
-3925 -3946 3952 0
-3947 3952 0
-3925 -3947 0
-3926 3953 0
-3948 3953 0
-3926 -3948 3954 0
-3949 3954 0
-3926 -3949 3955 0
-3950 3955 0
-3926 -3950 3956 0
-3951 3956 0
-3926 -3951 3957 0
-3952 3957 0
-3926 -3952 0
-3927 -3957 0
-3963 197 198 199 200 201 202 0
-197 3963 0
-198 3963 0
-199 3963 0
-200 3963 0
-201 3963 0
-202 3963 0
3963 203 0
-3964 204 205 206 207 208 209 0
-204 3964 0
-205 3964 0
-206 3964 0
-207 3964 0
-208 3964 0
-209 3964 0
3964 210 0
-3965 211 212 213 214 215 216 0
-211 3965 0
-212 3965 0
-213 3965 0
-214 3965 0
-215 3965 0
-216 3965 0
3965 217 0
-3966 218 219 220 221 222 223 0
-218 3966 0
-219 3966 0
-220 3966 0
-221 3966 0
-222 3966 0
-223 3966 0
3966 224 0
-3967 225 226 227 228 229 230 0
-225 3967 0
-226 3967 0
-227 3967 0
-228 3967 0
-229 3967 0
-230 3967 0
3967 231 0
-3968 232 233 234 235 236 237 0
-232 3968 0
-233 3968 0
-234 3968 0
-235 3968 0
-236 3968 0
-237 3968 0
3968 238 0
-3969 239 240 241 242 243 244 0
-239 3969 0
-240 3969 0
-241 3969 0
-242 3969 0
-243 3969 0
-244 3969 0
3969 245 0
-3963 3970 0
-3971 0
-3972 0
-3973 0
-3974 0
-3975 0
-3964 3976 0
-3970 3976 0
-3964 -3970 3977 0
-3971 3977 0
-3964 -3971 3978 0
-3972 3978 0
-3964 -3972 3979 0
-3973 3979 0
-3964 -3973 3980 0
-3974 3980 0
-3964 -3974 3981 0
-3975 3981 0
-3964 -3975 0
-3965 3982 0
-3976 3982 0
-3965 -3976 3983 0
-3977 3983 0
-3965 -3977 3984 0
-3978 3984 0
-3965 -3978 3985 0
-3979 3985 0
-3965 -3979 3986 0
-3980 3986 0
-3965 -3980 3987 0
-3981 3987 0
-3965 -3981 0
-3966 3988 0
-3982 3988 0
-3966 -3982 3989 0
-3983 3989 0
-3966 -3983 3990 0
-3984 3990 0
-3966 -3984 3991 0
-3985 3991 0
-3966 -3985 3992 0
-3986 3992 0
-3966 -3986 3993 0
-3987 3993 0
-3966 -3987 0
-3967 3994 0
-3988 3994 0
-3967 -3988 3995 0
-3989 3995 0
-3967 -3989 3996 0
-3990 3996 0
-3967 -3990 3997 0
-3991 3997 0
-3967 -3991 3998 0
-3992 3998 0
-3967 -3992 3999 0
-3993 3999 0
-3967 -3993 0
-3968 4000 0
-3994 4000 0
-3968 -3994 4001 0
-3995 4001 0
-3968 -3995 4002 0
-3996 4002 0
-3968 -3996 4003 0
-3997 4003 0
-3968 -3997 4004 0
-3998 4004 0
-3968 -3998 4005 0
-3999 4005 0
-3968 -3999 0
-3969 -4005 0
-4012 197 198 199 200 201 202 203 0
-197 4012 0
-198 4012 0
-199 4012 0
-200 4012 0
-201 4012 0
-202 4012 0
-203 4012 0
4012 0
-4013 204 205 206 207 208 209 210 0
-204 4013 0
-205 4013 0
-206 4013 0
-207 4013 0
-208 4013 0
-209 4013 0
-210 4013 0
4013 0
-4014 211 212 213 214 215 216 217 0
-211 4014 0
-212 4014 0
-213 4014 0
-214 4014 0
-215 4014 0
-216 4014 0
-217 4014 0
4014 0
-4015 218 219 220 221 222 223 224 0
-218 4015 0
-219 4015 0
-220 4015 0
-221 4015 0
-222 4015 0
-223 4015 0
-224 4015 0
4015 0
-4016 225 226 227 228 229 230 231 0
-225 4016 0
-226 4016 0
-227 4016 0
-228 4016 0
-229 4016 0
-230 4016 0
-231 4016 0
4016 0
-4017 232 233 234 235 236 237 238 0
-232 4017 0
-233 4017 0
-234 4017 0
-235 4017 0
-236 4017 0
-237 4017 0
-238 4017 0
4017 0
-4018 239 240 241 242 243 244 245 0
-239 4018 0
-240 4018 0
-241 4018 0
-242 4018 0
-243 4018 0
-244 4018 0
-245 4018 0
4018 0
-4019 198 0
-198 4019 0
4019 197 199 200 201 202 203 0
-4020 205 0
-205 4020 0
4020 204 206 207 208 209 210 0
-4021 212 0
-212 4021 0
4021 211 213 214 215 216 217 0
-4022 219 0
-219 4022 0
4022 218 220 221 222 223 224 0
-4023 226 0
-226 4023 0
4023 225 227 228 229 230 231 0
-4024 233 0
-233 4024 0
4024 232 234 235 236 237 238 0
-4025 240 0
-240 4025 0
4025 239 241 242 243 244 245 0
-4019 4026 0
-4020 4027 0
-4026 4027 0
-4020 -4026 0
-4021 4028 0
-4027 4028 0
-4021 -4027 0
-4022 4029 0
-4028 4029 0
-4022 -4028 0
-4023 4030 0
-4029 4030 0
-4023 -4029 0
-4024 4031 0
-4030 4031 0
-4024 -4030 0
-4025 -4031 0
-4033 198 199 0
-198 4033 0
-199 4033 0
4033 197 200 201 202 203 0
-4034 205 206 0
-205 4034 0
-206 4034 0
4034 204 207 208 209 210 0
-4035 212 213 0
-212 4035 0
-213 4035 0
4035 211 214 215 216 217 0
-4036 219 220 0
-219 4036 0
-220 4036 0
4036 218 221 222 223 224 0
-4037 226 227 0
-226 4037 0
-227 4037 0
4037 225 228 229 230 231 0
-4038 233 234 0
-233 4038 0
-234 4038 0
4038 232 235 236 237 238 0
-4039 240 241 0
-240 4039 0
-241 4039 0
4039 239 242 243 244 245 0
-4033 4040 0
-4041 0
-4034 4042 0
-4040 4042 0
-4034 -4040 4043 0
-4041 4043 0
-4034 -4041 0
-4035 4044 0
-4042 4044 0
-4035 -4042 4045 0
-4043 4045 0
-4035 -4043 0
-4036 4046 0
-4044 4046 0
-4036 -4044 4047 0
-4045 4047 0
-4036 -4045 0
-4037 4048 0
-4046 4048 0
-4037 -4046 4049 0
-4047 4049 0
-4037 -4047 0
-4038 4050 0
-4048 4050 0
-4038 -4048 4051 0
-4049 4051 0
-4038 -4049 0
-4039 -4051 0
-4054 198 199 200 0
-198 4054 0
-199 4054 0
-200 4054 0
4054 197 201 202 203 0
-4055 205 206 207 0
-205 4055 0
-206 4055 0
-207 4055 0
4055 204 208 209 210 0
-4056 212 213 214 0
-212 4056 0
-213 4056 0
-214 4056 0
4056 211 215 216 217 0
-4057 219 220 221 0
-219 4057 0
-220 4057 0
-221 4057 0
4057 218 222 223 224 0
-4058 226 227 228 0
-226 4058 0
-227 4058 0
-228 4058 0
4058 225 229 230 231 0
-4059 233 234 235 0
-233 4059 0
-234 4059 0
-235 4059 0
4059 232 236 237 238 0
-4060 240 241 242 0
-240 4060 0
-241 4060 0
-242 4060 0
4060 239 243 244 245 0
-4054 4061 0
-4062 0
-4063 0
-4055 4064 0
-4061 4064 0
-4055 -4061 4065 0
-4062 4065 0
-4055 -4062 4066 0
-4063 4066 0
-4055 -4063 0
-4056 4067 0
-4064 4067 0
-4056 -4064 4068 0
-4065 4068 0
-4056 -4065 4069 0
-4066 4069 0
-4056 -4066 0
-4057 4070 0
-4067 4070 0
-4057 -4067 4071 0
-4068 4071 0
-4057 -4068 4072 0
-4069 4072 0
-4057 -4069 0
-4058 4073 0
-4070 4073 0
-4058 -4070 4074 0
-4071 4074 0
-4058 -4071 4075 0
-4072 4075 0
-4058 -4072 0
-4059 4076 0
-4073 4076 0
-4059 -4073 4077 0
-4074 4077 0
-4059 -4074 4078 0
-4075 4078 0
-4059 -4075 0
-4060 -4078 0
-4082 198 199 200 201 0
-198 4082 0
-199 4082 0
-200 4082 0
-201 4082 0
4082 197 202 203 0
-4083 205 206 207 208 0
-205 4083 0
-206 4083 0
-207 4083 0
-208 4083 0
4083 204 209 210 0
-4084 212 213 214 215 0
-212 4084 0
-213 4084 0
-214 4084 0
-215 4084 0
4084 211 216 217 0
-4085 219 220 221 222 0
-219 4085 0
-220 4085 0
-221 4085 0
-222 4085 0
4085 218 223 224 0
-4086 226 227 228 229 0
-226 4086 0
-227 4086 0
-228 4086 0
-229 4086 0
4086 225 230 231 0
-4087 233 234 235 236 0
-233 4087 0
-234 4087 0
-235 4087 0
-236 4087 0
4087 232 237 238 0
-4088 240 241 242 243 0
-240 4088 0
-241 4088 0
-242 4088 0
-243 4088 0
4088 239 244 245 0
-4082 4089 0
-4090 0
-4091 0
-4092 0
-4083 4093 0
-4089 4093 0
-4083 -4089 4094 0
-4090 4094 0
-4083 -4090 4095 0
-4091 4095 0
-4083 -4091 4096 0
-4092 4096 0
-4083 -4092 0
-4084 4097 0
-4093 4097 0
-4084 -4093 4098 0
-4094 4098 0
-4084 -4094 4099 0
-4095 4099 0
-4084 -4095 4100 0
-4096 4100 0
-4084 -4096 0
-4085 4101 0
-4097 4101 0
-4085 -4097 4102 0
-4098 4102 0
-4085 -4098 4103 0
-4099 4103 0
-4085 -4099 4104 0
-4100 4104 0
-4085 -4100 0
-4086 4105 0
-4101 4105 0
-4086 -4101 4106 0
-4102 4106 0
-4086 -4102 4107 0
-4103 4107 0
-4086 -4103 4108 0
-4104 4108 0
-4086 -4104 0
-4087 4109 0
-4105 4109 0
-4087 -4105 4110 0
-4106 4110 0
-4087 -4106 4111 0
-4107 4111 0
-4087 -4107 4112 0
-4108 4112 0
-4087 -4108 0
-4088 -4112 0
-4117 198 199 200 201 202 0
-198 4117 0
-199 4117 0
-200 4117 0
-201 4117 0
-202 4117 0
4117 197 203 0
-4118 205 206 207 208 209 0
-205 4118 0
-206 4118 0
-207 4118 0
-208 4118 0
-209 4118 0
4118 204 210 0
-4119 212 213 214 215 216 0
-212 4119 0
-213 4119 0
-214 4119 0
-215 4119 0
-216 4119 0
4119 211 217 0
-4120 219 220 221 222 223 0
-219 4120 0
-220 4120 0
-221 4120 0
-222 4120 0
-223 4120 0
4120 218 224 0
-4121 226 227 228 229 230 0
-226 4121 0
-227 4121 0
-228 4121 0
-229 4121 0
-230 4121 0
4121 225 231 0
-4122 233 234 235 236 237 0
-233 4122 0
-234 4122 0
-235 4122 0
-236 4122 0
-237 4122 0
4122 232 238 0
-4123 240 241 242 243 244 0
-240 4123 0
-241 4123 0
-242 4123 0
-243 4123 0
-244 4123 0
4123 239 245 0
-4117 4124 0
-4125 0
-4126 0
-4127 0
-4128 0
-4118 4129 0
-4124 4129 0
-4118 -4124 4130 0
-4125 4130 0
-4118 -4125 4131 0
-4126 4131 0
-4118 -4126 4132 0
-4127 4132 0
-4118 -4127 4133 0
-4128 4133 0
-4118 -4128 0
-4119 4134 0
-4129 4134 0
-4119 -4129 4135 0
-4130 4135 0
-4119 -4130 4136 0
-4131 4136 0
-4119 -4131 4137 0
-4132 4137 0
-4119 -4132 4138 0
-4133 4138 0
-4119 -4133 0
-4120 4139 0
-4134 4139 0
-4120 -4134 4140 0
-4135 4140 0
-4120 -4135 4141 0
-4136 4141 0
-4120 -4136 4142 0
-4137 4142 0
-4120 -4137 4143 0
-4138 4143 0
-4120 -4138 0
-4121 4144 0
-4139 4144 0
-4121 -4139 4145 0
-4140 4145 0
-4121 -4140 4146 0
-4141 4146 0
-4121 -4141 4147 0
-4142 4147 0
-4121 -4142 4148 0
-4143 4148 0
-4121 -4143 0
-4122 4149 0
-4144 4149 0
-4122 -4144 4150 0
-4145 4150 0
-4122 -4145 4151 0
-4146 4151 0
-4122 -4146 4152 0
-4147 4152 0
-4122 -4147 4153 0
-4148 4153 0
-4122 -4148 0
-4123 -4153 0
-4159 198 199 200 201 202 203 0
-198 4159 0
-199 4159 0
-200 4159 0
-201 4159 0
-202 4159 0
-203 4159 0
4159 197 0
-4160 205 206 207 208 209 210 0
-205 4160 0
-206 4160 0
-207 4160 0
-208 4160 0
-209 4160 0
-210 4160 0
4160 204 0
-4161 212 213 214 215 216 217 0
-212 4161 0
-213 4161 0
-214 4161 0
-215 4161 0
-216 4161 0
-217 4161 0
4161 211 0
-4162 219 220 221 222 223 224 0
-219 4162 0
-220 4162 0
-221 4162 0
-222 4162 0
-223 4162 0
-224 4162 0
4162 218 0
-4163 226 227 228 229 230 231 0
-226 4163 0
-227 4163 0
-228 4163 0
-229 4163 0
-230 4163 0
-231 4163 0
4163 225 0
-4164 233 234 235 236 237 238 0
-233 4164 0
-234 4164 0
-235 4164 0
-236 4164 0
-237 4164 0
-238 4164 0
4164 232 0
-4165 240 241 242 243 244 245 0
-240 4165 0
-241 4165 0
-242 4165 0
-243 4165 0
-244 4165 0
-245 4165 0
4165 239 0
-4159 4166 0
-4167 0
-4168 0
-4169 0
-4170 0
-4171 0
-4160 4172 0
-4166 4172 0
-4160 -4166 4173 0
-4167 4173 0
-4160 -4167 4174 0
-4168 4174 0
-4160 -4168 4175 0
-4169 4175 0
-4160 -4169 4176 0
-4170 4176 0
-4160 -4170 4177 0
-4171 4177 0
-4160 -4171 0
-4161 4178 0
-4172 4178 0
-4161 -4172 4179 0
-4173 4179 0
-4161 -4173 4180 0
-4174 4180 0
-4161 -4174 4181 0
-4175 4181 0
-4161 -4175 4182 0
-4176 4182 0
-4161 -4176 4183 0
-4177 4183 0
-4161 -4177 0
-4162 4184 0
-4178 4184 0
-4162 -4178 4185 0
-4179 4185 0
-4162 -4179 4186 0
-4180 4186 0
-4162 -4180 4187 0
-4181 4187 0
-4162 -4181 4188 0
-4182 4188 0
-4162 -4182 4189 0
-4183 4189 0
-4162 -4183 0
-4163 4190 0
-4184 4190 0
-4163 -4184 4191 0
-4185 4191 0
-4163 -4185 4192 0
-4186 4192 0
-4163 -4186 4193 0
-4187 4193 0
-4163 -4187 4194 0
-4188 4194 0
-4163 -4188 4195 0
-4189 4195 0
-4163 -4189 0
-4164 4196 0
-4190 4196 0
-4164 -4190 4197 0
-4191 4197 0
-4164 -4191 4198 0
-4192 4198 0
-4164 -4192 4199 0
-4193 4199 0
-4164 -4193 4200 0
-4194 4200 0
-4164 -4194 4201 0
-4195 4201 0
-4164 -4195 0
-4165 -4201 0
-4208 199 0
-199 4208 0
4208 197 198 200 201 202 203 0
-4209 206 0
-206 4209 0
4209 204 205 207 208 209 210 0
-4210 213 0
-213 4210 0
4210 211 212 214 215 216 217 0
-4211 220 0
-220 4211 0
4211 218 219 221 222 223 224 0
-4212 227 0
-227 4212 0
4212 225 226 228 229 230 231 0
-4213 234 0
-234 4213 0
4213 232 233 235 236 237 238 0
-4214 241 0
-241 4214 0
4214 239 240 242 243 244 245 0
-4208 4215 0
-4209 4216 0
-4215 4216 0
-4209 -4215 0
-4210 4217 0
-4216 4217 0
-4210 -4216 0
-4211 4218 0
-4217 4218 0
-4211 -4217 0
-4212 4219 0
-4218 4219 0
-4212 -4218 0
-4213 4220 0
-4219 4220 0
-4213 -4219 0
-4214 -4220 0
-4222 199 200 0
-199 4222 0
-200 4222 0
4222 197 198 201 202 203 0
-4223 206 207 0
-206 4223 0
-207 4223 0
4223 204 205 208 209 210 0
-4224 213 214 0
-213 4224 0
-214 4224 0
4224 211 212 215 216 217 0
-4225 220 221 0
-220 4225 0
-221 4225 0
4225 218 219 222 223 224 0
-4226 227 228 0
-227 4226 0
-228 4226 0
4226 225 226 229 230 231 0
-4227 234 235 0
-234 4227 0
-235 4227 0
4227 232 233 236 237 238 0
-4228 241 242 0
-241 4228 0
-242 4228 0
4228 239 240 243 244 245 0
-4222 4229 0
-4230 0
-4223 4231 0
-4229 4231 0
-4223 -4229 4232 0
-4230 4232 0
-4223 -4230 0
-4224 4233 0
-4231 4233 0
-4224 -4231 4234 0
-4232 4234 0
-4224 -4232 0
-4225 4235 0
-4233 4235 0
-4225 -4233 4236 0
-4234 4236 0
-4225 -4234 0
-4226 4237 0
-4235 4237 0
-4226 -4235 4238 0
-4236 4238 0
-4226 -4236 0
-4227 4239 0
-4237 4239 0
-4227 -4237 4240 0
-4238 4240 0
-4227 -4238 0
-4228 -4240 0
-4243 199 200 201 0
-199 4243 0
-200 4243 0
-201 4243 0
4243 197 198 202 203 0
-4244 206 207 208 0
-206 4244 0
-207 4244 0
-208 4244 0
4244 204 205 209 210 0
-4245 213 214 215 0
-213 4245 0
-214 4245 0
-215 4245 0
4245 211 212 216 217 0
-4246 220 221 222 0
-220 4246 0
-221 4246 0
-222 4246 0
4246 218 219 223 224 0
-4247 227 228 229 0
-227 4247 0
-228 4247 0
-229 4247 0
4247 225 226 230 231 0
-4248 234 235 236 0
-234 4248 0
-235 4248 0
-236 4248 0
4248 232 233 237 238 0
-4249 241 242 243 0
-241 4249 0
-242 4249 0
-243 4249 0
4249 239 240 244 245 0
-4243 4250 0
-4251 0
-4252 0
-4244 4253 0
-4250 4253 0
-4244 -4250 4254 0
-4251 4254 0
-4244 -4251 4255 0
-4252 4255 0
-4244 -4252 0
-4245 4256 0
-4253 4256 0
-4245 -4253 4257 0
-4254 4257 0
-4245 -4254 4258 0
-4255 4258 0
-4245 -4255 0
-4246 4259 0
-4256 4259 0
-4246 -4256 4260 0
-4257 4260 0
-4246 -4257 4261 0
-4258 4261 0
-4246 -4258 0
-4247 4262 0
-4259 4262 0
-4247 -4259 4263 0
-4260 4263 0
-4247 -4260 4264 0
-4261 4264 0
-4247 -4261 0
-4248 4265 0
-4262 4265 0
-4248 -4262 4266 0
-4263 4266 0
-4248 -4263 4267 0
-4264 4267 0
-4248 -4264 0
-4249 -4267 0
-4271 199 200 201 202 0
-199 4271 0
-200 4271 0
-201 4271 0
-202 4271 0
4271 197 198 203 0
-4272 206 207 208 209 0
-206 4272 0
-207 4272 0
-208 4272 0
-209 4272 0
4272 204 205 210 0
-4273 213 214 215 216 0
-213 4273 0
-214 4273 0
-215 4273 0
-216 4273 0
4273 211 212 217 0
-4274 220 221 222 223 0
-220 4274 0
-221 4274 0
-222 4274 0
-223 4274 0
4274 218 219 224 0
-4275 227 228 229 230 0
-227 4275 0
-228 4275 0
-229 4275 0
-230 4275 0
4275 225 226 231 0
-4276 234 235 236 237 0
-234 4276 0
-235 4276 0
-236 4276 0
-237 4276 0
4276 232 233 238 0
-4277 241 242 243 244 0
-241 4277 0
-242 4277 0
-243 4277 0
-244 4277 0
4277 239 240 245 0
-4271 4278 0
-4279 0
-4280 0
-4281 0
-4272 4282 0
-4278 4282 0
-4272 -4278 4283 0
-4279 4283 0
-4272 -4279 4284 0
-4280 4284 0
-4272 -4280 4285 0
-4281 4285 0
-4272 -4281 0
-4273 4286 0
-4282 4286 0
-4273 -4282 4287 0
-4283 4287 0
-4273 -4283 4288 0
-4284 4288 0
-4273 -4284 4289 0
-4285 4289 0
-4273 -4285 0
-4274 4290 0
-4286 4290 0
-4274 -4286 4291 0
-4287 4291 0
-4274 -4287 4292 0
-4288 4292 0
-4274 -4288 4293 0
-4289 4293 0
-4274 -4289 0
-4275 4294 0
-4290 4294 0
-4275 -4290 4295 0
-4291 4295 0
-4275 -4291 4296 0
-4292 4296 0
-4275 -4292 4297 0
-4293 4297 0
-4275 -4293 0
-4276 4298 0
-4294 4298 0
-4276 -4294 4299 0
-4295 4299 0
-4276 -4295 4300 0
-4296 4300 0
-4276 -4296 4301 0
-4297 4301 0
-4276 -4297 0
-4277 -4301 0
-4306 199 200 201 202 203 0
-199 4306 0
-200 4306 0
-201 4306 0
-202 4306 0
-203 4306 0
4306 197 198 0
-4307 206 207 208 209 210 0
-206 4307 0
-207 4307 0
-208 4307 0
-209 4307 0
-210 4307 0
4307 204 205 0
-4308 213 214 215 216 217 0
-213 4308 0
-214 4308 0
-215 4308 0
-216 4308 0
-217 4308 0
4308 211 212 0
-4309 220 221 222 223 224 0
-220 4309 0
-221 4309 0
-222 4309 0
-223 4309 0
-224 4309 0
4309 218 219 0
-4310 227 228 229 230 231 0
-227 4310 0
-228 4310 0
-229 4310 0
-230 4310 0
-231 4310 0
4310 225 226 0
-4311 234 235 236 237 238 0
-234 4311 0
-235 4311 0
-236 4311 0
-237 4311 0
-238 4311 0
4311 232 233 0
-4312 241 242 243 244 245 0
-241 4312 0
-242 4312 0
-243 4312 0
-244 4312 0
-245 4312 0
4312 239 240 0
-4306 4313 0
-4314 0
-4315 0
-4316 0
-4317 0
-4307 4318 0
-4313 4318 0
-4307 -4313 4319 0
-4314 4319 0
-4307 -4314 4320 0
-4315 4320 0
-4307 -4315 4321 0
-4316 4321 0
-4307 -4316 4322 0
-4317 4322 0
-4307 -4317 0
-4308 4323 0
-4318 4323 0
-4308 -4318 4324 0
-4319 4324 0
-4308 -4319 4325 0
-4320 4325 0
-4308 -4320 4326 0
-4321 4326 0
-4308 -4321 4327 0
-4322 4327 0
-4308 -4322 0
-4309 4328 0
-4323 4328 0
-4309 -4323 4329 0
-4324 4329 0
-4309 -4324 4330 0
-4325 4330 0
-4309 -4325 4331 0
-4326 4331 0
-4309 -4326 4332 0
-4327 4332 0
-4309 -4327 0
-4310 4333 0
-4328 4333 0
-4310 -4328 4334 0
-4329 4334 0
-4310 -4329 4335 0
-4330 4335 0
-4310 -4330 4336 0
-4331 4336 0
-4310 -4331 4337 0
-4332 4337 0
-4310 -4332 0
-4311 4338 0
-4333 4338 0
-4311 -4333 4339 0
-4334 4339 0
-4311 -4334 4340 0
-4335 4340 0
-4311 -4335 4341 0
-4336 4341 0
-4311 -4336 4342 0
-4337 4342 0
-4311 -4337 0
-4312 -4342 0
-4348 200 0
-200 4348 0
4348 197 198 199 201 202 203 0
-4349 207 0
-207 4349 0
4349 204 205 206 208 209 210 0
-4350 214 0
-214 4350 0
4350 211 212 213 215 216 217 0
-4351 221 0
-221 4351 0
4351 218 219 220 222 223 224 0
-4352 228 0
-228 4352 0
4352 225 226 227 229 230 231 0
-4353 235 0
-235 4353 0
4353 232 233 234 236 237 238 0
-4354 242 0
-242 4354 0
4354 239 240 241 243 244 245 0
-4348 4355 0
-4349 4356 0
-4355 4356 0
-4349 -4355 0
-4350 4357 0
-4356 4357 0
-4350 -4356 0
-4351 4358 0
-4357 4358 0
-4351 -4357 0
-4352 4359 0
-4358 4359 0
-4352 -4358 0
-4353 4360 0
-4359 4360 0
-4353 -4359 0
-4354 -4360 0
-4362 200 201 0
-200 4362 0
-201 4362 0
4362 197 198 199 202 203 0
-4363 207 208 0
-207 4363 0
-208 4363 0
4363 204 205 206 209 210 0
-4364 214 215 0
-214 4364 0
-215 4364 0
4364 211 212 213 216 217 0
-4365 221 222 0
-221 4365 0
-222 4365 0
4365 218 219 220 223 224 0
-4366 228 229 0
-228 4366 0
-229 4366 0
4366 225 226 227 230 231 0
-4367 235 236 0
-235 4367 0
-236 4367 0
4367 232 233 234 237 238 0
-4368 242 243 0
-242 4368 0
-243 4368 0
4368 239 240 241 244 245 0
-4362 4369 0
-4370 0
-4363 4371 0
-4369 4371 0
-4363 -4369 4372 0
-4370 4372 0
-4363 -4370 0
-4364 4373 0
-4371 4373 0
-4364 -4371 4374 0
-4372 4374 0
-4364 -4372 0
-4365 4375 0
-4373 4375 0
-4365 -4373 4376 0
-4374 4376 0
-4365 -4374 0
-4366 4377 0
-4375 4377 0
-4366 -4375 4378 0
-4376 4378 0
-4366 -4376 0
-4367 4379 0
-4377 4379 0
-4367 -4377 4380 0
-4378 4380 0
-4367 -4378 0
-4368 -4380 0
-4383 200 201 202 0
-200 4383 0
-201 4383 0
-202 4383 0
4383 197 198 199 203 0
-4384 207 208 209 0
-207 4384 0
-208 4384 0
-209 4384 0
4384 204 205 206 210 0
-4385 214 215 216 0
-214 4385 0
-215 4385 0
-216 4385 0
4385 211 212 213 217 0
-4386 221 222 223 0
-221 4386 0
-222 4386 0
-223 4386 0
4386 218 219 220 224 0
-4387 228 229 230 0
-228 4387 0
-229 4387 0
-230 4387 0
4387 225 226 227 231 0
-4388 235 236 237 0
-235 4388 0
-236 4388 0
-237 4388 0
4388 232 233 234 238 0
-4389 242 243 244 0
-242 4389 0
-243 4389 0
-244 4389 0
4389 239 240 241 245 0
-4383 4390 0
-4391 0
-4392 0
-4384 4393 0
-4390 4393 0
-4384 -4390 4394 0
-4391 4394 0
-4384 -4391 4395 0
-4392 4395 0
-4384 -4392 0
-4385 4396 0
-4393 4396 0
-4385 -4393 4397 0
-4394 4397 0
-4385 -4394 4398 0
-4395 4398 0
-4385 -4395 0
-4386 4399 0
-4396 4399 0
-4386 -4396 4400 0
-4397 4400 0
-4386 -4397 4401 0
-4398 4401 0
-4386 -4398 0
-4387 4402 0
-4399 4402 0
-4387 -4399 4403 0
-4400 4403 0
-4387 -4400 4404 0
-4401 4404 0
-4387 -4401 0
-4388 4405 0
-4402 4405 0
-4388 -4402 4406 0
-4403 4406 0
-4388 -4403 4407 0
-4404 4407 0
-4388 -4404 0
-4389 -4407 0
-4411 200 201 202 203 0
-200 4411 0
-201 4411 0
-202 4411 0
-203 4411 0
4411 197 198 199 0
-4412 207 208 209 210 0
-207 4412 0
-208 4412 0
-209 4412 0
-210 4412 0
4412 204 205 206 0
-4413 214 215 216 217 0
-214 4413 0
-215 4413 0
-216 4413 0
-217 4413 0
4413 211 212 213 0
-4414 221 222 223 224 0
-221 4414 0
-222 4414 0
-223 4414 0
-224 4414 0
4414 218 219 220 0
-4415 228 229 230 231 0
-228 4415 0
-229 4415 0
-230 4415 0
-231 4415 0
4415 225 226 227 0
-4416 235 236 237 238 0
-235 4416 0
-236 4416 0
-237 4416 0
-238 4416 0
4416 232 233 234 0
-4417 242 243 244 245 0
-242 4417 0
-243 4417 0
-244 4417 0
-245 4417 0
4417 239 240 241 0
-4411 4418 0
-4419 0
-4420 0
-4421 0
-4412 4422 0
-4418 4422 0
-4412 -4418 4423 0
-4419 4423 0
-4412 -4419 4424 0
-4420 4424 0
-4412 -4420 4425 0
-4421 4425 0
-4412 -4421 0
-4413 4426 0
-4422 4426 0
-4413 -4422 4427 0
-4423 4427 0
-4413 -4423 4428 0
-4424 4428 0
-4413 -4424 4429 0
-4425 4429 0
-4413 -4425 0
-4414 4430 0
-4426 4430 0
-4414 -4426 4431 0
-4427 4431 0
-4414 -4427 4432 0
-4428 4432 0
-4414 -4428 4433 0
-4429 4433 0
-4414 -4429 0
-4415 4434 0
-4430 4434 0
-4415 -4430 4435 0
-4431 4435 0
-4415 -4431 4436 0
-4432 4436 0
-4415 -4432 4437 0
-4433 4437 0
-4415 -4433 0
-4416 4438 0
-4434 4438 0
-4416 -4434 4439 0
-4435 4439 0
-4416 -4435 4440 0
-4436 4440 0
-4416 -4436 4441 0
-4437 4441 0
-4416 -4437 0
-4417 -4441 0
-4446 201 0
-201 4446 0
4446 197 198 199 200 202 203 0
-4447 208 0
-208 4447 0
4447 204 205 206 207 209 210 0
-4448 215 0
-215 4448 0
4448 211 212 213 214 216 217 0
-4449 222 0
-222 4449 0
4449 218 219 220 221 223 224 0
-4450 229 0
-229 4450 0
4450 225 226 227 228 230 231 0
-4451 236 0
-236 4451 0
4451 232 233 234 235 237 238 0
-4452 243 0
-243 4452 0
4452 239 240 241 242 244 245 0
-4446 4453 0
-4447 4454 0
-4453 4454 0
-4447 -4453 0
-4448 4455 0
-4454 4455 0
-4448 -4454 0
-4449 4456 0
-4455 4456 0
-4449 -4455 0
-4450 4457 0
-4456 4457 0
-4450 -4456 0
-4451 4458 0
-4457 4458 0
-4451 -4457 0
-4452 -4458 0
-4460 201 202 0
-201 4460 0
-202 4460 0
4460 197 198 199 200 203 0
-4461 208 209 0
-208 4461 0
-209 4461 0
4461 204 205 206 207 210 0
-4462 215 216 0
-215 4462 0
-216 4462 0
4462 211 212 213 214 217 0
-4463 222 223 0
-222 4463 0
-223 4463 0
4463 218 219 220 221 224 0
-4464 229 230 0
-229 4464 0
-230 4464 0
4464 225 226 227 228 231 0
-4465 236 237 0
-236 4465 0
-237 4465 0
4465 232 233 234 235 238 0
-4466 243 244 0
-243 4466 0
-244 4466 0
4466 239 240 241 242 245 0
-4460 4467 0
-4468 0
-4461 4469 0
-4467 4469 0
-4461 -4467 4470 0
-4468 4470 0
-4461 -4468 0
-4462 4471 0
-4469 4471 0
-4462 -4469 4472 0
-4470 4472 0
-4462 -4470 0
-4463 4473 0
-4471 4473 0
-4463 -4471 4474 0
-4472 4474 0
-4463 -4472 0
-4464 4475 0
-4473 4475 0
-4464 -4473 4476 0
-4474 4476 0
-4464 -4474 0
-4465 4477 0
-4475 4477 0
-4465 -4475 4478 0
-4476 4478 0
-4465 -4476 0
-4466 -4478 0
-4481 201 202 203 0
-201 4481 0
-202 4481 0
-203 4481 0
4481 197 198 199 200 0
-4482 208 209 210 0
-208 4482 0
-209 4482 0
-210 4482 0
4482 204 205 206 207 0
-4483 215 216 217 0
-215 4483 0
-216 4483 0
-217 4483 0
4483 211 212 213 214 0
-4484 222 223 224 0
-222 4484 0
-223 4484 0
-224 4484 0
4484 218 219 220 221 0
-4485 229 230 231 0
-229 4485 0
-230 4485 0
-231 4485 0
4485 225 226 227 228 0
-4486 236 237 238 0
-236 4486 0
-237 4486 0
-238 4486 0
4486 232 233 234 235 0
-4487 243 244 245 0
-243 4487 0
-244 4487 0
-245 4487 0
4487 239 240 241 242 0
-4481 4488 0
-4489 0
-4490 0
-4482 4491 0
-4488 4491 0
-4482 -4488 4492 0
-4489 4492 0
-4482 -4489 4493 0
-4490 4493 0
-4482 -4490 0
-4483 4494 0
-4491 4494 0
-4483 -4491 4495 0
-4492 4495 0
-4483 -4492 4496 0
-4493 4496 0
-4483 -4493 0
-4484 4497 0
-4494 4497 0
-4484 -4494 4498 0
-4495 4498 0
-4484 -4495 4499 0
-4496 4499 0
-4484 -4496 0
-4485 4500 0
-4497 4500 0
-4485 -4497 4501 0
-4498 4501 0
-4485 -4498 4502 0
-4499 4502 0
-4485 -4499 0
-4486 4503 0
-4500 4503 0
-4486 -4500 4504 0
-4501 4504 0
-4486 -4501 4505 0
-4502 4505 0
-4486 -4502 0
-4487 -4505 0
-4509 202 0
-202 4509 0
4509 197 198 199 200 201 203 0
-4510 209 0
-209 4510 0
4510 204 205 206 207 208 210 0
-4511 216 0
-216 4511 0
4511 211 212 213 214 215 217 0
-4512 223 0
-223 4512 0
4512 218 219 220 221 222 224 0
-4513 230 0
-230 4513 0
4513 225 226 227 228 229 231 0
-4514 237 0
-237 4514 0
4514 232 233 234 235 236 238 0
-4515 244 0
-244 4515 0
4515 239 240 241 242 243 245 0
-4509 4516 0
-4510 4517 0
-4516 4517 0
-4510 -4516 0
-4511 4518 0
-4517 4518 0
-4511 -4517 0
-4512 4519 0
-4518 4519 0
-4512 -4518 0
-4513 4520 0
-4519 4520 0
-4513 -4519 0
-4514 4521 0
-4520 4521 0
-4514 -4520 0
-4515 -4521 0
-4523 202 203 0
-202 4523 0
-203 4523 0
4523 197 198 199 200 201 0
-4524 209 210 0
-209 4524 0
-210 4524 0
4524 204 205 206 207 208 0
-4525 216 217 0
-216 4525 0
-217 4525 0
4525 211 212 213 214 215 0
-4526 223 224 0
-223 4526 0
-224 4526 0
4526 218 219 220 221 222 0
-4527 230 231 0
-230 4527 0
-231 4527 0
4527 225 226 227 228 229 0
-4528 237 238 0
-237 4528 0
-238 4528 0
4528 232 233 234 235 236 0
-4529 244 245 0
-244 4529 0
-245 4529 0
4529 239 240 241 242 243 0
-4523 4530 0
-4531 0
-4524 4532 0
-4530 4532 0
-4524 -4530 4533 0
-4531 4533 0
-4524 -4531 0
-4525 4534 0
-4532 4534 0
-4525 -4532 4535 0
-4533 4535 0
-4525 -4533 0
-4526 4536 0
-4534 4536 0
-4526 -4534 4537 0
-4535 4537 0
-4526 -4535 0
-4527 4538 0
-4536 4538 0
-4527 -4536 4539 0
-4537 4539 0
-4527 -4537 0
-4528 4540 0
-4538 4540 0
-4528 -4538 4541 0
-4539 4541 0
-4528 -4539 0
-4529 -4541 0
-4544 203 0
-203 4544 0
4544 197 198 199 200 201 202 0
-4545 210 0
-210 4545 0
4545 204 205 206 207 208 209 0
-4546 217 0
-217 4546 0
4546 211 212 213 214 215 216 0
-4547 224 0
-224 4547 0
4547 218 219 220 221 222 223 0
-4548 231 0
-231 4548 0
4548 225 226 227 228 229 230 0
-4549 238 0
-238 4549 0
4549 232 233 234 235 236 237 0
-4550 245 0
-245 4550 0
4550 239 240 241 242 243 244 0
-4544 4551 0
-4545 4552 0
-4551 4552 0
-4545 -4551 0
-4546 4553 0
-4552 4553 0
-4546 -4552 0
-4547 4554 0
-4553 4554 0
-4547 -4553 0
-4548 4555 0
-4554 4555 0
-4548 -4554 0
-4549 4556 0
-4555 4556 0
-4549 -4555 0
-4550 -4556 0
-197 4558 0
-204 4559 0
-4558 4559 0
-204 -4558 0
-211 4560 0
-4559 4560 0
-211 -4559 0
-218 4561 0
-4560 4561 0
-218 -4560 0
-225 4562 0
-4561 4562 0
-225 -4561 0
-232 4563 0
-4562 4563 0
-232 -4562 0
-239 -4563 0
197 204 211 218 225 232 239 0
-198 4565 0
-205 4566 0
-4565 4566 0
-205 -4565 0
-212 4567 0
-4566 4567 0
-212 -4566 0
-219 4568 0
-4567 4568 0
-219 -4567 0
-226 4569 0
-4568 4569 0
-226 -4568 0
-233 4570 0
-4569 4570 0
-233 -4569 0
-240 -4570 0
198 205 212 219 226 233 240 0
-199 4572 0
-206 4573 0
-4572 4573 0
-206 -4572 0
-213 4574 0
-4573 4574 0
-213 -4573 0
-220 4575 0
-4574 4575 0
-220 -4574 0
-227 4576 0
-4575 4576 0
-227 -4575 0
-234 4577 0
-4576 4577 0
-234 -4576 0
-241 -4577 0
199 206 213 220 227 234 241 0
-200 4579 0
-207 4580 0
-4579 4580 0
-207 -4579 0
-214 4581 0
-4580 4581 0
-214 -4580 0
-221 4582 0
-4581 4582 0
-221 -4581 0
-228 4583 0
-4582 4583 0
-228 -4582 0
-235 4584 0
-4583 4584 0
-235 -4583 0
-242 -4584 0
200 207 214 221 228 235 242 0
-201 4586 0
-208 4587 0
-4586 4587 0
-208 -4586 0
-215 4588 0
-4587 4588 0
-215 -4587 0
-222 4589 0
-4588 4589 0
-222 -4588 0
-229 4590 0
-4589 4590 0
-229 -4589 0
-236 4591 0
-4590 4591 0
-236 -4590 0
-243 -4591 0
201 208 215 222 229 236 243 0
-202 4593 0
-209 4594 0
-4593 4594 0
-209 -4593 0
-216 4595 0
-4594 4595 0
-216 -4594 0
-223 4596 0
-4595 4596 0
-223 -4595 0
-230 4597 0
-4596 4597 0
-230 -4596 0
-237 4598 0
-4597 4598 0
-237 -4597 0
-244 -4598 0
202 209 216 223 230 237 244 0
-203 4600 0
-210 4601 0
-4600 4601 0
-210 -4600 0
-217 4602 0
-4601 4602 0
-217 -4601 0
-224 4603 0
-4602 4603 0
-224 -4602 0
-231 4604 0
-4603 4604 0
-231 -4603 0
-238 4605 0
-4604 4605 0
-238 -4604 0
-245 -4605 0
203 210 217 224 231 238 245 0
-4607 246 0
-246 4607 0
4607 247 248 249 250 251 252 0
-4608 253 0
-253 4608 0
4608 254 255 256 257 258 259 0
-4609 260 0
-260 4609 0
4609 261 262 263 264 265 266 0
-4610 267 0
-267 4610 0
4610 268 269 270 271 272 273 0
-4611 274 0
-274 4611 0
4611 275 276 277 278 279 280 0
-4612 281 0
-281 4612 0
4612 282 283 284 285 286 287 0
-4613 288 0
-288 4613 0
4613 289 290 291 292 293 294 0
-4607 4614 0
-4608 4615 0
-4614 4615 0
-4608 -4614 0
-4609 4616 0
-4615 4616 0
-4609 -4615 0
-4610 4617 0
-4616 4617 0
-4610 -4616 0
-4611 4618 0
-4617 4618 0
-4611 -4617 0
-4612 4619 0
-4618 4619 0
-4612 -4618 0
-4613 -4619 0
-4621 246 247 0
-246 4621 0
-247 4621 0
4621 248 249 250 251 252 0
-4622 253 254 0
-253 4622 0
-254 4622 0
4622 255 256 257 258 259 0
-4623 260 261 0
-260 4623 0
-261 4623 0
4623 262 263 264 265 266 0
-4624 267 268 0
-267 4624 0
-268 4624 0
4624 269 270 271 272 273 0
-4625 274 275 0
-274 4625 0
-275 4625 0
4625 276 277 278 279 280 0
-4626 281 282 0
-281 4626 0
-282 4626 0
4626 283 284 285 286 287 0
-4627 288 289 0
-288 4627 0
-289 4627 0
4627 290 291 292 293 294 0
-4621 4628 0
-4629 0
-4622 4630 0
-4628 4630 0
-4622 -4628 4631 0
-4629 4631 0
-4622 -4629 0
-4623 4632 0
-4630 4632 0
-4623 -4630 4633 0
-4631 4633 0
-4623 -4631 0
-4624 4634 0
-4632 4634 0
-4624 -4632 4635 0
-4633 4635 0
-4624 -4633 0
-4625 4636 0
-4634 4636 0
-4625 -4634 4637 0
-4635 4637 0
-4625 -4635 0
-4626 4638 0
-4636 4638 0
-4626 -4636 4639 0
-4637 4639 0
-4626 -4637 0
-4627 -4639 0
-4642 246 247 248 0
-246 4642 0
-247 4642 0
-248 4642 0
4642 249 250 251 252 0
-4643 253 254 255 0
-253 4643 0
-254 4643 0
-255 4643 0
4643 256 257 258 259 0
-4644 260 261 262 0
-260 4644 0
-261 4644 0
-262 4644 0
4644 263 264 265 266 0
-4645 267 268 269 0
-267 4645 0
-268 4645 0
-269 4645 0
4645 270 271 272 273 0
-4646 274 275 276 0
-274 4646 0
-275 4646 0
-276 4646 0
4646 277 278 279 280 0
-4647 281 282 283 0
-281 4647 0
-282 4647 0
-283 4647 0
4647 284 285 286 287 0
-4648 288 289 290 0
-288 4648 0
-289 4648 0
-290 4648 0
4648 291 292 293 294 0
-4642 4649 0
-4650 0
-4651 0
-4643 4652 0
-4649 4652 0
-4643 -4649 4653 0
-4650 4653 0
-4643 -4650 4654 0
-4651 4654 0
-4643 -4651 0
-4644 4655 0
-4652 4655 0
-4644 -4652 4656 0
-4653 4656 0
-4644 -4653 4657 0
-4654 4657 0
-4644 -4654 0
-4645 4658 0
-4655 4658 0
-4645 -4655 4659 0
-4656 4659 0
-4645 -4656 4660 0
-4657 4660 0
-4645 -4657 0
-4646 4661 0
-4658 4661 0
-4646 -4658 4662 0
-4659 4662 0
-4646 -4659 4663 0
-4660 4663 0
-4646 -4660 0
-4647 4664 0
-4661 4664 0
-4647 -4661 4665 0
-4662 4665 0
-4647 -4662 4666 0
-4663 4666 0
-4647 -4663 0
-4648 -4666 0
-4670 246 247 248 249 0
-246 4670 0
-247 4670 0
-248 4670 0
-249 4670 0
4670 250 251 252 0
-4671 253 254 255 256 0
-253 4671 0
-254 4671 0
-255 4671 0
-256 4671 0
4671 257 258 259 0
-4672 260 261 262 263 0
-260 4672 0
-261 4672 0
-262 4672 0
-263 4672 0
4672 264 265 266 0
-4673 267 268 269 270 0
-267 4673 0
-268 4673 0
-269 4673 0
-270 4673 0
4673 271 272 273 0
-4674 274 275 276 277 0
-274 4674 0
-275 4674 0
-276 4674 0
-277 4674 0
4674 278 279 280 0
-4675 281 282 283 284 0
-281 4675 0
-282 4675 0
-283 4675 0
-284 4675 0
4675 285 286 287 0
-4676 288 289 290 291 0
-288 4676 0
-289 4676 0
-290 4676 0
-291 4676 0
4676 292 293 294 0
-4670 4677 0
-4678 0
-4679 0
-4680 0
-4671 4681 0
-4677 4681 0
-4671 -4677 4682 0
-4678 4682 0
-4671 -4678 4683 0
-4679 4683 0
-4671 -4679 4684 0
-4680 4684 0
-4671 -4680 0
-4672 4685 0
-4681 4685 0
-4672 -4681 4686 0
-4682 4686 0
-4672 -4682 4687 0
-4683 4687 0
-4672 -4683 4688 0
-4684 4688 0
-4672 -4684 0
-4673 4689 0
-4685 4689 0
-4673 -4685 4690 0
-4686 4690 0
-4673 -4686 4691 0
-4687 4691 0
-4673 -4687 4692 0
-4688 4692 0
-4673 -4688 0
-4674 4693 0
-4689 4693 0
-4674 -4689 4694 0
-4690 4694 0
-4674 -4690 4695 0
-4691 4695 0
-4674 -4691 4696 0
-4692 4696 0
-4674 -4692 0
-4675 4697 0
-4693 4697 0
-4675 -4693 4698 0
-4694 4698 0
-4675 -4694 4699 0
-4695 4699 0
-4675 -4695 4700 0
-4696 4700 0
-4675 -4696 0
-4676 -4700 0
-4705 246 247 248 249 250 0
-246 4705 0
-247 4705 0
-248 4705 0
-249 4705 0
-250 4705 0
4705 251 252 0
-4706 253 254 255 256 257 0
-253 4706 0
-254 4706 0
-255 4706 0
-256 4706 0
-257 4706 0
4706 258 259 0
-4707 260 261 262 263 264 0
-260 4707 0
-261 4707 0
-262 4707 0
-263 4707 0
-264 4707 0
4707 265 266 0
-4708 267 268 269 270 271 0
-267 4708 0
-268 4708 0
-269 4708 0
-270 4708 0
-271 4708 0
4708 272 273 0
-4709 274 275 276 277 278 0
-274 4709 0
-275 4709 0
-276 4709 0
-277 4709 0
-278 4709 0
4709 279 280 0
-4710 281 282 283 284 285 0
-281 4710 0
-282 4710 0
-283 4710 0
-284 4710 0
-285 4710 0
4710 286 287 0
-4711 288 289 290 291 292 0
-288 4711 0
-289 4711 0
-290 4711 0
-291 4711 0
-292 4711 0
4711 293 294 0
-4705 4712 0
-4713 0
-4714 0
-4715 0
-4716 0
-4706 4717 0
-4712 4717 0
-4706 -4712 4718 0
-4713 4718 0
-4706 -4713 4719 0
-4714 4719 0
-4706 -4714 4720 0
-4715 4720 0
-4706 -4715 4721 0
-4716 4721 0
-4706 -4716 0
-4707 4722 0
-4717 4722 0
-4707 -4717 4723 0
-4718 4723 0
-4707 -4718 4724 0
-4719 4724 0
-4707 -4719 4725 0
-4720 4725 0
-4707 -4720 4726 0
-4721 4726 0
-4707 -4721 0
-4708 4727 0
-4722 4727 0
-4708 -4722 4728 0
-4723 4728 0
-4708 -4723 4729 0
-4724 4729 0
-4708 -4724 4730 0
-4725 4730 0
-4708 -4725 4731 0
-4726 4731 0
-4708 -4726 0
-4709 4732 0
-4727 4732 0
-4709 -4727 4733 0
-4728 4733 0
-4709 -4728 4734 0
-4729 4734 0
-4709 -4729 4735 0
-4730 4735 0
-4709 -4730 4736 0
-4731 4736 0
-4709 -4731 0
-4710 4737 0
-4732 4737 0
-4710 -4732 4738 0
-4733 4738 0
-4710 -4733 4739 0
-4734 4739 0
-4710 -4734 4740 0
-4735 4740 0
-4710 -4735 4741 0
-4736 4741 0
-4710 -4736 0
-4711 -4741 0
-4747 246 247 248 249 250 251 0
-246 4747 0
-247 4747 0
-248 4747 0
-249 4747 0
-250 4747 0
-251 4747 0
4747 252 0
-4748 253 254 255 256 257 258 0
-253 4748 0
-254 4748 0
-255 4748 0
-256 4748 0
-257 4748 0
-258 4748 0
4748 259 0
-4749 260 261 262 263 264 265 0
-260 4749 0
-261 4749 0
-262 4749 0
-263 4749 0
-264 4749 0
-265 4749 0
4749 266 0
-4750 267 268 269 270 271 272 0
-267 4750 0
-268 4750 0
-269 4750 0
-270 4750 0
-271 4750 0
-272 4750 0
4750 273 0
-4751 274 275 276 277 278 279 0
-274 4751 0
-275 4751 0
-276 4751 0
-277 4751 0
-278 4751 0
-279 4751 0
4751 280 0
-4752 281 282 283 284 285 286 0
-281 4752 0
-282 4752 0
-283 4752 0
-284 4752 0
-285 4752 0
-286 4752 0
4752 287 0
-4753 288 289 290 291 292 293 0
-288 4753 0
-289 4753 0
-290 4753 0
-291 4753 0
-292 4753 0
-293 4753 0
4753 294 0
-4747 4754 0
-4755 0
-4756 0
-4757 0
-4758 0
-4759 0
-4748 4760 0
-4754 4760 0
-4748 -4754 4761 0
-4755 4761 0
-4748 -4755 4762 0
-4756 4762 0
-4748 -4756 4763 0
-4757 4763 0
-4748 -4757 4764 0
-4758 4764 0
-4748 -4758 4765 0
-4759 4765 0
-4748 -4759 0
-4749 4766 0
-4760 4766 0
-4749 -4760 4767 0
-4761 4767 0
-4749 -4761 4768 0
-4762 4768 0
-4749 -4762 4769 0
-4763 4769 0
-4749 -4763 4770 0
-4764 4770 0
-4749 -4764 4771 0
-4765 4771 0
-4749 -4765 0
-4750 4772 0
-4766 4772 0
-4750 -4766 4773 0
-4767 4773 0
-4750 -4767 4774 0
-4768 4774 0
-4750 -4768 4775 0
-4769 4775 0
-4750 -4769 4776 0
-4770 4776 0
-4750 -4770 4777 0
-4771 4777 0
-4750 -4771 0
-4751 4778 0
-4772 4778 0
-4751 -4772 4779 0
-4773 4779 0
-4751 -4773 4780 0
-4774 4780 0
-4751 -4774 4781 0
-4775 4781 0
-4751 -4775 4782 0
-4776 4782 0
-4751 -4776 4783 0
-4777 4783 0
-4751 -4777 0
-4752 4784 0
-4778 4784 0
-4752 -4778 4785 0
-4779 4785 0
-4752 -4779 4786 0
-4780 4786 0
-4752 -4780 4787 0
-4781 4787 0
-4752 -4781 4788 0
-4782 4788 0
-4752 -4782 4789 0
-4783 4789 0
-4752 -4783 0
-4753 -4789 0
-4796 246 247 248 249 250 251 252 0
-246 4796 0
-247 4796 0
-248 4796 0
-249 4796 0
-250 4796 0
-251 4796 0
-252 4796 0
4796 0
-4797 253 254 255 256 257 258 259 0
-253 4797 0
-254 4797 0
-255 4797 0
-256 4797 0
-257 4797 0
-258 4797 0
-259 4797 0
4797 0
-4798 260 261 262 263 264 265 266 0
-260 4798 0
-261 4798 0
-262 4798 0
-263 4798 0
-264 4798 0
-265 4798 0
-266 4798 0
4798 0
-4799 267 268 269 270 271 272 273 0
-267 4799 0
-268 4799 0
-269 4799 0
-270 4799 0
-271 4799 0
-272 4799 0
-273 4799 0
4799 0
-4800 274 275 276 277 278 279 280 0
-274 4800 0
-275 4800 0
-276 4800 0
-277 4800 0
-278 4800 0
-279 4800 0
-280 4800 0
4800 0
-4801 281 282 283 284 285 286 287 0
-281 4801 0
-282 4801 0
-283 4801 0
-284 4801 0
-285 4801 0
-286 4801 0
-287 4801 0
4801 0
-4802 288 289 290 291 292 293 294 0
-288 4802 0
-289 4802 0
-290 4802 0
-291 4802 0
-292 4802 0
-293 4802 0
-294 4802 0
4802 0
-4803 247 0
-247 4803 0
4803 246 248 249 250 251 252 0
-4804 254 0
-254 4804 0
4804 253 255 256 257 258 259 0
-4805 261 0
-261 4805 0
4805 260 262 263 264 265 266 0
-4806 268 0
-268 4806 0
4806 267 269 270 271 272 273 0
-4807 275 0
-275 4807 0
4807 274 276 277 278 279 280 0
-4808 282 0
-282 4808 0
4808 281 283 284 285 286 287 0
-4809 289 0
-289 4809 0
4809 288 290 291 292 293 294 0
-4803 4810 0
-4804 4811 0
-4810 4811 0
-4804 -4810 0
-4805 4812 0
-4811 4812 0
-4805 -4811 0
-4806 4813 0
-4812 4813 0
-4806 -4812 0
-4807 4814 0
-4813 4814 0
-4807 -4813 0
-4808 4815 0
-4814 4815 0
-4808 -4814 0
-4809 -4815 0
-4817 247 248 0
-247 4817 0
-248 4817 0
4817 246 249 250 251 252 0
-4818 254 255 0
-254 4818 0
-255 4818 0
4818 253 256 257 258 259 0
-4819 261 262 0
-261 4819 0
-262 4819 0
4819 260 263 264 265 266 0
-4820 268 269 0
-268 4820 0
-269 4820 0
4820 267 270 271 272 273 0
-4821 275 276 0
-275 4821 0
-276 4821 0
4821 274 277 278 279 280 0
-4822 282 283 0
-282 4822 0
-283 4822 0
4822 281 284 285 286 287 0
-4823 289 290 0
-289 4823 0
-290 4823 0
4823 288 291 292 293 294 0
-4817 4824 0
-4825 0
-4818 4826 0
-4824 4826 0
-4818 -4824 4827 0
-4825 4827 0
-4818 -4825 0
-4819 4828 0
-4826 4828 0
-4819 -4826 4829 0
-4827 4829 0
-4819 -4827 0
-4820 4830 0
-4828 4830 0
-4820 -4828 4831 0
-4829 4831 0
-4820 -4829 0
-4821 4832 0
-4830 4832 0
-4821 -4830 4833 0
-4831 4833 0
-4821 -4831 0
-4822 4834 0
-4832 4834 0
-4822 -4832 4835 0
-4833 4835 0
-4822 -4833 0
-4823 -4835 0
-4838 247 248 249 0
-247 4838 0
-248 4838 0
-249 4838 0
4838 246 250 251 252 0
-4839 254 255 256 0
-254 4839 0
-255 4839 0
-256 4839 0
4839 253 257 258 259 0
-4840 261 262 263 0
-261 4840 0
-262 4840 0
-263 4840 0
4840 260 264 265 266 0
-4841 268 269 270 0
-268 4841 0
-269 4841 0
-270 4841 0
4841 267 271 272 273 0
-4842 275 276 277 0
-275 4842 0
-276 4842 0
-277 4842 0
4842 274 278 279 280 0
-4843 282 283 284 0
-282 4843 0
-283 4843 0
-284 4843 0
4843 281 285 286 287 0
-4844 289 290 291 0
-289 4844 0
-290 4844 0
-291 4844 0
4844 288 292 293 294 0
-4838 4845 0
-4846 0
-4847 0
-4839 4848 0
-4845 4848 0
-4839 -4845 4849 0
-4846 4849 0
-4839 -4846 4850 0
-4847 4850 0
-4839 -4847 0
-4840 4851 0
-4848 4851 0
-4840 -4848 4852 0
-4849 4852 0
-4840 -4849 4853 0
-4850 4853 0
-4840 -4850 0
-4841 4854 0
-4851 4854 0
-4841 -4851 4855 0
-4852 4855 0
-4841 -4852 4856 0
-4853 4856 0
-4841 -4853 0
-4842 4857 0
-4854 4857 0
-4842 -4854 4858 0
-4855 4858 0
-4842 -4855 4859 0
-4856 4859 0
-4842 -4856 0
-4843 4860 0
-4857 4860 0
-4843 -4857 4861 0
-4858 4861 0
-4843 -4858 4862 0
-4859 4862 0
-4843 -4859 0
-4844 -4862 0
-4866 247 248 249 250 0
-247 4866 0
-248 4866 0
-249 4866 0
-250 4866 0
4866 246 251 252 0
-4867 254 255 256 257 0
-254 4867 0
-255 4867 0
-256 4867 0
-257 4867 0
4867 253 258 259 0
-4868 261 262 263 264 0
-261 4868 0
-262 4868 0
-263 4868 0
-264 4868 0
4868 260 265 266 0
-4869 268 269 270 271 0
-268 4869 0
-269 4869 0
-270 4869 0
-271 4869 0
4869 267 272 273 0
-4870 275 276 277 278 0
-275 4870 0
-276 4870 0
-277 4870 0
-278 4870 0
4870 274 279 280 0
-4871 282 283 284 285 0
-282 4871 0
-283 4871 0
-284 4871 0
-285 4871 0
4871 281 286 287 0
-4872 289 290 291 292 0
-289 4872 0
-290 4872 0
-291 4872 0
-292 4872 0
4872 288 293 294 0
-4866 4873 0
-4874 0
-4875 0
-4876 0
-4867 4877 0
-4873 4877 0
-4867 -4873 4878 0
-4874 4878 0
-4867 -4874 4879 0
-4875 4879 0
-4867 -4875 4880 0
-4876 4880 0
-4867 -4876 0
-4868 4881 0
-4877 4881 0
-4868 -4877 4882 0
-4878 4882 0
-4868 -4878 4883 0
-4879 4883 0
-4868 -4879 4884 0
-4880 4884 0
-4868 -4880 0
-4869 4885 0
-4881 4885 0
-4869 -4881 4886 0
-4882 4886 0
-4869 -4882 4887 0
-4883 4887 0
-4869 -4883 4888 0
-4884 4888 0
-4869 -4884 0
-4870 4889 0
-4885 4889 0
-4870 -4885 4890 0
-4886 4890 0
-4870 -4886 4891 0
-4887 4891 0
-4870 -4887 4892 0
-4888 4892 0
-4870 -4888 0
-4871 4893 0
-4889 4893 0
-4871 -4889 4894 0
-4890 4894 0
-4871 -4890 4895 0
-4891 4895 0
-4871 -4891 4896 0
-4892 4896 0
-4871 -4892 0
-4872 -4896 0
-4901 247 248 249 250 251 0
-247 4901 0
-248 4901 0
-249 4901 0
-250 4901 0
-251 4901 0
4901 246 252 0
-4902 254 255 256 257 258 0
-254 4902 0
-255 4902 0
-256 4902 0
-257 4902 0
-258 4902 0
4902 253 259 0
-4903 261 262 263 264 265 0
-261 4903 0
-262 4903 0
-263 4903 0
-264 4903 0
-265 4903 0
4903 260 266 0
-4904 268 269 270 271 272 0
-268 4904 0
-269 4904 0
-270 4904 0
-271 4904 0
-272 4904 0
4904 267 273 0
-4905 275 276 277 278 279 0
-275 4905 0
-276 4905 0
-277 4905 0
-278 4905 0
-279 4905 0
4905 274 280 0
-4906 282 283 284 285 286 0
-282 4906 0
-283 4906 0
-284 4906 0
-285 4906 0
-286 4906 0
4906 281 287 0
-4907 289 290 291 292 293 0
-289 4907 0
-290 4907 0
-291 4907 0
-292 4907 0
-293 4907 0
4907 288 294 0
-4901 4908 0
-4909 0
-4910 0
-4911 0
-4912 0
-4902 4913 0
-4908 4913 0
-4902 -4908 4914 0
-4909 4914 0
-4902 -4909 4915 0
-4910 4915 0
-4902 -4910 4916 0
-4911 4916 0
-4902 -4911 4917 0
-4912 4917 0
-4902 -4912 0
-4903 4918 0
-4913 4918 0
-4903 -4913 4919 0
-4914 4919 0
-4903 -4914 4920 0
-4915 4920 0
-4903 -4915 4921 0
-4916 4921 0
-4903 -4916 4922 0
-4917 4922 0
-4903 -4917 0
-4904 4923 0
-4918 4923 0
-4904 -4918 4924 0
-4919 4924 0
-4904 -4919 4925 0
-4920 4925 0
-4904 -4920 4926 0
-4921 4926 0
-4904 -4921 4927 0
-4922 4927 0
-4904 -4922 0
-4905 4928 0
-4923 4928 0
-4905 -4923 4929 0
-4924 4929 0
-4905 -4924 4930 0
-4925 4930 0
-4905 -4925 4931 0
-4926 4931 0
-4905 -4926 4932 0
-4927 4932 0
-4905 -4927 0
-4906 4933 0
-4928 4933 0
-4906 -4928 4934 0
-4929 4934 0
-4906 -4929 4935 0
-4930 4935 0
-4906 -4930 4936 0
-4931 4936 0
-4906 -4931 4937 0
-4932 4937 0
-4906 -4932 0
-4907 -4937 0
-4943 247 248 249 250 251 252 0
-247 4943 0
-248 4943 0
-249 4943 0
-250 4943 0
-251 4943 0
-252 4943 0
4943 246 0
-4944 254 255 256 257 258 259 0
-254 4944 0
-255 4944 0
-256 4944 0
-257 4944 0
-258 4944 0
-259 4944 0
4944 253 0
-4945 261 262 263 264 265 266 0
-261 4945 0
-262 4945 0
-263 4945 0
-264 4945 0
-265 4945 0
-266 4945 0
4945 260 0
-4946 268 269 270 271 272 273 0
-268 4946 0
-269 4946 0
-270 4946 0
-271 4946 0
-272 4946 0
-273 4946 0
4946 267 0
-4947 275 276 277 278 279 280 0
-275 4947 0
-276 4947 0
-277 4947 0
-278 4947 0
-279 4947 0
-280 4947 0
4947 274 0
-4948 282 283 284 285 286 287 0
-282 4948 0
-283 4948 0
-284 4948 0
-285 4948 0
-286 4948 0
-287 4948 0
4948 281 0
-4949 289 290 291 292 293 294 0
-289 4949 0
-290 4949 0
-291 4949 0
-292 4949 0
-293 4949 0
-294 4949 0
4949 288 0
-4943 4950 0
-4951 0
-4952 0
-4953 0
-4954 0
-4955 0
-4944 4956 0
-4950 4956 0
-4944 -4950 4957 0
-4951 4957 0
-4944 -4951 4958 0
-4952 4958 0
-4944 -4952 4959 0
-4953 4959 0
-4944 -4953 4960 0
-4954 4960 0
-4944 -4954 4961 0
-4955 4961 0
-4944 -4955 0
-4945 4962 0
-4956 4962 0
-4945 -4956 4963 0
-4957 4963 0
-4945 -4957 4964 0
-4958 4964 0
-4945 -4958 4965 0
-4959 4965 0
-4945 -4959 4966 0
-4960 4966 0
-4945 -4960 4967 0
-4961 4967 0
-4945 -4961 0
-4946 4968 0
-4962 4968 0
-4946 -4962 4969 0
-4963 4969 0
-4946 -4963 4970 0
-4964 4970 0
-4946 -4964 4971 0
-4965 4971 0
-4946 -4965 4972 0
-4966 4972 0
-4946 -4966 4973 0
-4967 4973 0
-4946 -4967 0
-4947 4974 0
-4968 4974 0
-4947 -4968 4975 0
-4969 4975 0
-4947 -4969 4976 0
-4970 4976 0
-4947 -4970 4977 0
-4971 4977 0
-4947 -4971 4978 0
-4972 4978 0
-4947 -4972 4979 0
-4973 4979 0
-4947 -4973 0
-4948 4980 0
-4974 4980 0
-4948 -4974 4981 0
-4975 4981 0
-4948 -4975 4982 0
-4976 4982 0
-4948 -4976 4983 0
-4977 4983 0
-4948 -4977 4984 0
-4978 4984 0
-4948 -4978 4985 0
-4979 4985 0
-4948 -4979 0
-4949 -4985 0
-4992 248 0
-248 4992 0
4992 246 247 249 250 251 252 0
-4993 255 0
-255 4993 0
4993 253 254 256 257 258 259 0
-4994 262 0
-262 4994 0
4994 260 261 263 264 265 266 0
-4995 269 0
-269 4995 0
4995 267 268 270 271 272 273 0
-4996 276 0
-276 4996 0
4996 274 275 277 278 279 280 0
-4997 283 0
-283 4997 0
4997 281 282 284 285 286 287 0
-4998 290 0
-290 4998 0
4998 288 289 291 292 293 294 0
-4992 4999 0
-4993 5000 0
-4999 5000 0
-4993 -4999 0
-4994 5001 0
-5000 5001 0
-4994 -5000 0
-4995 5002 0
-5001 5002 0
-4995 -5001 0
-4996 5003 0
-5002 5003 0
-4996 -5002 0
-4997 5004 0
-5003 5004 0
-4997 -5003 0
-4998 -5004 0
-5006 248 249 0
-248 5006 0
-249 5006 0
5006 246 247 250 251 252 0
-5007 255 256 0
-255 5007 0
-256 5007 0
5007 253 254 257 258 259 0
-5008 262 263 0
-262 5008 0
-263 5008 0
5008 260 261 264 265 266 0
-5009 269 270 0
-269 5009 0
-270 5009 0
5009 267 268 271 272 273 0
-5010 276 277 0
-276 5010 0
-277 5010 0
5010 274 275 278 279 280 0
-5011 283 284 0
-283 5011 0
-284 5011 0
5011 281 282 285 286 287 0
-5012 290 291 0
-290 5012 0
-291 5012 0
5012 288 289 292 293 294 0
-5006 5013 0
-5014 0
-5007 5015 0
-5013 5015 0
-5007 -5013 5016 0
-5014 5016 0
-5007 -5014 0
-5008 5017 0
-5015 5017 0
-5008 -5015 5018 0
-5016 5018 0
-5008 -5016 0
-5009 5019 0
-5017 5019 0
-5009 -5017 5020 0
-5018 5020 0
-5009 -5018 0
-5010 5021 0
-5019 5021 0
-5010 -5019 5022 0
-5020 5022 0
-5010 -5020 0
-5011 5023 0
-5021 5023 0
-5011 -5021 5024 0
-5022 5024 0
-5011 -5022 0
-5012 -5024 0
-5027 248 249 250 0
-248 5027 0
-249 5027 0
-250 5027 0
5027 246 247 251 252 0
-5028 255 256 257 0
-255 5028 0
-256 5028 0
-257 5028 0
5028 253 254 258 259 0
-5029 262 263 264 0
-262 5029 0
-263 5029 0
-264 5029 0
5029 260 261 265 266 0
-5030 269 270 271 0
-269 5030 0
-270 5030 0
-271 5030 0
5030 267 268 272 273 0
-5031 276 277 278 0
-276 5031 0
-277 5031 0
-278 5031 0
5031 274 275 279 280 0
-5032 283 284 285 0
-283 5032 0
-284 5032 0
-285 5032 0
5032 281 282 286 287 0
-5033 290 291 292 0
-290 5033 0
-291 5033 0
-292 5033 0
5033 288 289 293 294 0
-5027 5034 0
-5035 0
-5036 0
-5028 5037 0
-5034 5037 0
-5028 -5034 5038 0
-5035 5038 0
-5028 -5035 5039 0
-5036 5039 0
-5028 -5036 0
-5029 5040 0
-5037 5040 0
-5029 -5037 5041 0
-5038 5041 0
-5029 -5038 5042 0
-5039 5042 0
-5029 -5039 0
-5030 5043 0
-5040 5043 0
-5030 -5040 5044 0
-5041 5044 0
-5030 -5041 5045 0
-5042 5045 0
-5030 -5042 0
-5031 5046 0
-5043 5046 0
-5031 -5043 5047 0
-5044 5047 0
-5031 -5044 5048 0
-5045 5048 0
-5031 -5045 0
-5032 5049 0
-5046 5049 0
-5032 -5046 5050 0
-5047 5050 0
-5032 -5047 5051 0
-5048 5051 0
-5032 -5048 0
-5033 -5051 0
-5055 248 249 250 251 0
-248 5055 0
-249 5055 0
-250 5055 0
-251 5055 0
5055 246 247 252 0
-5056 255 256 257 258 0
-255 5056 0
-256 5056 0
-257 5056 0
-258 5056 0
5056 253 254 259 0
-5057 262 263 264 265 0
-262 5057 0
-263 5057 0
-264 5057 0
-265 5057 0
5057 260 261 266 0
-5058 269 270 271 272 0
-269 5058 0
-270 5058 0
-271 5058 0
-272 5058 0
5058 267 268 273 0
-5059 276 277 278 279 0
-276 5059 0
-277 5059 0
-278 5059 0
-279 5059 0
5059 274 275 280 0
-5060 283 284 285 286 0
-283 5060 0
-284 5060 0
-285 5060 0
-286 5060 0
5060 281 282 287 0
-5061 290 291 292 293 0
-290 5061 0
-291 5061 0
-292 5061 0
-293 5061 0
5061 288 289 294 0
-5055 5062 0
-5063 0
-5064 0
-5065 0
-5056 5066 0
-5062 5066 0
-5056 -5062 5067 0
-5063 5067 0
-5056 -5063 5068 0
-5064 5068 0
-5056 -5064 5069 0
-5065 5069 0
-5056 -5065 0
-5057 5070 0
-5066 5070 0
-5057 -5066 5071 0
-5067 5071 0
-5057 -5067 5072 0
-5068 5072 0
-5057 -5068 5073 0
-5069 5073 0
-5057 -5069 0
-5058 5074 0
-5070 5074 0
-5058 -5070 5075 0
-5071 5075 0
-5058 -5071 5076 0
-5072 5076 0
-5058 -5072 5077 0
-5073 5077 0
-5058 -5073 0
-5059 5078 0
-5074 5078 0
-5059 -5074 5079 0
-5075 5079 0
-5059 -5075 5080 0
-5076 5080 0
-5059 -5076 5081 0
-5077 5081 0
-5059 -5077 0
-5060 5082 0
-5078 5082 0
-5060 -5078 5083 0
-5079 5083 0
-5060 -5079 5084 0
-5080 5084 0
-5060 -5080 5085 0
-5081 5085 0
-5060 -5081 0
-5061 -5085 0
-5090 248 249 250 251 252 0
-248 5090 0
-249 5090 0
-250 5090 0
-251 5090 0
-252 5090 0
5090 246 247 0
-5091 255 256 257 258 259 0
-255 5091 0
-256 5091 0
-257 5091 0
-258 5091 0
-259 5091 0
5091 253 254 0
-5092 262 263 264 265 266 0
-262 5092 0
-263 5092 0
-264 5092 0
-265 5092 0
-266 5092 0
5092 260 261 0
-5093 269 270 271 272 273 0
-269 5093 0
-270 5093 0
-271 5093 0
-272 5093 0
-273 5093 0
5093 267 268 0
-5094 276 277 278 279 280 0
-276 5094 0
-277 5094 0
-278 5094 0
-279 5094 0
-280 5094 0
5094 274 275 0
-5095 283 284 285 286 287 0
-283 5095 0
-284 5095 0
-285 5095 0
-286 5095 0
-287 5095 0
5095 281 282 0
-5096 290 291 292 293 294 0
-290 5096 0
-291 5096 0
-292 5096 0
-293 5096 0
-294 5096 0
5096 288 289 0
-5090 5097 0
-5098 0
-5099 0
-5100 0
-5101 0
-5091 5102 0
-5097 5102 0
-5091 -5097 5103 0
-5098 5103 0
-5091 -5098 5104 0
-5099 5104 0
-5091 -5099 5105 0
-5100 5105 0
-5091 -5100 5106 0
-5101 5106 0
-5091 -5101 0
-5092 5107 0
-5102 5107 0
-5092 -5102 5108 0
-5103 5108 0
-5092 -5103 5109 0
-5104 5109 0
-5092 -5104 5110 0
-5105 5110 0
-5092 -5105 5111 0
-5106 5111 0
-5092 -5106 0
-5093 5112 0
-5107 5112 0
-5093 -5107 5113 0
-5108 5113 0
-5093 -5108 5114 0
-5109 5114 0
-5093 -5109 5115 0
-5110 5115 0
-5093 -5110 5116 0
-5111 5116 0
-5093 -5111 0
-5094 5117 0
-5112 5117 0
-5094 -5112 5118 0
-5113 5118 0
-5094 -5113 5119 0
-5114 5119 0
-5094 -5114 5120 0
-5115 5120 0
-5094 -5115 5121 0
-5116 5121 0
-5094 -5116 0
-5095 5122 0
-5117 5122 0
-5095 -5117 5123 0
-5118 5123 0
-5095 -5118 5124 0
-5119 5124 0
-5095 -5119 5125 0
-5120 5125 0
-5095 -5120 5126 0
-5121 5126 0
-5095 -5121 0
-5096 -5126 0
-5132 249 0
-249 5132 0
5132 246 247 248 250 251 252 0
-5133 256 0
-256 5133 0
5133 253 254 255 257 258 259 0
-5134 263 0
-263 5134 0
5134 260 261 262 264 265 266 0
-5135 270 0
-270 5135 0
5135 267 268 269 271 272 273 0
-5136 277 0
-277 5136 0
5136 274 275 276 278 279 280 0
-5137 284 0
-284 5137 0
5137 281 282 283 285 286 287 0
-5138 291 0
-291 5138 0
5138 288 289 290 292 293 294 0
-5132 5139 0
-5133 5140 0
-5139 5140 0
-5133 -5139 0
-5134 5141 0
-5140 5141 0
-5134 -5140 0
-5135 5142 0
-5141 5142 0
-5135 -5141 0
-5136 5143 0
-5142 5143 0
-5136 -5142 0
-5137 5144 0
-5143 5144 0
-5137 -5143 0
-5138 -5144 0
-5146 249 250 0
-249 5146 0
-250 5146 0
5146 246 247 248 251 252 0
-5147 256 257 0
-256 5147 0
-257 5147 0
5147 253 254 255 258 259 0
-5148 263 264 0
-263 5148 0
-264 5148 0
5148 260 261 262 265 266 0
-5149 270 271 0
-270 5149 0
-271 5149 0
5149 267 268 269 272 273 0
-5150 277 278 0
-277 5150 0
-278 5150 0
5150 274 275 276 279 280 0
-5151 284 285 0
-284 5151 0
-285 5151 0
5151 281 282 283 286 287 0
-5152 291 292 0
-291 5152 0
-292 5152 0
5152 288 289 290 293 294 0
-5146 5153 0
-5154 0
-5147 5155 0
-5153 5155 0
-5147 -5153 5156 0
-5154 5156 0
-5147 -5154 0
-5148 5157 0
-5155 5157 0
-5148 -5155 5158 0
-5156 5158 0
-5148 -5156 0
-5149 5159 0
-5157 5159 0
-5149 -5157 5160 0
-5158 5160 0
-5149 -5158 0
-5150 5161 0
-5159 5161 0
-5150 -5159 5162 0
-5160 5162 0
-5150 -5160 0
-5151 5163 0
-5161 5163 0
-5151 -5161 5164 0
-5162 5164 0
-5151 -5162 0
-5152 -5164 0
-5167 249 250 251 0
-249 5167 0
-250 5167 0
-251 5167 0
5167 246 247 248 252 0
-5168 256 257 258 0
-256 5168 0
-257 5168 0
-258 5168 0
5168 253 254 255 259 0
-5169 263 264 265 0
-263 5169 0
-264 5169 0
-265 5169 0
5169 260 261 262 266 0
-5170 270 271 272 0
-270 5170 0
-271 5170 0
-272 5170 0
5170 267 268 269 273 0
-5171 277 278 279 0
-277 5171 0
-278 5171 0
-279 5171 0
5171 274 275 276 280 0
-5172 284 285 286 0
-284 5172 0
-285 5172 0
-286 5172 0
5172 281 282 283 287 0
-5173 291 292 293 0
-291 5173 0
-292 5173 0
-293 5173 0
5173 288 289 290 294 0
-5167 5174 0
-5175 0
-5176 0
-5168 5177 0
-5174 5177 0
-5168 -5174 5178 0
-5175 5178 0
-5168 -5175 5179 0
-5176 5179 0
-5168 -5176 0
-5169 5180 0
-5177 5180 0
-5169 -5177 5181 0
-5178 5181 0
-5169 -5178 5182 0
-5179 5182 0
-5169 -5179 0
-5170 5183 0
-5180 5183 0
-5170 -5180 5184 0
-5181 5184 0
-5170 -5181 5185 0
-5182 5185 0
-5170 -5182 0
-5171 5186 0
-5183 5186 0
-5171 -5183 5187 0
-5184 5187 0
-5171 -5184 5188 0
-5185 5188 0
-5171 -5185 0
-5172 5189 0
-5186 5189 0
-5172 -5186 5190 0
-5187 5190 0
-5172 -5187 5191 0
-5188 5191 0
-5172 -5188 0
-5173 -5191 0
-5195 249 250 251 252 0
-249 5195 0
-250 5195 0
-251 5195 0
-252 5195 0
5195 246 247 248 0
-5196 256 257 258 259 0
-256 5196 0
-257 5196 0
-258 5196 0
-259 5196 0
5196 253 254 255 0
-5197 263 264 265 266 0
-263 5197 0
-264 5197 0
-265 5197 0
-266 5197 0
5197 260 261 262 0
-5198 270 271 272 273 0
-270 5198 0
-271 5198 0
-272 5198 0
-273 5198 0
5198 267 268 269 0
-5199 277 278 279 280 0
-277 5199 0
-278 5199 0
-279 5199 0
-280 5199 0
5199 274 275 276 0
-5200 284 285 286 287 0
-284 5200 0
-285 5200 0
-286 5200 0
-287 5200 0
5200 281 282 283 0
-5201 291 292 293 294 0
-291 5201 0
-292 5201 0
-293 5201 0
-294 5201 0
5201 288 289 290 0
-5195 5202 0
-5203 0
-5204 0
-5205 0
-5196 5206 0
-5202 5206 0
-5196 -5202 5207 0
-5203 5207 0
-5196 -5203 5208 0
-5204 5208 0
-5196 -5204 5209 0
-5205 5209 0
-5196 -5205 0
-5197 5210 0
-5206 5210 0
-5197 -5206 5211 0
-5207 5211 0
-5197 -5207 5212 0
-5208 5212 0
-5197 -5208 5213 0
-5209 5213 0
-5197 -5209 0
-5198 5214 0
-5210 5214 0
-5198 -5210 5215 0
-5211 5215 0
-5198 -5211 5216 0
-5212 5216 0
-5198 -5212 5217 0
-5213 5217 0
-5198 -5213 0
-5199 5218 0
-5214 5218 0
-5199 -5214 5219 0
-5215 5219 0
-5199 -5215 5220 0
-5216 5220 0
-5199 -5216 5221 0
-5217 5221 0
-5199 -5217 0
-5200 5222 0
-5218 5222 0
-5200 -5218 5223 0
-5219 5223 0
-5200 -5219 5224 0
-5220 5224 0
-5200 -5220 5225 0
-5221 5225 0
-5200 -5221 0
-5201 -5225 0
-5230 250 0
-250 5230 0
5230 246 247 248 249 251 252 0
-5231 257 0
-257 5231 0
5231 253 254 255 256 258 259 0
-5232 264 0
-264 5232 0
5232 260 261 262 263 265 266 0
-5233 271 0
-271 5233 0
5233 267 268 269 270 272 273 0
-5234 278 0
-278 5234 0
5234 274 275 276 277 279 280 0
-5235 285 0
-285 5235 0
5235 281 282 283 284 286 287 0
-5236 292 0
-292 5236 0
5236 288 289 290 291 293 294 0
-5230 5237 0
-5231 5238 0
-5237 5238 0
-5231 -5237 0
-5232 5239 0
-5238 5239 0
-5232 -5238 0
-5233 5240 0
-5239 5240 0
-5233 -5239 0
-5234 5241 0
-5240 5241 0
-5234 -5240 0
-5235 5242 0
-5241 5242 0
-5235 -5241 0
-5236 -5242 0
-5244 250 251 0
-250 5244 0
-251 5244 0
5244 246 247 248 249 252 0
-5245 257 258 0
-257 5245 0
-258 5245 0
5245 253 254 255 256 259 0
-5246 264 265 0
-264 5246 0
-265 5246 0
5246 260 261 262 263 266 0
-5247 271 272 0
-271 5247 0
-272 5247 0
5247 267 268 269 270 273 0
-5248 278 279 0
-278 5248 0
-279 5248 0
5248 274 275 276 277 280 0
-5249 285 286 0
-285 5249 0
-286 5249 0
5249 281 282 283 284 287 0
-5250 292 293 0
-292 5250 0
-293 5250 0
5250 288 289 290 291 294 0
-5244 5251 0
-5252 0
-5245 5253 0
-5251 5253 0
-5245 -5251 5254 0
-5252 5254 0
-5245 -5252 0
-5246 5255 0
-5253 5255 0
-5246 -5253 5256 0
-5254 5256 0
-5246 -5254 0
-5247 5257 0
-5255 5257 0
-5247 -5255 5258 0
-5256 5258 0
-5247 -5256 0
-5248 5259 0
-5257 5259 0
-5248 -5257 5260 0
-5258 5260 0
-5248 -5258 0
-5249 5261 0
-5259 5261 0
-5249 -5259 5262 0
-5260 5262 0
-5249 -5260 0
-5250 -5262 0
-5265 250 251 252 0
-250 5265 0
-251 5265 0
-252 5265 0
5265 246 247 248 249 0
-5266 257 258 259 0
-257 5266 0
-258 5266 0
-259 5266 0
5266 253 254 255 256 0
-5267 264 265 266 0
-264 5267 0
-265 5267 0
-266 5267 0
5267 260 261 262 263 0
-5268 271 272 273 0
-271 5268 0
-272 5268 0
-273 5268 0
5268 267 268 269 270 0
-5269 278 279 280 0
-278 5269 0
-279 5269 0
-280 5269 0
5269 274 275 276 277 0
-5270 285 286 287 0
-285 5270 0
-286 5270 0
-287 5270 0
5270 281 282 283 284 0
-5271 292 293 294 0
-292 5271 0
-293 5271 0
-294 5271 0
5271 288 289 290 291 0
-5265 5272 0
-5273 0
-5274 0
-5266 5275 0
-5272 5275 0
-5266 -5272 5276 0
-5273 5276 0
-5266 -5273 5277 0
-5274 5277 0
-5266 -5274 0
-5267 5278 0
-5275 5278 0
-5267 -5275 5279 0
-5276 5279 0
-5267 -5276 5280 0
-5277 5280 0
-5267 -5277 0
-5268 5281 0
-5278 5281 0
-5268 -5278 5282 0
-5279 5282 0
-5268 -5279 5283 0
-5280 5283 0
-5268 -5280 0
-5269 5284 0
-5281 5284 0
-5269 -5281 5285 0
-5282 5285 0
-5269 -5282 5286 0
-5283 5286 0
-5269 -5283 0
-5270 5287 0
-5284 5287 0
-5270 -5284 5288 0
-5285 5288 0
-5270 -5285 5289 0
-5286 5289 0
-5270 -5286 0
-5271 -5289 0
-5293 251 0
-251 5293 0
5293 246 247 248 249 250 252 0
-5294 258 0
-258 5294 0
5294 253 254 255 256 257 259 0
-5295 265 0
-265 5295 0
5295 260 261 262 263 264 266 0
-5296 272 0
-272 5296 0
5296 267 268 269 270 271 273 0
-5297 279 0
-279 5297 0
5297 274 275 276 277 278 280 0
-5298 286 0
-286 5298 0
5298 281 282 283 284 285 287 0
-5299 293 0
-293 5299 0
5299 288 289 290 291 292 294 0
-5293 5300 0
-5294 5301 0
-5300 5301 0
-5294 -5300 0
-5295 5302 0
-5301 5302 0
-5295 -5301 0
-5296 5303 0
-5302 5303 0
-5296 -5302 0
-5297 5304 0
-5303 5304 0
-5297 -5303 0
-5298 5305 0
-5304 5305 0
-5298 -5304 0
-5299 -5305 0
-5307 251 252 0
-251 5307 0
-252 5307 0
5307 246 247 248 249 250 0
-5308 258 259 0
-258 5308 0
-259 5308 0
5308 253 254 255 256 257 0
-5309 265 266 0
-265 5309 0
-266 5309 0
5309 260 261 262 263 264 0
-5310 272 273 0
-272 5310 0
-273 5310 0
5310 267 268 269 270 271 0
-5311 279 280 0
-279 5311 0
-280 5311 0
5311 274 275 276 277 278 0
-5312 286 287 0
-286 5312 0
-287 5312 0
5312 281 282 283 284 285 0
-5313 293 294 0
-293 5313 0
-294 5313 0
5313 288 289 290 291 292 0
-5307 5314 0
-5315 0
-5308 5316 0
-5314 5316 0
-5308 -5314 5317 0
-5315 5317 0
-5308 -5315 0
-5309 5318 0
-5316 5318 0
-5309 -5316 5319 0
-5317 5319 0
-5309 -5317 0
-5310 5320 0
-5318 5320 0
-5310 -5318 5321 0
-5319 5321 0
-5310 -5319 0
-5311 5322 0
-5320 5322 0
-5311 -5320 5323 0
-5321 5323 0
-5311 -5321 0
-5312 5324 0
-5322 5324 0
-5312 -5322 5325 0
-5323 5325 0
-5312 -5323 0
-5313 -5325 0
-5328 252 0
-252 5328 0
5328 246 247 248 249 250 251 0
-5329 259 0
-259 5329 0
5329 253 254 255 256 257 258 0
-5330 266 0
-266 5330 0
5330 260 261 262 263 264 265 0
-5331 273 0
-273 5331 0
5331 267 268 269 270 271 272 0
-5332 280 0
-280 5332 0
5332 274 275 276 277 278 279 0
-5333 287 0
-287 5333 0
5333 281 282 283 284 285 286 0
-5334 294 0
-294 5334 0
5334 288 289 290 291 292 293 0
-5328 5335 0
-5329 5336 0
-5335 5336 0
-5329 -5335 0
-5330 5337 0
-5336 5337 0
-5330 -5336 0
-5331 5338 0
-5337 5338 0
-5331 -5337 0
-5332 5339 0
-5338 5339 0
-5332 -5338 0
-5333 5340 0
-5339 5340 0
-5333 -5339 0
-5334 -5340 0
-246 5342 0
-253 5343 0
-5342 5343 0
-253 -5342 0
-260 5344 0
-5343 5344 0
-260 -5343 0
-267 5345 0
-5344 5345 0
-267 -5344 0
-274 5346 0
-5345 5346 0
-274 -5345 0
-281 5347 0
-5346 5347 0
-281 -5346 0
-288 -5347 0
246 253 260 267 274 281 288 0
-247 5349 0
-254 5350 0
-5349 5350 0
-254 -5349 0
-261 5351 0
-5350 5351 0
-261 -5350 0
-268 5352 0
-5351 5352 0
-268 -5351 0
-275 5353 0
-5352 5353 0
-275 -5352 0
-282 5354 0
-5353 5354 0
-282 -5353 0
-289 -5354 0
247 254 261 268 275 282 289 0
-248 5356 0
-255 5357 0
-5356 5357 0
-255 -5356 0
-262 5358 0
-5357 5358 0
-262 -5357 0
-269 5359 0
-5358 5359 0
-269 -5358 0
-276 5360 0
-5359 5360 0
-276 -5359 0
-283 5361 0
-5360 5361 0
-283 -5360 0
-290 -5361 0
248 255 262 269 276 283 290 0
-249 5363 0
-256 5364 0
-5363 5364 0
-256 -5363 0
-263 5365 0
-5364 5365 0
-263 -5364 0
-270 5366 0
-5365 5366 0
-270 -5365 0
-277 5367 0
-5366 5367 0
-277 -5366 0
-284 5368 0
-5367 5368 0
-284 -5367 0
-291 -5368 0
249 256 263 270 277 284 291 0
-250 5370 0
-257 5371 0
-5370 5371 0
-257 -5370 0
-264 5372 0
-5371 5372 0
-264 -5371 0
-271 5373 0
-5372 5373 0
-271 -5372 0
-278 5374 0
-5373 5374 0
-278 -5373 0
-285 5375 0
-5374 5375 0
-285 -5374 0
-292 -5375 0
250 257 264 271 278 285 292 0
-251 5377 0
-258 5378 0
-5377 5378 0
-258 -5377 0
-265 5379 0
-5378 5379 0
-265 -5378 0
-272 5380 0
-5379 5380 0
-272 -5379 0
-279 5381 0
-5380 5381 0
-279 -5380 0
-286 5382 0
-5381 5382 0
-286 -5381 0
-293 -5382 0
251 258 265 272 279 286 293 0
-252 5384 0
-259 5385 0
-5384 5385 0
-259 -5384 0
-266 5386 0
-5385 5386 0
-266 -5385 0
-273 5387 0
-5386 5387 0
-273 -5386 0
-280 5388 0
-5387 5388 0
-280 -5387 0
-287 5389 0
-5388 5389 0
-287 -5388 0
-294 -5389 0
252 259 266 273 280 287 294 0
-5391 295 0
-295 5391 0
5391 296 297 298 299 300 301 0
-5392 302 0
-302 5392 0
5392 303 304 305 306 307 308 0
-5393 309 0
-309 5393 0
5393 310 311 312 313 314 315 0
-5394 316 0
-316 5394 0
5394 317 318 319 320 321 322 0
-5395 323 0
-323 5395 0
5395 324 325 326 327 328 329 0
-5396 330 0
-330 5396 0
5396 331 332 333 334 335 336 0
-5397 337 0
-337 5397 0
5397 338 339 340 341 342 343 0
-5391 5398 0
-5392 5399 0
-5398 5399 0
-5392 -5398 0
-5393 5400 0
-5399 5400 0
-5393 -5399 0
-5394 5401 0
-5400 5401 0
-5394 -5400 0
-5395 5402 0
-5401 5402 0
-5395 -5401 0
-5396 5403 0
-5402 5403 0
-5396 -5402 0
-5397 -5403 0
-5405 295 296 0
-295 5405 0
-296 5405 0
5405 297 298 299 300 301 0
-5406 302 303 0
-302 5406 0
-303 5406 0
5406 304 305 306 307 308 0
-5407 309 310 0
-309 5407 0
-310 5407 0
5407 311 312 313 314 315 0
-5408 316 317 0
-316 5408 0
-317 5408 0
5408 318 319 320 321 322 0
-5409 323 324 0
-323 5409 0
-324 5409 0
5409 325 326 327 328 329 0
-5410 330 331 0
-330 5410 0
-331 5410 0
5410 332 333 334 335 336 0
-5411 337 338 0
-337 5411 0
-338 5411 0
5411 339 340 341 342 343 0
-5405 5412 0
-5413 0
-5406 5414 0
-5412 5414 0
-5406 -5412 5415 0
-5413 5415 0
-5406 -5413 0
-5407 5416 0
-5414 5416 0
-5407 -5414 5417 0
-5415 5417 0
-5407 -5415 0
-5408 5418 0
-5416 5418 0
-5408 -5416 5419 0
-5417 5419 0
-5408 -5417 0
-5409 5420 0
-5418 5420 0
-5409 -5418 5421 0
-5419 5421 0
-5409 -5419 0
-5410 5422 0
-5420 5422 0
-5410 -5420 5423 0
-5421 5423 0
-5410 -5421 0
-5411 -5423 0
-5426 295 296 297 0
-295 5426 0
-296 5426 0
-297 5426 0
5426 298 299 300 301 0
-5427 302 303 304 0
-302 5427 0
-303 5427 0
-304 5427 0
5427 305 306 307 308 0
-5428 309 310 311 0
-309 5428 0
-310 5428 0
-311 5428 0
5428 312 313 314 315 0
-5429 316 317 318 0
-316 5429 0
-317 5429 0
-318 5429 0
5429 319 320 321 322 0
-5430 323 324 325 0
-323 5430 0
-324 5430 0
-325 5430 0
5430 326 327 328 329 0
-5431 330 331 332 0
-330 5431 0
-331 5431 0
-332 5431 0
5431 333 334 335 336 0
-5432 337 338 339 0
-337 5432 0
-338 5432 0
-339 5432 0
5432 340 341 342 343 0
-5426 5433 0
-5434 0
-5435 0
-5427 5436 0
-5433 5436 0
-5427 -5433 5437 0
-5434 5437 0
-5427 -5434 5438 0
-5435 5438 0
-5427 -5435 0
-5428 5439 0
-5436 5439 0
-5428 -5436 5440 0
-5437 5440 0
-5428 -5437 5441 0
-5438 5441 0
-5428 -5438 0
-5429 5442 0
-5439 5442 0
-5429 -5439 5443 0
-5440 5443 0
-5429 -5440 5444 0
-5441 5444 0
-5429 -5441 0
-5430 5445 0
-5442 5445 0
-5430 -5442 5446 0
-5443 5446 0
-5430 -5443 5447 0
-5444 5447 0
-5430 -5444 0
-5431 5448 0
-5445 5448 0
-5431 -5445 5449 0
-5446 5449 0
-5431 -5446 5450 0
-5447 5450 0
-5431 -5447 0
-5432 -5450 0
-5454 295 296 297 298 0
-295 5454 0
-296 5454 0
-297 5454 0
-298 5454 0
5454 299 300 301 0
-5455 302 303 304 305 0
-302 5455 0
-303 5455 0
-304 5455 0
-305 5455 0
5455 306 307 308 0
-5456 309 310 311 312 0
-309 5456 0
-310 5456 0
-311 5456 0
-312 5456 0
5456 313 314 315 0
-5457 316 317 318 319 0
-316 5457 0
-317 5457 0
-318 5457 0
-319 5457 0
5457 320 321 322 0
-5458 323 324 325 326 0
-323 5458 0
-324 5458 0
-325 5458 0
-326 5458 0
5458 327 328 329 0
-5459 330 331 332 333 0
-330 5459 0
-331 5459 0
-332 5459 0
-333 5459 0
5459 334 335 336 0
-5460 337 338 339 340 0
-337 5460 0
-338 5460 0
-339 5460 0
-340 5460 0
5460 341 342 343 0
-5454 5461 0
-5462 0
-5463 0
-5464 0
-5455 5465 0
-5461 5465 0
-5455 -5461 5466 0
-5462 5466 0
-5455 -5462 5467 0
-5463 5467 0
-5455 -5463 5468 0
-5464 5468 0
-5455 -5464 0
-5456 5469 0
-5465 5469 0
-5456 -5465 5470 0
-5466 5470 0
-5456 -5466 5471 0
-5467 5471 0
-5456 -5467 5472 0
-5468 5472 0
-5456 -5468 0
-5457 5473 0
-5469 5473 0
-5457 -5469 5474 0
-5470 5474 0
-5457 -5470 5475 0
-5471 5475 0
-5457 -5471 5476 0
-5472 5476 0
-5457 -5472 0
-5458 5477 0
-5473 5477 0
-5458 -5473 5478 0
-5474 5478 0
-5458 -5474 5479 0
-5475 5479 0
-5458 -5475 5480 0
-5476 5480 0
-5458 -5476 0
-5459 5481 0
-5477 5481 0
-5459 -5477 5482 0
-5478 5482 0
-5459 -5478 5483 0
-5479 5483 0
-5459 -5479 5484 0
-5480 5484 0
-5459 -5480 0
-5460 -5484 0
-5489 295 296 297 298 299 0
-295 5489 0
-296 5489 0
-297 5489 0
-298 5489 0
-299 5489 0
5489 300 301 0
-5490 302 303 304 305 306 0
-302 5490 0
-303 5490 0
-304 5490 0
-305 5490 0
-306 5490 0
5490 307 308 0
-5491 309 310 311 312 313 0
-309 5491 0
-310 5491 0
-311 5491 0
-312 5491 0
-313 5491 0
5491 314 315 0
-5492 316 317 318 319 320 0
-316 5492 0
-317 5492 0
-318 5492 0
-319 5492 0
-320 5492 0
5492 321 322 0
-5493 323 324 325 326 327 0
-323 5493 0
-324 5493 0
-325 5493 0
-326 5493 0
-327 5493 0
5493 328 329 0
-5494 330 331 332 333 334 0
-330 5494 0
-331 5494 0
-332 5494 0
-333 5494 0
-334 5494 0
5494 335 336 0
-5495 337 338 339 340 341 0
-337 5495 0
-338 5495 0
-339 5495 0
-340 5495 0
-341 5495 0
5495 342 343 0
-5489 5496 0
-5497 0
-5498 0
-5499 0
-5500 0
-5490 5501 0
-5496 5501 0
-5490 -5496 5502 0
-5497 5502 0
-5490 -5497 5503 0
-5498 5503 0
-5490 -5498 5504 0
-5499 5504 0
-5490 -5499 5505 0
-5500 5505 0
-5490 -5500 0
-5491 5506 0
-5501 5506 0
-5491 -5501 5507 0
-5502 5507 0
-5491 -5502 5508 0
-5503 5508 0
-5491 -5503 5509 0
-5504 5509 0
-5491 -5504 5510 0
-5505 5510 0
-5491 -5505 0
-5492 5511 0
-5506 5511 0
-5492 -5506 5512 0
-5507 5512 0
-5492 -5507 5513 0
-5508 5513 0
-5492 -5508 5514 0
-5509 5514 0
-5492 -5509 5515 0
-5510 5515 0
-5492 -5510 0
-5493 5516 0
-5511 5516 0
-5493 -5511 5517 0
-5512 5517 0
-5493 -5512 5518 0
-5513 5518 0
-5493 -5513 5519 0
-5514 5519 0
-5493 -5514 5520 0
-5515 5520 0
-5493 -5515 0
-5494 5521 0
-5516 5521 0
-5494 -5516 5522 0
-5517 5522 0
-5494 -5517 5523 0
-5518 5523 0
-5494 -5518 5524 0
-5519 5524 0
-5494 -5519 5525 0
-5520 5525 0
-5494 -5520 0
-5495 -5525 0
-5531 295 296 297 298 299 300 0
-295 5531 0
-296 5531 0
-297 5531 0
-298 5531 0
-299 5531 0
-300 5531 0
5531 301 0
-5532 302 303 304 305 306 307 0
-302 5532 0
-303 5532 0
-304 5532 0
-305 5532 0
-306 5532 0
-307 5532 0
5532 308 0
-5533 309 310 311 312 313 314 0
-309 5533 0
-310 5533 0
-311 5533 0
-312 5533 0
-313 5533 0
-314 5533 0
5533 315 0
-5534 316 317 318 319 320 321 0
-316 5534 0
-317 5534 0
-318 5534 0
-319 5534 0
-320 5534 0
-321 5534 0
5534 322 0
-5535 323 324 325 326 327 328 0
-323 5535 0
-324 5535 0
-325 5535 0
-326 5535 0
-327 5535 0
-328 5535 0
5535 329 0
-5536 330 331 332 333 334 335 0
-330 5536 0
-331 5536 0
-332 5536 0
-333 5536 0
-334 5536 0
-335 5536 0
5536 336 0
-5537 337 338 339 340 341 342 0
-337 5537 0
-338 5537 0
-339 5537 0
-340 5537 0
-341 5537 0
-342 5537 0
5537 343 0
-5531 5538 0
-5539 0
-5540 0
-5541 0
-5542 0
-5543 0
-5532 5544 0
-5538 5544 0
-5532 -5538 5545 0
-5539 5545 0
-5532 -5539 5546 0
-5540 5546 0
-5532 -5540 5547 0
-5541 5547 0
-5532 -5541 5548 0
-5542 5548 0
-5532 -5542 5549 0
-5543 5549 0
-5532 -5543 0
-5533 5550 0
-5544 5550 0
-5533 -5544 5551 0
-5545 5551 0
-5533 -5545 5552 0
-5546 5552 0
-5533 -5546 5553 0
-5547 5553 0
-5533 -5547 5554 0
-5548 5554 0
-5533 -5548 5555 0
-5549 5555 0
-5533 -5549 0
-5534 5556 0
-5550 5556 0
-5534 -5550 5557 0
-5551 5557 0
-5534 -5551 5558 0
-5552 5558 0
-5534 -5552 5559 0
-5553 5559 0
-5534 -5553 5560 0
-5554 5560 0
-5534 -5554 5561 0
-5555 5561 0
-5534 -5555 0
-5535 5562 0
-5556 5562 0
-5535 -5556 5563 0
-5557 5563 0
-5535 -5557 5564 0
-5558 5564 0
-5535 -5558 5565 0
-5559 5565 0
-5535 -5559 5566 0
-5560 5566 0
-5535 -5560 5567 0
-5561 5567 0
-5535 -5561 0
-5536 5568 0
-5562 5568 0
-5536 -5562 5569 0
-5563 5569 0
-5536 -5563 5570 0
-5564 5570 0
-5536 -5564 5571 0
-5565 5571 0
-5536 -5565 5572 0
-5566 5572 0
-5536 -5566 5573 0
-5567 5573 0
-5536 -5567 0
-5537 -5573 0
-5580 295 296 297 298 299 300 301 0
-295 5580 0
-296 5580 0
-297 5580 0
-298 5580 0
-299 5580 0
-300 5580 0
-301 5580 0
5580 0
-5581 302 303 304 305 306 307 308 0
-302 5581 0
-303 5581 0
-304 5581 0
-305 5581 0
-306 5581 0
-307 5581 0
-308 5581 0
5581 0
-5582 309 310 311 312 313 314 315 0
-309 5582 0
-310 5582 0
-311 5582 0
-312 5582 0
-313 5582 0
-314 5582 0
-315 5582 0
5582 0
-5583 316 317 318 319 320 321 322 0
-316 5583 0
-317 5583 0
-318 5583 0
-319 5583 0
-320 5583 0
-321 5583 0
-322 5583 0
5583 0
-5584 323 324 325 326 327 328 329 0
-323 5584 0
-324 5584 0
-325 5584 0
-326 5584 0
-327 5584 0
-328 5584 0
-329 5584 0
5584 0
-5585 330 331 332 333 334 335 336 0
-330 5585 0
-331 5585 0
-332 5585 0
-333 5585 0
-334 5585 0
-335 5585 0
-336 5585 0
5585 0
-5586 337 338 339 340 341 342 343 0
-337 5586 0
-338 5586 0
-339 5586 0
-340 5586 0
-341 5586 0
-342 5586 0
-343 5586 0
5586 0
-5587 296 0
-296 5587 0
5587 295 297 298 299 300 301 0
-5588 303 0
-303 5588 0
5588 302 304 305 306 307 308 0
-5589 310 0
-310 5589 0
5589 309 311 312 313 314 315 0
-5590 317 0
-317 5590 0
5590 316 318 319 320 321 322 0
-5591 324 0
-324 5591 0
5591 323 325 326 327 328 329 0
-5592 331 0
-331 5592 0
5592 330 332 333 334 335 336 0
-5593 338 0
-338 5593 0
5593 337 339 340 341 342 343 0
-5587 5594 0
-5588 5595 0
-5594 5595 0
-5588 -5594 0
-5589 5596 0
-5595 5596 0
-5589 -5595 0
-5590 5597 0
-5596 5597 0
-5590 -5596 0
-5591 5598 0
-5597 5598 0
-5591 -5597 0
-5592 5599 0
-5598 5599 0
-5592 -5598 0
-5593 -5599 0
-5601 296 297 0
-296 5601 0
-297 5601 0
5601 295 298 299 300 301 0
-5602 303 304 0
-303 5602 0
-304 5602 0
5602 302 305 306 307 308 0
-5603 310 311 0
-310 5603 0
-311 5603 0
5603 309 312 313 314 315 0
-5604 317 318 0
-317 5604 0
-318 5604 0
5604 316 319 320 321 322 0
-5605 324 325 0
-324 5605 0
-325 5605 0
5605 323 326 327 328 329 0
-5606 331 332 0
-331 5606 0
-332 5606 0
5606 330 333 334 335 336 0
-5607 338 339 0
-338 5607 0
-339 5607 0
5607 337 340 341 342 343 0
-5601 5608 0
-5609 0
-5602 5610 0
-5608 5610 0
-5602 -5608 5611 0
-5609 5611 0
-5602 -5609 0
-5603 5612 0
-5610 5612 0
-5603 -5610 5613 0
-5611 5613 0
-5603 -5611 0
-5604 5614 0
-5612 5614 0
-5604 -5612 5615 0
-5613 5615 0
-5604 -5613 0
-5605 5616 0
-5614 5616 0
-5605 -5614 5617 0
-5615 5617 0
-5605 -5615 0
-5606 5618 0
-5616 5618 0
-5606 -5616 5619 0
-5617 5619 0
-5606 -5617 0
-5607 -5619 0
-5622 296 297 298 0
-296 5622 0
-297 5622 0
-298 5622 0
5622 295 299 300 301 0
-5623 303 304 305 0
-303 5623 0
-304 5623 0
-305 5623 0
5623 302 306 307 308 0
-5624 310 311 312 0
-310 5624 0
-311 5624 0
-312 5624 0
5624 309 313 314 315 0
-5625 317 318 319 0
-317 5625 0
-318 5625 0
-319 5625 0
5625 316 320 321 322 0
-5626 324 325 326 0
-324 5626 0
-325 5626 0
-326 5626 0
5626 323 327 328 329 0
-5627 331 332 333 0
-331 5627 0
-332 5627 0
-333 5627 0
5627 330 334 335 336 0
-5628 338 339 340 0
-338 5628 0
-339 5628 0
-340 5628 0
5628 337 341 342 343 0
-5622 5629 0
-5630 0
-5631 0
-5623 5632 0
-5629 5632 0
-5623 -5629 5633 0
-5630 5633 0
-5623 -5630 5634 0
-5631 5634 0
-5623 -5631 0
-5624 5635 0
-5632 5635 0
-5624 -5632 5636 0
-5633 5636 0
-5624 -5633 5637 0
-5634 5637 0
-5624 -5634 0
-5625 5638 0
-5635 5638 0
-5625 -5635 5639 0
-5636 5639 0
-5625 -5636 5640 0
-5637 5640 0
-5625 -5637 0
-5626 5641 0
-5638 5641 0
-5626 -5638 5642 0
-5639 5642 0
-5626 -5639 5643 0
-5640 5643 0
-5626 -5640 0
-5627 5644 0
-5641 5644 0
-5627 -5641 5645 0
-5642 5645 0
-5627 -5642 5646 0
-5643 5646 0
-5627 -5643 0
-5628 -5646 0
-5650 296 297 298 299 0
-296 5650 0
-297 5650 0
-298 5650 0
-299 5650 0
5650 295 300 301 0
-5651 303 304 305 306 0
-303 5651 0
-304 5651 0
-305 5651 0
-306 5651 0
5651 302 307 308 0
-5652 310 311 312 313 0
-310 5652 0
-311 5652 0
-312 5652 0
-313 5652 0
5652 309 314 315 0
-5653 317 318 319 320 0
-317 5653 0
-318 5653 0
-319 5653 0
-320 5653 0
5653 316 321 322 0
-5654 324 325 326 327 0
-324 5654 0
-325 5654 0
-326 5654 0
-327 5654 0
5654 323 328 329 0
-5655 331 332 333 334 0
-331 5655 0
-332 5655 0
-333 5655 0
-334 5655 0
5655 330 335 336 0
-5656 338 339 340 341 0
-338 5656 0
-339 5656 0
-340 5656 0
-341 5656 0
5656 337 342 343 0
-5650 5657 0
-5658 0
-5659 0
-5660 0
-5651 5661 0
-5657 5661 0
-5651 -5657 5662 0
-5658 5662 0
-5651 -5658 5663 0
-5659 5663 0
-5651 -5659 5664 0
-5660 5664 0
-5651 -5660 0
-5652 5665 0
-5661 5665 0
-5652 -5661 5666 0
-5662 5666 0
-5652 -5662 5667 0
-5663 5667 0
-5652 -5663 5668 0
-5664 5668 0
-5652 -5664 0
-5653 5669 0
-5665 5669 0
-5653 -5665 5670 0
-5666 5670 0
-5653 -5666 5671 0
-5667 5671 0
-5653 -5667 5672 0
-5668 5672 0
-5653 -5668 0
-5654 5673 0
-5669 5673 0
-5654 -5669 5674 0
-5670 5674 0
-5654 -5670 5675 0
-5671 5675 0
-5654 -5671 5676 0
-5672 5676 0
-5654 -5672 0
-5655 5677 0
-5673 5677 0
-5655 -5673 5678 0
-5674 5678 0
-5655 -5674 5679 0
-5675 5679 0
-5655 -5675 5680 0
-5676 5680 0
-5655 -5676 0
-5656 -5680 0
-5685 296 297 298 299 300 0
-296 5685 0
-297 5685 0
-298 5685 0
-299 5685 0
-300 5685 0
5685 295 301 0
-5686 303 304 305 306 307 0
-303 5686 0
-304 5686 0
-305 5686 0
-306 5686 0
-307 5686 0
5686 302 308 0
-5687 310 311 312 313 314 0
-310 5687 0
-311 5687 0
-312 5687 0
-313 5687 0
-314 5687 0
5687 309 315 0
-5688 317 318 319 320 321 0
-317 5688 0
-318 5688 0
-319 5688 0
-320 5688 0
-321 5688 0
5688 316 322 0
-5689 324 325 326 327 328 0
-324 5689 0
-325 5689 0
-326 5689 0
-327 5689 0
-328 5689 0
5689 323 329 0
-5690 331 332 333 334 335 0
-331 5690 0
-332 5690 0
-333 5690 0
-334 5690 0
-335 5690 0
5690 330 336 0
-5691 338 339 340 341 342 0
-338 5691 0
-339 5691 0
-340 5691 0
-341 5691 0
-342 5691 0
5691 337 343 0
-5685 5692 0
-5693 0
-5694 0
-5695 0
-5696 0
-5686 5697 0
-5692 5697 0
-5686 -5692 5698 0
-5693 5698 0
-5686 -5693 5699 0
-5694 5699 0
-5686 -5694 5700 0
-5695 5700 0
-5686 -5695 5701 0
-5696 5701 0
-5686 -5696 0
-5687 5702 0
-5697 5702 0
-5687 -5697 5703 0
-5698 5703 0
-5687 -5698 5704 0
-5699 5704 0
-5687 -5699 5705 0
-5700 5705 0
-5687 -5700 5706 0
-5701 5706 0
-5687 -5701 0
-5688 5707 0
-5702 5707 0
-5688 -5702 5708 0
-5703 5708 0
-5688 -5703 5709 0
-5704 5709 0
-5688 -5704 5710 0
-5705 5710 0
-5688 -5705 5711 0
-5706 5711 0
-5688 -5706 0
-5689 5712 0
-5707 5712 0
-5689 -5707 5713 0
-5708 5713 0
-5689 -5708 5714 0
-5709 5714 0
-5689 -5709 5715 0
-5710 5715 0
-5689 -5710 5716 0
-5711 5716 0
-5689 -5711 0
-5690 5717 0
-5712 5717 0
-5690 -5712 5718 0
-5713 5718 0
-5690 -5713 5719 0
-5714 5719 0
-5690 -5714 5720 0
-5715 5720 0
-5690 -5715 5721 0
-5716 5721 0
-5690 -5716 0
-5691 -5721 0
-5727 296 297 298 299 300 301 0
-296 5727 0
-297 5727 0
-298 5727 0
-299 5727 0
-300 5727 0
-301 5727 0
5727 295 0
-5728 303 304 305 306 307 308 0
-303 5728 0
-304 5728 0
-305 5728 0
-306 5728 0
-307 5728 0
-308 5728 0
5728 302 0
-5729 310 311 312 313 314 315 0
-310 5729 0
-311 5729 0
-312 5729 0
-313 5729 0
-314 5729 0
-315 5729 0
5729 309 0
-5730 317 318 319 320 321 322 0
-317 5730 0
-318 5730 0
-319 5730 0
-320 5730 0
-321 5730 0
-322 5730 0
5730 316 0
-5731 324 325 326 327 328 329 0
-324 5731 0
-325 5731 0
-326 5731 0
-327 5731 0
-328 5731 0
-329 5731 0
5731 323 0
-5732 331 332 333 334 335 336 0
-331 5732 0
-332 5732 0
-333 5732 0
-334 5732 0
-335 5732 0
-336 5732 0
5732 330 0
-5733 338 339 340 341 342 343 0
-338 5733 0
-339 5733 0
-340 5733 0
-341 5733 0
-342 5733 0
-343 5733 0
5733 337 0
-5727 5734 0
-5735 0
-5736 0
-5737 0
-5738 0
-5739 0
-5728 5740 0
-5734 5740 0
-5728 -5734 5741 0
-5735 5741 0
-5728 -5735 5742 0
-5736 5742 0
-5728 -5736 5743 0
-5737 5743 0
-5728 -5737 5744 0
-5738 5744 0
-5728 -5738 5745 0
-5739 5745 0
-5728 -5739 0
-5729 5746 0
-5740 5746 0
-5729 -5740 5747 0
-5741 5747 0
-5729 -5741 5748 0
-5742 5748 0
-5729 -5742 5749 0
-5743 5749 0
-5729 -5743 5750 0
-5744 5750 0
-5729 -5744 5751 0
-5745 5751 0
-5729 -5745 0
-5730 5752 0
-5746 5752 0
-5730 -5746 5753 0
-5747 5753 0
-5730 -5747 5754 0
-5748 5754 0
-5730 -5748 5755 0
-5749 5755 0
-5730 -5749 5756 0
-5750 5756 0
-5730 -5750 5757 0
-5751 5757 0
-5730 -5751 0
-5731 5758 0
-5752 5758 0
-5731 -5752 5759 0
-5753 5759 0
-5731 -5753 5760 0
-5754 5760 0
-5731 -5754 5761 0
-5755 5761 0
-5731 -5755 5762 0
-5756 5762 0
-5731 -5756 5763 0
-5757 5763 0
-5731 -5757 0
-5732 5764 0
-5758 5764 0
-5732 -5758 5765 0
-5759 5765 0
-5732 -5759 5766 0
-5760 5766 0
-5732 -5760 5767 0
-5761 5767 0
-5732 -5761 5768 0
-5762 5768 0
-5732 -5762 5769 0
-5763 5769 0
-5732 -5763 0
-5733 -5769 0
-5776 297 0
-297 5776 0
5776 295 296 298 299 300 301 0
-5777 304 0
-304 5777 0
5777 302 303 305 306 307 308 0
-5778 311 0
-311 5778 0
5778 309 310 312 313 314 315 0
-5779 318 0
-318 5779 0
5779 316 317 319 320 321 322 0
-5780 325 0
-325 5780 0
5780 323 324 326 327 328 329 0
-5781 332 0
-332 5781 0
5781 330 331 333 334 335 336 0
-5782 339 0
-339 5782 0
5782 337 338 340 341 342 343 0
-5776 5783 0
-5777 5784 0
-5783 5784 0
-5777 -5783 0
-5778 5785 0
-5784 5785 0
-5778 -5784 0
-5779 5786 0
-5785 5786 0
-5779 -5785 0
-5780 5787 0
-5786 5787 0
-5780 -5786 0
-5781 5788 0
-5787 5788 0
-5781 -5787 0
-5782 -5788 0
-5790 297 298 0
-297 5790 0
-298 5790 0
5790 295 296 299 300 301 0
-5791 304 305 0
-304 5791 0
-305 5791 0
5791 302 303 306 307 308 0
-5792 311 312 0
-311 5792 0
-312 5792 0
5792 309 310 313 314 315 0
-5793 318 319 0
-318 5793 0
-319 5793 0
5793 316 317 320 321 322 0
-5794 325 326 0
-325 5794 0
-326 5794 0
5794 323 324 327 328 329 0
-5795 332 333 0
-332 5795 0
-333 5795 0
5795 330 331 334 335 336 0
-5796 339 340 0
-339 5796 0
-340 5796 0
5796 337 338 341 342 343 0
-5790 5797 0
-5798 0
-5791 5799 0
-5797 5799 0
-5791 -5797 5800 0
-5798 5800 0
-5791 -5798 0
-5792 5801 0
-5799 5801 0
-5792 -5799 5802 0
-5800 5802 0
-5792 -5800 0
-5793 5803 0
-5801 5803 0
-5793 -5801 5804 0
-5802 5804 0
-5793 -5802 0
-5794 5805 0
-5803 5805 0
-5794 -5803 5806 0
-5804 5806 0
-5794 -5804 0
-5795 5807 0
-5805 5807 0
-5795 -5805 5808 0
-5806 5808 0
-5795 -5806 0
-5796 -5808 0
-5811 297 298 299 0
-297 5811 0
-298 5811 0
-299 5811 0
5811 295 296 300 301 0
-5812 304 305 306 0
-304 5812 0
-305 5812 0
-306 5812 0
5812 302 303 307 308 0
-5813 311 312 313 0
-311 5813 0
-312 5813 0
-313 5813 0
5813 309 310 314 315 0
-5814 318 319 320 0
-318 5814 0
-319 5814 0
-320 5814 0
5814 316 317 321 322 0
-5815 325 326 327 0
-325 5815 0
-326 5815 0
-327 5815 0
5815 323 324 328 329 0
-5816 332 333 334 0
-332 5816 0
-333 5816 0
-334 5816 0
5816 330 331 335 336 0
-5817 339 340 341 0
-339 5817 0
-340 5817 0
-341 5817 0
5817 337 338 342 343 0
-5811 5818 0
-5819 0
-5820 0
-5812 5821 0
-5818 5821 0
-5812 -5818 5822 0
-5819 5822 0
-5812 -5819 5823 0
-5820 5823 0
-5812 -5820 0
-5813 5824 0
-5821 5824 0
-5813 -5821 5825 0
-5822 5825 0
-5813 -5822 5826 0
-5823 5826 0
-5813 -5823 0
-5814 5827 0
-5824 5827 0
-5814 -5824 5828 0
-5825 5828 0
-5814 -5825 5829 0
-5826 5829 0
-5814 -5826 0
-5815 5830 0
-5827 5830 0
-5815 -5827 5831 0
-5828 5831 0
-5815 -5828 5832 0
-5829 5832 0
-5815 -5829 0
-5816 5833 0
-5830 5833 0
-5816 -5830 5834 0
-5831 5834 0
-5816 -5831 5835 0
-5832 5835 0
-5816 -5832 0
-5817 -5835 0
-5839 297 298 299 300 0
-297 5839 0
-298 5839 0
-299 5839 0
-300 5839 0
5839 295 296 301 0
-5840 304 305 306 307 0
-304 5840 0
-305 5840 0
-306 5840 0
-307 5840 0
5840 302 303 308 0
-5841 311 312 313 314 0
-311 5841 0
-312 5841 0
-313 5841 0
-314 5841 0
5841 309 310 315 0
-5842 318 319 320 321 0
-318 5842 0
-319 5842 0
-320 5842 0
-321 5842 0
5842 316 317 322 0
-5843 325 326 327 328 0
-325 5843 0
-326 5843 0
-327 5843 0
-328 5843 0
5843 323 324 329 0
-5844 332 333 334 335 0
-332 5844 0
-333 5844 0
-334 5844 0
-335 5844 0
5844 330 331 336 0
-5845 339 340 341 342 0
-339 5845 0
-340 5845 0
-341 5845 0
-342 5845 0
5845 337 338 343 0
-5839 5846 0
-5847 0
-5848 0
-5849 0
-5840 5850 0
-5846 5850 0
-5840 -5846 5851 0
-5847 5851 0
-5840 -5847 5852 0
-5848 5852 0
-5840 -5848 5853 0
-5849 5853 0
-5840 -5849 0
-5841 5854 0
-5850 5854 0
-5841 -5850 5855 0
-5851 5855 0
-5841 -5851 5856 0
-5852 5856 0
-5841 -5852 5857 0
-5853 5857 0
-5841 -5853 0
-5842 5858 0
-5854 5858 0
-5842 -5854 5859 0
-5855 5859 0
-5842 -5855 5860 0
-5856 5860 0
-5842 -5856 5861 0
-5857 5861 0
-5842 -5857 0
-5843 5862 0
-5858 5862 0
-5843 -5858 5863 0
-5859 5863 0
-5843 -5859 5864 0
-5860 5864 0
-5843 -5860 5865 0
-5861 5865 0
-5843 -5861 0
-5844 5866 0
-5862 5866 0
-5844 -5862 5867 0
-5863 5867 0
-5844 -5863 5868 0
-5864 5868 0
-5844 -5864 5869 0
-5865 5869 0
-5844 -5865 0
-5845 -5869 0
-5874 297 298 299 300 301 0
-297 5874 0
-298 5874 0
-299 5874 0
-300 5874 0
-301 5874 0
5874 295 296 0
-5875 304 305 306 307 308 0
-304 5875 0
-305 5875 0
-306 5875 0
-307 5875 0
-308 5875 0
5875 302 303 0
-5876 311 312 313 314 315 0
-311 5876 0
-312 5876 0
-313 5876 0
-314 5876 0
-315 5876 0
5876 309 310 0
-5877 318 319 320 321 322 0
-318 5877 0
-319 5877 0
-320 5877 0
-321 5877 0
-322 5877 0
5877 316 317 0
-5878 325 326 327 328 329 0
-325 5878 0
-326 5878 0
-327 5878 0
-328 5878 0
-329 5878 0
5878 323 324 0
-5879 332 333 334 335 336 0
-332 5879 0
-333 5879 0
-334 5879 0
-335 5879 0
-336 5879 0
5879 330 331 0
-5880 339 340 341 342 343 0
-339 5880 0
-340 5880 0
-341 5880 0
-342 5880 0
-343 5880 0
5880 337 338 0
-5874 5881 0
-5882 0
-5883 0
-5884 0
-5885 0
-5875 5886 0
-5881 5886 0
-5875 -5881 5887 0
-5882 5887 0
-5875 -5882 5888 0
-5883 5888 0
-5875 -5883 5889 0
-5884 5889 0
-5875 -5884 5890 0
-5885 5890 0
-5875 -5885 0
-5876 5891 0
-5886 5891 0
-5876 -5886 5892 0
-5887 5892 0
-5876 -5887 5893 0
-5888 5893 0
-5876 -5888 5894 0
-5889 5894 0
-5876 -5889 5895 0
-5890 5895 0
-5876 -5890 0
-5877 5896 0
-5891 5896 0
-5877 -5891 5897 0
-5892 5897 0
-5877 -5892 5898 0
-5893 5898 0
-5877 -5893 5899 0
-5894 5899 0
-5877 -5894 5900 0
-5895 5900 0
-5877 -5895 0
-5878 5901 0
-5896 5901 0
-5878 -5896 5902 0
-5897 5902 0
-5878 -5897 5903 0
-5898 5903 0
-5878 -5898 5904 0
-5899 5904 0
-5878 -5899 5905 0
-5900 5905 0
-5878 -5900 0
-5879 5906 0
-5901 5906 0
-5879 -5901 5907 0
-5902 5907 0
-5879 -5902 5908 0
-5903 5908 0
-5879 -5903 5909 0
-5904 5909 0
-5879 -5904 5910 0
-5905 5910 0
-5879 -5905 0
-5880 -5910 0
-5916 298 0
-298 5916 0
5916 295 296 297 299 300 301 0
-5917 305 0
-305 5917 0
5917 302 303 304 306 307 308 0
-5918 312 0
-312 5918 0
5918 309 310 311 313 314 315 0
-5919 319 0
-319 5919 0
5919 316 317 318 320 321 322 0
-5920 326 0
-326 5920 0
5920 323 324 325 327 328 329 0
-5921 333 0
-333 5921 0
5921 330 331 332 334 335 336 0
-5922 340 0
-340 5922 0
5922 337 338 339 341 342 343 0
-5916 5923 0
-5917 5924 0
-5923 5924 0
-5917 -5923 0
-5918 5925 0
-5924 5925 0
-5918 -5924 0
-5919 5926 0
-5925 5926 0
-5919 -5925 0
-5920 5927 0
-5926 5927 0
-5920 -5926 0
-5921 5928 0
-5927 5928 0
-5921 -5927 0
-5922 -5928 0
-5930 298 299 0
-298 5930 0
-299 5930 0
5930 295 296 297 300 301 0
-5931 305 306 0
-305 5931 0
-306 5931 0
5931 302 303 304 307 308 0
-5932 312 313 0
-312 5932 0
-313 5932 0
5932 309 310 311 314 315 0
-5933 319 320 0
-319 5933 0
-320 5933 0
5933 316 317 318 321 322 0
-5934 326 327 0
-326 5934 0
-327 5934 0
5934 323 324 325 328 329 0
-5935 333 334 0
-333 5935 0
-334 5935 0
5935 330 331 332 335 336 0
-5936 340 341 0
-340 5936 0
-341 5936 0
5936 337 338 339 342 343 0
-5930 5937 0
-5938 0
-5931 5939 0
-5937 5939 0
-5931 -5937 5940 0
-5938 5940 0
-5931 -5938 0
-5932 5941 0
-5939 5941 0
-5932 -5939 5942 0
-5940 5942 0
-5932 -5940 0
-5933 5943 0
-5941 5943 0
-5933 -5941 5944 0
-5942 5944 0
-5933 -5942 0
-5934 5945 0
-5943 5945 0
-5934 -5943 5946 0
-5944 5946 0
-5934 -5944 0
-5935 5947 0
-5945 5947 0
-5935 -5945 5948 0
-5946 5948 0
-5935 -5946 0
-5936 -5948 0
-5951 298 299 300 0
-298 5951 0
-299 5951 0
-300 5951 0
5951 295 296 297 301 0
-5952 305 306 307 0
-305 5952 0
-306 5952 0
-307 5952 0
5952 302 303 304 308 0
-5953 312 313 314 0
-312 5953 0
-313 5953 0
-314 5953 0
5953 309 310 311 315 0
-5954 319 320 321 0
-319 5954 0
-320 5954 0
-321 5954 0
5954 316 317 318 322 0
-5955 326 327 328 0
-326 5955 0
-327 5955 0
-328 5955 0
5955 323 324 325 329 0
-5956 333 334 335 0
-333 5956 0
-334 5956 0
-335 5956 0
5956 330 331 332 336 0
-5957 340 341 342 0
-340 5957 0
-341 5957 0
-342 5957 0
5957 337 338 339 343 0
-5951 5958 0
-5959 0
-5960 0
-5952 5961 0
-5958 5961 0
-5952 -5958 5962 0
-5959 5962 0
-5952 -5959 5963 0
-5960 5963 0
-5952 -5960 0
-5953 5964 0
-5961 5964 0
-5953 -5961 5965 0
-5962 5965 0
-5953 -5962 5966 0
-5963 5966 0
-5953 -5963 0
-5954 5967 0
-5964 5967 0
-5954 -5964 5968 0
-5965 5968 0
-5954 -5965 5969 0
-5966 5969 0
-5954 -5966 0
-5955 5970 0
-5967 5970 0
-5955 -5967 5971 0
-5968 5971 0
-5955 -5968 5972 0
-5969 5972 0
-5955 -5969 0
-5956 5973 0
-5970 5973 0
-5956 -5970 5974 0
-5971 5974 0
-5956 -5971 5975 0
-5972 5975 0
-5956 -5972 0
-5957 -5975 0
-5979 298 299 300 301 0
-298 5979 0
-299 5979 0
-300 5979 0
-301 5979 0
5979 295 296 297 0
-5980 305 306 307 308 0
-305 5980 0
-306 5980 0
-307 5980 0
-308 5980 0
5980 302 303 304 0
-5981 312 313 314 315 0
-312 5981 0
-313 5981 0
-314 5981 0
-315 5981 0
5981 309 310 311 0
-5982 319 320 321 322 0
-319 5982 0
-320 5982 0
-321 5982 0
-322 5982 0
5982 316 317 318 0
-5983 326 327 328 329 0
-326 5983 0
-327 5983 0
-328 5983 0
-329 5983 0
5983 323 324 325 0
-5984 333 334 335 336 0
-333 5984 0
-334 5984 0
-335 5984 0
-336 5984 0
5984 330 331 332 0
-5985 340 341 342 343 0
-340 5985 0
-341 5985 0
-342 5985 0
-343 5985 0
5985 337 338 339 0
-5979 5986 0
-5987 0
-5988 0
-5989 0
-5980 5990 0
-5986 5990 0
-5980 -5986 5991 0
-5987 5991 0
-5980 -5987 5992 0
-5988 5992 0
-5980 -5988 5993 0
-5989 5993 0
-5980 -5989 0
-5981 5994 0
-5990 5994 0
-5981 -5990 5995 0
-5991 5995 0
-5981 -5991 5996 0
-5992 5996 0
-5981 -5992 5997 0
-5993 5997 0
-5981 -5993 0
-5982 5998 0
-5994 5998 0
-5982 -5994 5999 0
-5995 5999 0
-5982 -5995 6000 0
-5996 6000 0
-5982 -5996 6001 0
-5997 6001 0
-5982 -5997 0
-5983 6002 0
-5998 6002 0
-5983 -5998 6003 0
-5999 6003 0
-5983 -5999 6004 0
-6000 6004 0
-5983 -6000 6005 0
-6001 6005 0
-5983 -6001 0
-5984 6006 0
-6002 6006 0
-5984 -6002 6007 0
-6003 6007 0
-5984 -6003 6008 0
-6004 6008 0
-5984 -6004 6009 0
-6005 6009 0
-5984 -6005 0
-5985 -6009 0
-6014 299 0
-299 6014 0
6014 295 296 297 298 300 301 0
-6015 306 0
-306 6015 0
6015 302 303 304 305 307 308 0
-6016 313 0
-313 6016 0
6016 309 310 311 312 314 315 0
-6017 320 0
-320 6017 0
6017 316 317 318 319 321 322 0
-6018 327 0
-327 6018 0
6018 323 324 325 326 328 329 0
-6019 334 0
-334 6019 0
6019 330 331 332 333 335 336 0
-6020 341 0
-341 6020 0
6020 337 338 339 340 342 343 0
-6014 6021 0
-6015 6022 0
-6021 6022 0
-6015 -6021 0
-6016 6023 0
-6022 6023 0
-6016 -6022 0
-6017 6024 0
-6023 6024 0
-6017 -6023 0
-6018 6025 0
-6024 6025 0
-6018 -6024 0
-6019 6026 0
-6025 6026 0
-6019 -6025 0
-6020 -6026 0
-6028 299 300 0
-299 6028 0
-300 6028 0
6028 295 296 297 298 301 0
-6029 306 307 0
-306 6029 0
-307 6029 0
6029 302 303 304 305 308 0
-6030 313 314 0
-313 6030 0
-314 6030 0
6030 309 310 311 312 315 0
-6031 320 321 0
-320 6031 0
-321 6031 0
6031 316 317 318 319 322 0
-6032 327 328 0
-327 6032 0
-328 6032 0
6032 323 324 325 326 329 0
-6033 334 335 0
-334 6033 0
-335 6033 0
6033 330 331 332 333 336 0
-6034 341 342 0
-341 6034 0
-342 6034 0
6034 337 338 339 340 343 0
-6028 6035 0
-6036 0
-6029 6037 0
-6035 6037 0
-6029 -6035 6038 0
-6036 6038 0
-6029 -6036 0
-6030 6039 0
-6037 6039 0
-6030 -6037 6040 0
-6038 6040 0
-6030 -6038 0
-6031 6041 0
-6039 6041 0
-6031 -6039 6042 0
-6040 6042 0
-6031 -6040 0
-6032 6043 0
-6041 6043 0
-6032 -6041 6044 0
-6042 6044 0
-6032 -6042 0
-6033 6045 0
-6043 6045 0
-6033 -6043 6046 0
-6044 6046 0
-6033 -6044 0
-6034 -6046 0
-6049 299 300 301 0
-299 6049 0
-300 6049 0
-301 6049 0
6049 295 296 297 298 0
-6050 306 307 308 0
-306 6050 0
-307 6050 0
-308 6050 0
6050 302 303 304 305 0
-6051 313 314 315 0
-313 6051 0
-314 6051 0
-315 6051 0
6051 309 310 311 312 0
-6052 320 321 322 0
-320 6052 0
-321 6052 0
-322 6052 0
6052 316 317 318 319 0
-6053 327 328 329 0
-327 6053 0
-328 6053 0
-329 6053 0
6053 323 324 325 326 0
-6054 334 335 336 0
-334 6054 0
-335 6054 0
-336 6054 0
6054 330 331 332 333 0
-6055 341 342 343 0
-341 6055 0
-342 6055 0
-343 6055 0
6055 337 338 339 340 0
-6049 6056 0
-6057 0
-6058 0
-6050 6059 0
-6056 6059 0
-6050 -6056 6060 0
-6057 6060 0
-6050 -6057 6061 0
-6058 6061 0
-6050 -6058 0
-6051 6062 0
-6059 6062 0
-6051 -6059 6063 0
-6060 6063 0
-6051 -6060 6064 0
-6061 6064 0
-6051 -6061 0
-6052 6065 0
-6062 6065 0
-6052 -6062 6066 0
-6063 6066 0
-6052 -6063 6067 0
-6064 6067 0
-6052 -6064 0
-6053 6068 0
-6065 6068 0
-6053 -6065 6069 0
-6066 6069 0
-6053 -6066 6070 0
-6067 6070 0
-6053 -6067 0
-6054 6071 0
-6068 6071 0
-6054 -6068 6072 0
-6069 6072 0
-6054 -6069 6073 0
-6070 6073 0
-6054 -6070 0
-6055 -6073 0
-6077 300 0
-300 6077 0
6077 295 296 297 298 299 301 0
-6078 307 0
-307 6078 0
6078 302 303 304 305 306 308 0
-6079 314 0
-314 6079 0
6079 309 310 311 312 313 315 0
-6080 321 0
-321 6080 0
6080 316 317 318 319 320 322 0
-6081 328 0
-328 6081 0
6081 323 324 325 326 327 329 0
-6082 335 0
-335 6082 0
6082 330 331 332 333 334 336 0
-6083 342 0
-342 6083 0
6083 337 338 339 340 341 343 0
-6077 6084 0
-6078 6085 0
-6084 6085 0
-6078 -6084 0
-6079 6086 0
-6085 6086 0
-6079 -6085 0
-6080 6087 0
-6086 6087 0
-6080 -6086 0
-6081 6088 0
-6087 6088 0
-6081 -6087 0
-6082 6089 0
-6088 6089 0
-6082 -6088 0
-6083 -6089 0
-6091 300 301 0
-300 6091 0
-301 6091 0
6091 295 296 297 298 299 0
-6092 307 308 0
-307 6092 0
-308 6092 0
6092 302 303 304 305 306 0
-6093 314 315 0
-314 6093 0
-315 6093 0
6093 309 310 311 312 313 0
-6094 321 322 0
-321 6094 0
-322 6094 0
6094 316 317 318 319 320 0
-6095 328 329 0
-328 6095 0
-329 6095 0
6095 323 324 325 326 327 0
-6096 335 336 0
-335 6096 0
-336 6096 0
6096 330 331 332 333 334 0
-6097 342 343 0
-342 6097 0
-343 6097 0
6097 337 338 339 340 341 0
-6091 6098 0
-6099 0
-6092 6100 0
-6098 6100 0
-6092 -6098 6101 0
-6099 6101 0
-6092 -6099 0
-6093 6102 0
-6100 6102 0
-6093 -6100 6103 0
-6101 6103 0
-6093 -6101 0
-6094 6104 0
-6102 6104 0
-6094 -6102 6105 0
-6103 6105 0
-6094 -6103 0
-6095 6106 0
-6104 6106 0
-6095 -6104 6107 0
-6105 6107 0
-6095 -6105 0
-6096 6108 0
-6106 6108 0
-6096 -6106 6109 0
-6107 6109 0
-6096 -6107 0
-6097 -6109 0
-6112 301 0
-301 6112 0
6112 295 296 297 298 299 300 0
-6113 308 0
-308 6113 0
6113 302 303 304 305 306 307 0
-6114 315 0
-315 6114 0
6114 309 310 311 312 313 314 0
-6115 322 0
-322 6115 0
6115 316 317 318 319 320 321 0
-6116 329 0
-329 6116 0
6116 323 324 325 326 327 328 0
-6117 336 0
-336 6117 0
6117 330 331 332 333 334 335 0
-6118 343 0
-343 6118 0
6118 337 338 339 340 341 342 0
-6112 6119 0
-6113 6120 0
-6119 6120 0
-6113 -6119 0
-6114 6121 0
-6120 6121 0
-6114 -6120 0
-6115 6122 0
-6121 6122 0
-6115 -6121 0
-6116 6123 0
-6122 6123 0
-6116 -6122 0
-6117 6124 0
-6123 6124 0
-6117 -6123 0
-6118 -6124 0
-295 6126 0
-302 6127 0
-6126 6127 0
-302 -6126 0
-309 6128 0
-6127 6128 0
-309 -6127 0
-316 6129 0
-6128 6129 0
-316 -6128 0
-323 6130 0
-6129 6130 0
-323 -6129 0
-330 6131 0
-6130 6131 0
-330 -6130 0
-337 -6131 0
295 302 309 316 323 330 337 0
-296 6133 0
-303 6134 0
-6133 6134 0
-303 -6133 0
-310 6135 0
-6134 6135 0
-310 -6134 0
-317 6136 0
-6135 6136 0
-317 -6135 0
-324 6137 0
-6136 6137 0
-324 -6136 0
-331 6138 0
-6137 6138 0
-331 -6137 0
-338 -6138 0
296 303 310 317 324 331 338 0
-297 6140 0
-304 6141 0
-6140 6141 0
-304 -6140 0
-311 6142 0
-6141 6142 0
-311 -6141 0
-318 6143 0
-6142 6143 0
-318 -6142 0
-325 6144 0
-6143 6144 0
-325 -6143 0
-332 6145 0
-6144 6145 0
-332 -6144 0
-339 -6145 0
297 304 311 318 325 332 339 0
-298 6147 0
-305 6148 0
-6147 6148 0
-305 -6147 0
-312 6149 0
-6148 6149 0
-312 -6148 0
-319 6150 0
-6149 6150 0
-319 -6149 0
-326 6151 0
-6150 6151 0
-326 -6150 0
-333 6152 0
-6151 6152 0
-333 -6151 0
-340 -6152 0
298 305 312 319 326 333 340 0
-299 6154 0
-306 6155 0
-6154 6155 0
-306 -6154 0
-313 6156 0
-6155 6156 0
-313 -6155 0
-320 6157 0
-6156 6157 0
-320 -6156 0
-327 6158 0
-6157 6158 0
-327 -6157 0
-334 6159 0
-6158 6159 0
-334 -6158 0
-341 -6159 0
299 306 313 320 327 334 341 0
-300 6161 0
-307 6162 0
-6161 6162 0
-307 -6161 0
-314 6163 0
-6162 6163 0
-314 -6162 0
-321 6164 0
-6163 6164 0
-321 -6163 0
-328 6165 0
-6164 6165 0
-328 -6164 0
-335 6166 0
-6165 6166 0
-335 -6165 0
-342 -6166 0
300 307 314 321 328 335 342 0
-301 6168 0
-308 6169 0
-6168 6169 0
-308 -6168 0
-315 6170 0
-6169 6170 0
-315 -6169 0
-322 6171 0
-6170 6171 0
-322 -6170 0
-329 6172 0
-6171 6172 0
-329 -6171 0
-336 6173 0
-6172 6173 0
-336 -6172 0
-343 -6173 0
301 308 315 322 329 336 343 0
-6175 1 0
-1 6175 0
6175 2 3 4 5 6 7 0
-6176 50 0
-50 6176 0
6176 51 52 53 54 55 56 0
-6177 99 0
-99 6177 0
6177 100 101 102 103 104 105 0
-6178 148 0
-148 6178 0
6178 149 150 151 152 153 154 0
-6179 197 0
-197 6179 0
6179 198 199 200 201 202 203 0
-6180 246 0
-246 6180 0
6180 247 248 249 250 251 252 0
-6181 295 0
-295 6181 0
6181 296 297 298 299 300 301 0
-6175 6182 0
-6176 6183 0
-6182 6183 0
-6176 -6182 0
-6177 6184 0
-6183 6184 0
-6177 -6183 0
-6178 6185 0
-6184 6185 0
-6178 -6184 0
-6179 6186 0
-6185 6186 0
-6179 -6185 0
-6180 6187 0
-6186 6187 0
-6180 -6186 0
-6181 -6187 0
-6189 1 2 0
-1 6189 0
-2 6189 0
6189 3 4 5 6 7 0
-6190 50 51 0
-50 6190 0
-51 6190 0
6190 52 53 54 55 56 0
-6191 99 100 0
-99 6191 0
-100 6191 0
6191 101 102 103 104 105 0
-6192 148 149 0
-148 6192 0
-149 6192 0
6192 150 151 152 153 154 0
-6193 197 198 0
-197 6193 0
-198 6193 0
6193 199 200 201 202 203 0
-6194 246 247 0
-246 6194 0
-247 6194 0
6194 248 249 250 251 252 0
-6195 295 296 0
-295 6195 0
-296 6195 0
6195 297 298 299 300 301 0
-6189 6196 0
-6197 0
-6190 6198 0
-6196 6198 0
-6190 -6196 6199 0
-6197 6199 0
-6190 -6197 0
-6191 6200 0
-6198 6200 0
-6191 -6198 6201 0
-6199 6201 0
-6191 -6199 0
-6192 6202 0
-6200 6202 0
-6192 -6200 6203 0
-6201 6203 0
-6192 -6201 0
-6193 6204 0
-6202 6204 0
-6193 -6202 6205 0
-6203 6205 0
-6193 -6203 0
-6194 6206 0
-6204 6206 0
-6194 -6204 6207 0
-6205 6207 0
-6194 -6205 0
-6195 -6207 0
-6210 1 2 3 0
-1 6210 0
-2 6210 0
-3 6210 0
6210 4 5 6 7 0
-6211 50 51 52 0
-50 6211 0
-51 6211 0
-52 6211 0
6211 53 54 55 56 0
-6212 99 100 101 0
-99 6212 0
-100 6212 0
-101 6212 0
6212 102 103 104 105 0
-6213 148 149 150 0
-148 6213 0
-149 6213 0
-150 6213 0
6213 151 152 153 154 0
-6214 197 198 199 0
-197 6214 0
-198 6214 0
-199 6214 0
6214 200 201 202 203 0
-6215 246 247 248 0
-246 6215 0
-247 6215 0
-248 6215 0
6215 249 250 251 252 0
-6216 295 296 297 0
-295 6216 0
-296 6216 0
-297 6216 0
6216 298 299 300 301 0
-6210 6217 0
-6218 0
-6219 0
-6211 6220 0
-6217 6220 0
-6211 -6217 6221 0
-6218 6221 0
-6211 -6218 6222 0
-6219 6222 0
-6211 -6219 0
-6212 6223 0
-6220 6223 0
-6212 -6220 6224 0
-6221 6224 0
-6212 -6221 6225 0
-6222 6225 0
-6212 -6222 0
-6213 6226 0
-6223 6226 0
-6213 -6223 6227 0
-6224 6227 0
-6213 -6224 6228 0
-6225 6228 0
-6213 -6225 0
-6214 6229 0
-6226 6229 0
-6214 -6226 6230 0
-6227 6230 0
-6214 -6227 6231 0
-6228 6231 0
-6214 -6228 0
-6215 6232 0
-6229 6232 0
-6215 -6229 6233 0
-6230 6233 0
-6215 -6230 6234 0
-6231 6234 0
-6215 -6231 0
-6216 -6234 0
-6238 1 2 3 4 0
-1 6238 0
-2 6238 0
-3 6238 0
-4 6238 0
6238 5 6 7 0
-6239 50 51 52 53 0
-50 6239 0
-51 6239 0
-52 6239 0
-53 6239 0
6239 54 55 56 0
-6240 99 100 101 102 0
-99 6240 0
-100 6240 0
-101 6240 0
-102 6240 0
6240 103 104 105 0
-6241 148 149 150 151 0
-148 6241 0
-149 6241 0
-150 6241 0
-151 6241 0
6241 152 153 154 0
-6242 197 198 199 200 0
-197 6242 0
-198 6242 0
-199 6242 0
-200 6242 0
6242 201 202 203 0
-6243 246 247 248 249 0
-246 6243 0
-247 6243 0
-248 6243 0
-249 6243 0
6243 250 251 252 0
-6244 295 296 297 298 0
-295 6244 0
-296 6244 0
-297 6244 0
-298 6244 0
6244 299 300 301 0
-6238 6245 0
-6246 0
-6247 0
-6248 0
-6239 6249 0
-6245 6249 0
-6239 -6245 6250 0
-6246 6250 0
-6239 -6246 6251 0
-6247 6251 0
-6239 -6247 6252 0
-6248 6252 0
-6239 -6248 0
-6240 6253 0
-6249 6253 0
-6240 -6249 6254 0
-6250 6254 0
-6240 -6250 6255 0
-6251 6255 0
-6240 -6251 6256 0
-6252 6256 0
-6240 -6252 0
-6241 6257 0
-6253 6257 0
-6241 -6253 6258 0
-6254 6258 0
-6241 -6254 6259 0
-6255 6259 0
-6241 -6255 6260 0
-6256 6260 0
-6241 -6256 0
-6242 6261 0
-6257 6261 0
-6242 -6257 6262 0
-6258 6262 0
-6242 -6258 6263 0
-6259 6263 0
-6242 -6259 6264 0
-6260 6264 0
-6242 -6260 0
-6243 6265 0
-6261 6265 0
-6243 -6261 6266 0
-6262 6266 0
-6243 -6262 6267 0
-6263 6267 0
-6243 -6263 6268 0
-6264 6268 0
-6243 -6264 0
-6244 -6268 0
-6273 1 2 3 4 5 0
-1 6273 0
-2 6273 0
-3 6273 0
-4 6273 0
-5 6273 0
6273 6 7 0
-6274 50 51 52 53 54 0
-50 6274 0
-51 6274 0
-52 6274 0
-53 6274 0
-54 6274 0
6274 55 56 0
-6275 99 100 101 102 103 0
-99 6275 0
-100 6275 0
-101 6275 0
-102 6275 0
-103 6275 0
6275 104 105 0
-6276 148 149 150 151 152 0
-148 6276 0
-149 6276 0
-150 6276 0
-151 6276 0
-152 6276 0
6276 153 154 0
-6277 197 198 199 200 201 0
-197 6277 0
-198 6277 0
-199 6277 0
-200 6277 0
-201 6277 0
6277 202 203 0
-6278 246 247 248 249 250 0
-246 6278 0
-247 6278 0
-248 6278 0
-249 6278 0
-250 6278 0
6278 251 252 0
-6279 295 296 297 298 299 0
-295 6279 0
-296 6279 0
-297 6279 0
-298 6279 0
-299 6279 0
6279 300 301 0
-6273 6280 0
-6281 0
-6282 0
-6283 0
-6284 0
-6274 6285 0
-6280 6285 0
-6274 -6280 6286 0
-6281 6286 0
-6274 -6281 6287 0
-6282 6287 0
-6274 -6282 6288 0
-6283 6288 0
-6274 -6283 6289 0
-6284 6289 0
-6274 -6284 0
-6275 6290 0
-6285 6290 0
-6275 -6285 6291 0
-6286 6291 0
-6275 -6286 6292 0
-6287 6292 0
-6275 -6287 6293 0
-6288 6293 0
-6275 -6288 6294 0
-6289 6294 0
-6275 -6289 0
-6276 6295 0
-6290 6295 0
-6276 -6290 6296 0
-6291 6296 0
-6276 -6291 6297 0
-6292 6297 0
-6276 -6292 6298 0
-6293 6298 0
-6276 -6293 6299 0
-6294 6299 0
-6276 -6294 0
-6277 6300 0
-6295 6300 0
-6277 -6295 6301 0
-6296 6301 0
-6277 -6296 6302 0
-6297 6302 0
-6277 -6297 6303 0
-6298 6303 0
-6277 -6298 6304 0
-6299 6304 0
-6277 -6299 0
-6278 6305 0
-6300 6305 0
-6278 -6300 6306 0
-6301 6306 0
-6278 -6301 6307 0
-6302 6307 0
-6278 -6302 6308 0
-6303 6308 0
-6278 -6303 6309 0
-6304 6309 0
-6278 -6304 0
-6279 -6309 0
-6315 1 2 3 4 5 6 0
-1 6315 0
-2 6315 0
-3 6315 0
-4 6315 0
-5 6315 0
-6 6315 0
6315 7 0
-6316 50 51 52 53 54 55 0
-50 6316 0
-51 6316 0
-52 6316 0
-53 6316 0
-54 6316 0
-55 6316 0
6316 56 0
-6317 99 100 101 102 103 104 0
-99 6317 0
-100 6317 0
-101 6317 0
-102 6317 0
-103 6317 0
-104 6317 0
6317 105 0
-6318 148 149 150 151 152 153 0
-148 6318 0
-149 6318 0
-150 6318 0
-151 6318 0
-152 6318 0
-153 6318 0
6318 154 0
-6319 197 198 199 200 201 202 0
-197 6319 0
-198 6319 0
-199 6319 0
-200 6319 0
-201 6319 0
-202 6319 0
6319 203 0
-6320 246 247 248 249 250 251 0
-246 6320 0
-247 6320 0
-248 6320 0
-249 6320 0
-250 6320 0
-251 6320 0
6320 252 0
-6321 295 296 297 298 299 300 0
-295 6321 0
-296 6321 0
-297 6321 0
-298 6321 0
-299 6321 0
-300 6321 0
6321 301 0
-6315 6322 0
-6323 0
-6324 0
-6325 0
-6326 0
-6327 0
-6316 6328 0
-6322 6328 0
-6316 -6322 6329 0
-6323 6329 0
-6316 -6323 6330 0
-6324 6330 0
-6316 -6324 6331 0
-6325 6331 0
-6316 -6325 6332 0
-6326 6332 0
-6316 -6326 6333 0
-6327 6333 0
-6316 -6327 0
-6317 6334 0
-6328 6334 0
-6317 -6328 6335 0
-6329 6335 0
-6317 -6329 6336 0
-6330 6336 0
-6317 -6330 6337 0
-6331 6337 0
-6317 -6331 6338 0
-6332 6338 0
-6317 -6332 6339 0
-6333 6339 0
-6317 -6333 0
-6318 6340 0
-6334 6340 0
-6318 -6334 6341 0
-6335 6341 0
-6318 -6335 6342 0
-6336 6342 0
-6318 -6336 6343 0
-6337 6343 0
-6318 -6337 6344 0
-6338 6344 0
-6318 -6338 6345 0
-6339 6345 0
-6318 -6339 0
-6319 6346 0
-6340 6346 0
-6319 -6340 6347 0
-6341 6347 0
-6319 -6341 6348 0
-6342 6348 0
-6319 -6342 6349 0
-6343 6349 0
-6319 -6343 6350 0
-6344 6350 0
-6319 -6344 6351 0
-6345 6351 0
-6319 -6345 0
-6320 6352 0
-6346 6352 0
-6320 -6346 6353 0
-6347 6353 0
-6320 -6347 6354 0
-6348 6354 0
-6320 -6348 6355 0
-6349 6355 0
-6320 -6349 6356 0
-6350 6356 0
-6320 -6350 6357 0
-6351 6357 0
-6320 -6351 0
-6321 -6357 0
-6364 1 2 3 4 5 6 7 0
-1 6364 0
-2 6364 0
-3 6364 0
-4 6364 0
-5 6364 0
-6 6364 0
-7 6364 0
6364 0
-6365 50 51 52 53 54 55 56 0
-50 6365 0
-51 6365 0
-52 6365 0
-53 6365 0
-54 6365 0
-55 6365 0
-56 6365 0
6365 0
-6366 99 100 101 102 103 104 105 0
-99 6366 0
-100 6366 0
-101 6366 0
-102 6366 0
-103 6366 0
-104 6366 0
-105 6366 0
6366 0
-6367 148 149 150 151 152 153 154 0
-148 6367 0
-149 6367 0
-150 6367 0
-151 6367 0
-152 6367 0
-153 6367 0
-154 6367 0
6367 0
-6368 197 198 199 200 201 202 203 0
-197 6368 0
-198 6368 0
-199 6368 0
-200 6368 0
-201 6368 0
-202 6368 0
-203 6368 0
6368 0
-6369 246 247 248 249 250 251 252 0
-246 6369 0
-247 6369 0
-248 6369 0
-249 6369 0
-250 6369 0
-251 6369 0
-252 6369 0
6369 0
-6370 295 296 297 298 299 300 301 0
-295 6370 0
-296 6370 0
-297 6370 0
-298 6370 0
-299 6370 0
-300 6370 0
-301 6370 0
6370 0
-6371 2 0
-2 6371 0
6371 1 3 4 5 6 7 0
-6372 51 0
-51 6372 0
6372 50 52 53 54 55 56 0
-6373 100 0
-100 6373 0
6373 99 101 102 103 104 105 0
-6374 149 0
-149 6374 0
6374 148 150 151 152 153 154 0
-6375 198 0
-198 6375 0
6375 197 199 200 201 202 203 0
-6376 247 0
-247 6376 0
6376 246 248 249 250 251 252 0
-6377 296 0
-296 6377 0
6377 295 297 298 299 300 301 0
-6371 6378 0
-6372 6379 0
-6378 6379 0
-6372 -6378 0
-6373 6380 0
-6379 6380 0
-6373 -6379 0
-6374 6381 0
-6380 6381 0
-6374 -6380 0
-6375 6382 0
-6381 6382 0
-6375 -6381 0
-6376 6383 0
-6382 6383 0
-6376 -6382 0
-6377 -6383 0
-6385 2 3 0
-2 6385 0
-3 6385 0
6385 1 4 5 6 7 0
-6386 51 52 0
-51 6386 0
-52 6386 0
6386 50 53 54 55 56 0
-6387 100 101 0
-100 6387 0
-101 6387 0
6387 99 102 103 104 105 0
-6388 149 150 0
-149 6388 0
-150 6388 0
6388 148 151 152 153 154 0
-6389 198 199 0
-198 6389 0
-199 6389 0
6389 197 200 201 202 203 0
-6390 247 248 0
-247 6390 0
-248 6390 0
6390 246 249 250 251 252 0
-6391 296 297 0
-296 6391 0
-297 6391 0
6391 295 298 299 300 301 0
-6385 6392 0
-6393 0
-6386 6394 0
-6392 6394 0
-6386 -6392 6395 0
-6393 6395 0
-6386 -6393 0
-6387 6396 0
-6394 6396 0
-6387 -6394 6397 0
-6395 6397 0
-6387 -6395 0
-6388 6398 0
-6396 6398 0
-6388 -6396 6399 0
-6397 6399 0
-6388 -6397 0
-6389 6400 0
-6398 6400 0
-6389 -6398 6401 0
-6399 6401 0
-6389 -6399 0
-6390 6402 0
-6400 6402 0
-6390 -6400 6403 0
-6401 6403 0
-6390 -6401 0
-6391 -6403 0
-6406 2 3 4 0
-2 6406 0
-3 6406 0
-4 6406 0
6406 1 5 6 7 0
-6407 51 52 53 0
-51 6407 0
-52 6407 0
-53 6407 0
6407 50 54 55 56 0
-6408 100 101 102 0
-100 6408 0
-101 6408 0
-102 6408 0
6408 99 103 104 105 0
-6409 149 150 151 0
-149 6409 0
-150 6409 0
-151 6409 0
6409 148 152 153 154 0
-6410 198 199 200 0
-198 6410 0
-199 6410 0
-200 6410 0
6410 197 201 202 203 0
-6411 247 248 249 0
-247 6411 0
-248 6411 0
-249 6411 0
6411 246 250 251 252 0
-6412 296 297 298 0
-296 6412 0
-297 6412 0
-298 6412 0
6412 295 299 300 301 0
-6406 6413 0
-6414 0
-6415 0
-6407 6416 0
-6413 6416 0
-6407 -6413 6417 0
-6414 6417 0
-6407 -6414 6418 0
-6415 6418 0
-6407 -6415 0
-6408 6419 0
-6416 6419 0
-6408 -6416 6420 0
-6417 6420 0
-6408 -6417 6421 0
-6418 6421 0
-6408 -6418 0
-6409 6422 0
-6419 6422 0
-6409 -6419 6423 0
-6420 6423 0
-6409 -6420 6424 0
-6421 6424 0
-6409 -6421 0
-6410 6425 0
-6422 6425 0
-6410 -6422 6426 0
-6423 6426 0
-6410 -6423 6427 0
-6424 6427 0
-6410 -6424 0
-6411 6428 0
-6425 6428 0
-6411 -6425 6429 0
-6426 6429 0
-6411 -6426 6430 0
-6427 6430 0
-6411 -6427 0
-6412 -6430 0
-6434 2 3 4 5 0
-2 6434 0
-3 6434 0
-4 6434 0
-5 6434 0
6434 1 6 7 0
-6435 51 52 53 54 0
-51 6435 0
-52 6435 0
-53 6435 0
-54 6435 0
6435 50 55 56 0
-6436 100 101 102 103 0
-100 6436 0
-101 6436 0
-102 6436 0
-103 6436 0
6436 99 104 105 0
-6437 149 150 151 152 0
-149 6437 0
-150 6437 0
-151 6437 0
-152 6437 0
6437 148 153 154 0
-6438 198 199 200 201 0
-198 6438 0
-199 6438 0
-200 6438 0
-201 6438 0
6438 197 202 203 0
-6439 247 248 249 250 0
-247 6439 0
-248 6439 0
-249 6439 0
-250 6439 0
6439 246 251 252 0
-6440 296 297 298 299 0
-296 6440 0
-297 6440 0
-298 6440 0
-299 6440 0
6440 295 300 301 0
-6434 6441 0
-6442 0
-6443 0
-6444 0
-6435 6445 0
-6441 6445 0
-6435 -6441 6446 0
-6442 6446 0
-6435 -6442 6447 0
-6443 6447 0
-6435 -6443 6448 0
-6444 6448 0
-6435 -6444 0
-6436 6449 0
-6445 6449 0
-6436 -6445 6450 0
-6446 6450 0
-6436 -6446 6451 0
-6447 6451 0
-6436 -6447 6452 0
-6448 6452 0
-6436 -6448 0
-6437 6453 0
-6449 6453 0
-6437 -6449 6454 0
-6450 6454 0
-6437 -6450 6455 0
-6451 6455 0
-6437 -6451 6456 0
-6452 6456 0
-6437 -6452 0
-6438 6457 0
-6453 6457 0
-6438 -6453 6458 0
-6454 6458 0
-6438 -6454 6459 0
-6455 6459 0
-6438 -6455 6460 0
-6456 6460 0
-6438 -6456 0
-6439 6461 0
-6457 6461 0
-6439 -6457 6462 0
-6458 6462 0
-6439 -6458 6463 0
-6459 6463 0
-6439 -6459 6464 0
-6460 6464 0
-6439 -6460 0
-6440 -6464 0
-6469 2 3 4 5 6 0
-2 6469 0
-3 6469 0
-4 6469 0
-5 6469 0
-6 6469 0
6469 1 7 0
-6470 51 52 53 54 55 0
-51 6470 0
-52 6470 0
-53 6470 0
-54 6470 0
-55 6470 0
6470 50 56 0
-6471 100 101 102 103 104 0
-100 6471 0
-101 6471 0
-102 6471 0
-103 6471 0
-104 6471 0
6471 99 105 0
-6472 149 150 151 152 153 0
-149 6472 0
-150 6472 0
-151 6472 0
-152 6472 0
-153 6472 0
6472 148 154 0
-6473 198 199 200 201 202 0
-198 6473 0
-199 6473 0
-200 6473 0
-201 6473 0
-202 6473 0
6473 197 203 0
-6474 247 248 249 250 251 0
-247 6474 0
-248 6474 0
-249 6474 0
-250 6474 0
-251 6474 0
6474 246 252 0
-6475 296 297 298 299 300 0
-296 6475 0
-297 6475 0
-298 6475 0
-299 6475 0
-300 6475 0
6475 295 301 0
-6469 6476 0
-6477 0
-6478 0
-6479 0
-6480 0
-6470 6481 0
-6476 6481 0
-6470 -6476 6482 0
-6477 6482 0
-6470 -6477 6483 0
-6478 6483 0
-6470 -6478 6484 0
-6479 6484 0
-6470 -6479 6485 0
-6480 6485 0
-6470 -6480 0
-6471 6486 0
-6481 6486 0
-6471 -6481 6487 0
-6482 6487 0
-6471 -6482 6488 0
-6483 6488 0
-6471 -6483 6489 0
-6484 6489 0
-6471 -6484 6490 0
-6485 6490 0
-6471 -6485 0
-6472 6491 0
-6486 6491 0
-6472 -6486 6492 0
-6487 6492 0
-6472 -6487 6493 0
-6488 6493 0
-6472 -6488 6494 0
-6489 6494 0
-6472 -6489 6495 0
-6490 6495 0
-6472 -6490 0
-6473 6496 0
-6491 6496 0
-6473 -6491 6497 0
-6492 6497 0
-6473 -6492 6498 0
-6493 6498 0
-6473 -6493 6499 0
-6494 6499 0
-6473 -6494 6500 0
-6495 6500 0
-6473 -6495 0
-6474 6501 0
-6496 6501 0
-6474 -6496 6502 0
-6497 6502 0
-6474 -6497 6503 0
-6498 6503 0
-6474 -6498 6504 0
-6499 6504 0
-6474 -6499 6505 0
-6500 6505 0
-6474 -6500 0
-6475 -6505 0
-6511 2 3 4 5 6 7 0
-2 6511 0
-3 6511 0
-4 6511 0
-5 6511 0
-6 6511 0
-7 6511 0
6511 1 0
-6512 51 52 53 54 55 56 0
-51 6512 0
-52 6512 0
-53 6512 0
-54 6512 0
-55 6512 0
-56 6512 0
6512 50 0
-6513 100 101 102 103 104 105 0
-100 6513 0
-101 6513 0
-102 6513 0
-103 6513 0
-104 6513 0
-105 6513 0
6513 99 0
-6514 149 150 151 152 153 154 0
-149 6514 0
-150 6514 0
-151 6514 0
-152 6514 0
-153 6514 0
-154 6514 0
6514 148 0
-6515 198 199 200 201 202 203 0
-198 6515 0
-199 6515 0
-200 6515 0
-201 6515 0
-202 6515 0
-203 6515 0
6515 197 0
-6516 247 248 249 250 251 252 0
-247 6516 0
-248 6516 0
-249 6516 0
-250 6516 0
-251 6516 0
-252 6516 0
6516 246 0
-6517 296 297 298 299 300 301 0
-296 6517 0
-297 6517 0
-298 6517 0
-299 6517 0
-300 6517 0
-301 6517 0
6517 295 0
-6511 6518 0
-6519 0
-6520 0
-6521 0
-6522 0
-6523 0
-6512 6524 0
-6518 6524 0
-6512 -6518 6525 0
-6519 6525 0
-6512 -6519 6526 0
-6520 6526 0
-6512 -6520 6527 0
-6521 6527 0
-6512 -6521 6528 0
-6522 6528 0
-6512 -6522 6529 0
-6523 6529 0
-6512 -6523 0
-6513 6530 0
-6524 6530 0
-6513 -6524 6531 0
-6525 6531 0
-6513 -6525 6532 0
-6526 6532 0
-6513 -6526 6533 0
-6527 6533 0
-6513 -6527 6534 0
-6528 6534 0
-6513 -6528 6535 0
-6529 6535 0
-6513 -6529 0
-6514 6536 0
-6530 6536 0
-6514 -6530 6537 0
-6531 6537 0
-6514 -6531 6538 0
-6532 6538 0
-6514 -6532 6539 0
-6533 6539 0
-6514 -6533 6540 0
-6534 6540 0
-6514 -6534 6541 0
-6535 6541 0
-6514 -6535 0
-6515 6542 0
-6536 6542 0
-6515 -6536 6543 0
-6537 6543 0
-6515 -6537 6544 0
-6538 6544 0
-6515 -6538 6545 0
-6539 6545 0
-6515 -6539 6546 0
-6540 6546 0
-6515 -6540 6547 0
-6541 6547 0
-6515 -6541 0
-6516 6548 0
-6542 6548 0
-6516 -6542 6549 0
-6543 6549 0
-6516 -6543 6550 0
-6544 6550 0
-6516 -6544 6551 0
-6545 6551 0
-6516 -6545 6552 0
-6546 6552 0
-6516 -6546 6553 0
-6547 6553 0
-6516 -6547 0
-6517 -6553 0
-6560 3 0
-3 6560 0
6560 1 2 4 5 6 7 0
-6561 52 0
-52 6561 0
6561 50 51 53 54 55 56 0
-6562 101 0
-101 6562 0
6562 99 100 102 103 104 105 0
-6563 150 0
-150 6563 0
6563 148 149 151 152 153 154 0
-6564 199 0
-199 6564 0
6564 197 198 200 201 202 203 0
-6565 248 0
-248 6565 0
6565 246 247 249 250 251 252 0
-6566 297 0
-297 6566 0
6566 295 296 298 299 300 301 0
-6560 6567 0
-6561 6568 0
-6567 6568 0
-6561 -6567 0
-6562 6569 0
-6568 6569 0
-6562 -6568 0
-6563 6570 0
-6569 6570 0
-6563 -6569 0
-6564 6571 0
-6570 6571 0
-6564 -6570 0
-6565 6572 0
-6571 6572 0
-6565 -6571 0
-6566 -6572 0
-6574 3 4 0
-3 6574 0
-4 6574 0
6574 1 2 5 6 7 0
-6575 52 53 0
-52 6575 0
-53 6575 0
6575 50 51 54 55 56 0
-6576 101 102 0
-101 6576 0
-102 6576 0
6576 99 100 103 104 105 0
-6577 150 151 0
-150 6577 0
-151 6577 0
6577 148 149 152 153 154 0
-6578 199 200 0
-199 6578 0
-200 6578 0
6578 197 198 201 202 203 0
-6579 248 249 0
-248 6579 0
-249 6579 0
6579 246 247 250 251 252 0
-6580 297 298 0
-297 6580 0
-298 6580 0
6580 295 296 299 300 301 0
-6574 6581 0
-6582 0
-6575 6583 0
-6581 6583 0
-6575 -6581 6584 0
-6582 6584 0
-6575 -6582 0
-6576 6585 0
-6583 6585 0
-6576 -6583 6586 0
-6584 6586 0
-6576 -6584 0
-6577 6587 0
-6585 6587 0
-6577 -6585 6588 0
-6586 6588 0
-6577 -6586 0
-6578 6589 0
-6587 6589 0
-6578 -6587 6590 0
-6588 6590 0
-6578 -6588 0
-6579 6591 0
-6589 6591 0
-6579 -6589 6592 0
-6590 6592 0
-6579 -6590 0
-6580 -6592 0
-6595 3 4 5 0
-3 6595 0
-4 6595 0
-5 6595 0
6595 1 2 6 7 0
-6596 52 53 54 0
-52 6596 0
-53 6596 0
-54 6596 0
6596 50 51 55 56 0
-6597 101 102 103 0
-101 6597 0
-102 6597 0
-103 6597 0
6597 99 100 104 105 0
-6598 150 151 152 0
-150 6598 0
-151 6598 0
-152 6598 0
6598 148 149 153 154 0
-6599 199 200 201 0
-199 6599 0
-200 6599 0
-201 6599 0
6599 197 198 202 203 0
-6600 248 249 250 0
-248 6600 0
-249 6600 0
-250 6600 0
6600 246 247 251 252 0
-6601 297 298 299 0
-297 6601 0
-298 6601 0
-299 6601 0
6601 295 296 300 301 0
-6595 6602 0
-6603 0
-6604 0
-6596 6605 0
-6602 6605 0
-6596 -6602 6606 0
-6603 6606 0
-6596 -6603 6607 0
-6604 6607 0
-6596 -6604 0
-6597 6608 0
-6605 6608 0
-6597 -6605 6609 0
-6606 6609 0
-6597 -6606 6610 0
-6607 6610 0
-6597 -6607 0
-6598 6611 0
-6608 6611 0
-6598 -6608 6612 0
-6609 6612 0
-6598 -6609 6613 0
-6610 6613 0
-6598 -6610 0
-6599 6614 0
-6611 6614 0
-6599 -6611 6615 0
-6612 6615 0
-6599 -6612 6616 0
-6613 6616 0
-6599 -6613 0
-6600 6617 0
-6614 6617 0
-6600 -6614 6618 0
-6615 6618 0
-6600 -6615 6619 0
-6616 6619 0
-6600 -6616 0
-6601 -6619 0
-6623 3 4 5 6 0
-3 6623 0
-4 6623 0
-5 6623 0
-6 6623 0
6623 1 2 7 0
-6624 52 53 54 55 0
-52 6624 0
-53 6624 0
-54 6624 0
-55 6624 0
6624 50 51 56 0
-6625 101 102 103 104 0
-101 6625 0
-102 6625 0
-103 6625 0
-104 6625 0
6625 99 100 105 0
-6626 150 151 152 153 0
-150 6626 0
-151 6626 0
-152 6626 0
-153 6626 0
6626 148 149 154 0
-6627 199 200 201 202 0
-199 6627 0
-200 6627 0
-201 6627 0
-202 6627 0
6627 197 198 203 0
-6628 248 249 250 251 0
-248 6628 0
-249 6628 0
-250 6628 0
-251 6628 0
6628 246 247 252 0
-6629 297 298 299 300 0
-297 6629 0
-298 6629 0
-299 6629 0
-300 6629 0
6629 295 296 301 0
-6623 6630 0
-6631 0
-6632 0
-6633 0
-6624 6634 0
-6630 6634 0
-6624 -6630 6635 0
-6631 6635 0
-6624 -6631 6636 0
-6632 6636 0
-6624 -6632 6637 0
-6633 6637 0
-6624 -6633 0
-6625 6638 0
-6634 6638 0
-6625 -6634 6639 0
-6635 6639 0
-6625 -6635 6640 0
-6636 6640 0
-6625 -6636 6641 0
-6637 6641 0
-6625 -6637 0
-6626 6642 0
-6638 6642 0
-6626 -6638 6643 0
-6639 6643 0
-6626 -6639 6644 0
-6640 6644 0
-6626 -6640 6645 0
-6641 6645 0
-6626 -6641 0
-6627 6646 0
-6642 6646 0
-6627 -6642 6647 0
-6643 6647 0
-6627 -6643 6648 0
-6644 6648 0
-6627 -6644 6649 0
-6645 6649 0
-6627 -6645 0
-6628 6650 0
-6646 6650 0
-6628 -6646 6651 0
-6647 6651 0
-6628 -6647 6652 0
-6648 6652 0
-6628 -6648 6653 0
-6649 6653 0
-6628 -6649 0
-6629 -6653 0
-6658 3 4 5 6 7 0
-3 6658 0
-4 6658 0
-5 6658 0
-6 6658 0
-7 6658 0
6658 1 2 0
-6659 52 53 54 55 56 0
-52 6659 0
-53 6659 0
-54 6659 0
-55 6659 0
-56 6659 0
6659 50 51 0
-6660 101 102 103 104 105 0
-101 6660 0
-102 6660 0
-103 6660 0
-104 6660 0
-105 6660 0
6660 99 100 0
-6661 150 151 152 153 154 0
-150 6661 0
-151 6661 0
-152 6661 0
-153 6661 0
-154 6661 0
6661 148 149 0
-6662 199 200 201 202 203 0
-199 6662 0
-200 6662 0
-201 6662 0
-202 6662 0
-203 6662 0
6662 197 198 0
-6663 248 249 250 251 252 0
-248 6663 0
-249 6663 0
-250 6663 0
-251 6663 0
-252 6663 0
6663 246 247 0
-6664 297 298 299 300 301 0
-297 6664 0
-298 6664 0
-299 6664 0
-300 6664 0
-301 6664 0
6664 295 296 0
-6658 6665 0
-6666 0
-6667 0
-6668 0
-6669 0
-6659 6670 0
-6665 6670 0
-6659 -6665 6671 0
-6666 6671 0
-6659 -6666 6672 0
-6667 6672 0
-6659 -6667 6673 0
-6668 6673 0
-6659 -6668 6674 0
-6669 6674 0
-6659 -6669 0
-6660 6675 0
-6670 6675 0
-6660 -6670 6676 0
-6671 6676 0
-6660 -6671 6677 0
-6672 6677 0
-6660 -6672 6678 0
-6673 6678 0
-6660 -6673 6679 0
-6674 6679 0
-6660 -6674 0
-6661 6680 0
-6675 6680 0
-6661 -6675 6681 0
-6676 6681 0
-6661 -6676 6682 0
-6677 6682 0
-6661 -6677 6683 0
-6678 6683 0
-6661 -6678 6684 0
-6679 6684 0
-6661 -6679 0
-6662 6685 0
-6680 6685 0
-6662 -6680 6686 0
-6681 6686 0
-6662 -6681 6687 0
-6682 6687 0
-6662 -6682 6688 0
-6683 6688 0
-6662 -6683 6689 0
-6684 6689 0
-6662 -6684 0
-6663 6690 0
-6685 6690 0
-6663 -6685 6691 0
-6686 6691 0
-6663 -6686 6692 0
-6687 6692 0
-6663 -6687 6693 0
-6688 6693 0
-6663 -6688 6694 0
-6689 6694 0
-6663 -6689 0
-6664 -6694 0
-6700 4 0
-4 6700 0
6700 1 2 3 5 6 7 0
-6701 53 0
-53 6701 0
6701 50 51 52 54 55 56 0
-6702 102 0
-102 6702 0
6702 99 100 101 103 104 105 0
-6703 151 0
-151 6703 0
6703 148 149 150 152 153 154 0
-6704 200 0
-200 6704 0
6704 197 198 199 201 202 203 0
-6705 249 0
-249 6705 0
6705 246 247 248 250 251 252 0
-6706 298 0
-298 6706 0
6706 295 296 297 299 300 301 0
-6700 6707 0
-6701 6708 0
-6707 6708 0
-6701 -6707 0
-6702 6709 0
-6708 6709 0
-6702 -6708 0
-6703 6710 0
-6709 6710 0
-6703 -6709 0
-6704 6711 0
-6710 6711 0
-6704 -6710 0
-6705 6712 0
-6711 6712 0
-6705 -6711 0
-6706 -6712 0
-6714 4 5 0
-4 6714 0
-5 6714 0
6714 1 2 3 6 7 0
-6715 53 54 0
-53 6715 0
-54 6715 0
6715 50 51 52 55 56 0
-6716 102 103 0
-102 6716 0
-103 6716 0
6716 99 100 101 104 105 0
-6717 151 152 0
-151 6717 0
-152 6717 0
6717 148 149 150 153 154 0
-6718 200 201 0
-200 6718 0
-201 6718 0
6718 197 198 199 202 203 0
-6719 249 250 0
-249 6719 0
-250 6719 0
6719 246 247 248 251 252 0
-6720 298 299 0
-298 6720 0
-299 6720 0
6720 295 296 297 300 301 0
-6714 6721 0
-6722 0
-6715 6723 0
-6721 6723 0
-6715 -6721 6724 0
-6722 6724 0
-6715 -6722 0
-6716 6725 0
-6723 6725 0
-6716 -6723 6726 0
-6724 6726 0
-6716 -6724 0
-6717 6727 0
-6725 6727 0
-6717 -6725 6728 0
-6726 6728 0
-6717 -6726 0
-6718 6729 0
-6727 6729 0
-6718 -6727 6730 0
-6728 6730 0
-6718 -6728 0
-6719 6731 0
-6729 6731 0
-6719 -6729 6732 0
-6730 6732 0
-6719 -6730 0
-6720 -6732 0
-6735 4 5 6 0
-4 6735 0
-5 6735 0
-6 6735 0
6735 1 2 3 7 0
-6736 53 54 55 0
-53 6736 0
-54 6736 0
-55 6736 0
6736 50 51 52 56 0
-6737 102 103 104 0
-102 6737 0
-103 6737 0
-104 6737 0
6737 99 100 101 105 0
-6738 151 152 153 0
-151 6738 0
-152 6738 0
-153 6738 0
6738 148 149 150 154 0
-6739 200 201 202 0
-200 6739 0
-201 6739 0
-202 6739 0
6739 197 198 199 203 0
-6740 249 250 251 0
-249 6740 0
-250 6740 0
-251 6740 0
6740 246 247 248 252 0
-6741 298 299 300 0
-298 6741 0
-299 6741 0
-300 6741 0
6741 295 296 297 301 0
-6735 6742 0
-6743 0
-6744 0
-6736 6745 0
-6742 6745 0
-6736 -6742 6746 0
-6743 6746 0
-6736 -6743 6747 0
-6744 6747 0
-6736 -6744 0
-6737 6748 0
-6745 6748 0
-6737 -6745 6749 0
-6746 6749 0
-6737 -6746 6750 0
-6747 6750 0
-6737 -6747 0
-6738 6751 0
-6748 6751 0
-6738 -6748 6752 0
-6749 6752 0
-6738 -6749 6753 0
-6750 6753 0
-6738 -6750 0
-6739 6754 0
-6751 6754 0
-6739 -6751 6755 0
-6752 6755 0
-6739 -6752 6756 0
-6753 6756 0
-6739 -6753 0
-6740 6757 0
-6754 6757 0
-6740 -6754 6758 0
-6755 6758 0
-6740 -6755 6759 0
-6756 6759 0
-6740 -6756 0
-6741 -6759 0
-6763 4 5 6 7 0
-4 6763 0
-5 6763 0
-6 6763 0
-7 6763 0
6763 1 2 3 0
-6764 53 54 55 56 0
-53 6764 0
-54 6764 0
-55 6764 0
-56 6764 0
6764 50 51 52 0
-6765 102 103 104 105 0
-102 6765 0
-103 6765 0
-104 6765 0
-105 6765 0
6765 99 100 101 0
-6766 151 152 153 154 0
-151 6766 0
-152 6766 0
-153 6766 0
-154 6766 0
6766 148 149 150 0
-6767 200 201 202 203 0
-200 6767 0
-201 6767 0
-202 6767 0
-203 6767 0
6767 197 198 199 0
-6768 249 250 251 252 0
-249 6768 0
-250 6768 0
-251 6768 0
-252 6768 0
6768 246 247 248 0
-6769 298 299 300 301 0
-298 6769 0
-299 6769 0
-300 6769 0
-301 6769 0
6769 295 296 297 0
-6763 6770 0
-6771 0
-6772 0
-6773 0
-6764 6774 0
-6770 6774 0
-6764 -6770 6775 0
-6771 6775 0
-6764 -6771 6776 0
-6772 6776 0
-6764 -6772 6777 0
-6773 6777 0
-6764 -6773 0
-6765 6778 0
-6774 6778 0
-6765 -6774 6779 0
-6775 6779 0
-6765 -6775 6780 0
-6776 6780 0
-6765 -6776 6781 0
-6777 6781 0
-6765 -6777 0
-6766 6782 0
-6778 6782 0
-6766 -6778 6783 0
-6779 6783 0
-6766 -6779 6784 0
-6780 6784 0
-6766 -6780 6785 0
-6781 6785 0
-6766 -6781 0
-6767 6786 0
-6782 6786 0
-6767 -6782 6787 0
-6783 6787 0
-6767 -6783 6788 0
-6784 6788 0
-6767 -6784 6789 0
-6785 6789 0
-6767 -6785 0
-6768 6790 0
-6786 6790 0
-6768 -6786 6791 0
-6787 6791 0
-6768 -6787 6792 0
-6788 6792 0
-6768 -6788 6793 0
-6789 6793 0
-6768 -6789 0
-6769 -6793 0
-6798 5 0
-5 6798 0
6798 1 2 3 4 6 7 0
-6799 54 0
-54 6799 0
6799 50 51 52 53 55 56 0
-6800 103 0
-103 6800 0
6800 99 100 101 102 104 105 0
-6801 152 0
-152 6801 0
6801 148 149 150 151 153 154 0
-6802 201 0
-201 6802 0
6802 197 198 199 200 202 203 0
-6803 250 0
-250 6803 0
6803 246 247 248 249 251 252 0
-6804 299 0
-299 6804 0
6804 295 296 297 298 300 301 0
-6798 6805 0
-6799 6806 0
-6805 6806 0
-6799 -6805 0
-6800 6807 0
-6806 6807 0
-6800 -6806 0
-6801 6808 0
-6807 6808 0
-6801 -6807 0
-6802 6809 0
-6808 6809 0
-6802 -6808 0
-6803 6810 0
-6809 6810 0
-6803 -6809 0
-6804 -6810 0
-6812 5 6 0
-5 6812 0
-6 6812 0
6812 1 2 3 4 7 0
-6813 54 55 0
-54 6813 0
-55 6813 0
6813 50 51 52 53 56 0
-6814 103 104 0
-103 6814 0
-104 6814 0
6814 99 100 101 102 105 0
-6815 152 153 0
-152 6815 0
-153 6815 0
6815 148 149 150 151 154 0
-6816 201 202 0
-201 6816 0
-202 6816 0
6816 197 198 199 200 203 0
-6817 250 251 0
-250 6817 0
-251 6817 0
6817 246 247 248 249 252 0
-6818 299 300 0
-299 6818 0
-300 6818 0
6818 295 296 297 298 301 0
-6812 6819 0
-6820 0
-6813 6821 0
-6819 6821 0
-6813 -6819 6822 0
-6820 6822 0
-6813 -6820 0
-6814 6823 0
-6821 6823 0
-6814 -6821 6824 0
-6822 6824 0
-6814 -6822 0
-6815 6825 0
-6823 6825 0
-6815 -6823 6826 0
-6824 6826 0
-6815 -6824 0
-6816 6827 0
-6825 6827 0
-6816 -6825 6828 0
-6826 6828 0
-6816 -6826 0
-6817 6829 0
-6827 6829 0
-6817 -6827 6830 0
-6828 6830 0
-6817 -6828 0
-6818 -6830 0
-6833 5 6 7 0
-5 6833 0
-6 6833 0
-7 6833 0
6833 1 2 3 4 0
-6834 54 55 56 0
-54 6834 0
-55 6834 0
-56 6834 0
6834 50 51 52 53 0
-6835 103 104 105 0
-103 6835 0
-104 6835 0
-105 6835 0
6835 99 100 101 102 0
-6836 152 153 154 0
-152 6836 0
-153 6836 0
-154 6836 0
6836 148 149 150 151 0
-6837 201 202 203 0
-201 6837 0
-202 6837 0
-203 6837 0
6837 197 198 199 200 0
-6838 250 251 252 0
-250 6838 0
-251 6838 0
-252 6838 0
6838 246 247 248 249 0
-6839 299 300 301 0
-299 6839 0
-300 6839 0
-301 6839 0
6839 295 296 297 298 0
-6833 6840 0
-6841 0
-6842 0
-6834 6843 0
-6840 6843 0
-6834 -6840 6844 0
-6841 6844 0
-6834 -6841 6845 0
-6842 6845 0
-6834 -6842 0
-6835 6846 0
-6843 6846 0
-6835 -6843 6847 0
-6844 6847 0
-6835 -6844 6848 0
-6845 6848 0
-6835 -6845 0
-6836 6849 0
-6846 6849 0
-6836 -6846 6850 0
-6847 6850 0
-6836 -6847 6851 0
-6848 6851 0
-6836 -6848 0
-6837 6852 0
-6849 6852 0
-6837 -6849 6853 0
-6850 6853 0
-6837 -6850 6854 0
-6851 6854 0
-6837 -6851 0
-6838 6855 0
-6852 6855 0
-6838 -6852 6856 0
-6853 6856 0
-6838 -6853 6857 0
-6854 6857 0
-6838 -6854 0
-6839 -6857 0
-6861 6 0
-6 6861 0
6861 1 2 3 4 5 7 0
-6862 55 0
-55 6862 0
6862 50 51 52 53 54 56 0
-6863 104 0
-104 6863 0
6863 99 100 101 102 103 105 0
-6864 153 0
-153 6864 0
6864 148 149 150 151 152 154 0
-6865 202 0
-202 6865 0
6865 197 198 199 200 201 203 0
-6866 251 0
-251 6866 0
6866 246 247 248 249 250 252 0
-6867 300 0
-300 6867 0
6867 295 296 297 298 299 301 0
-6861 6868 0
-6862 6869 0
-6868 6869 0
-6862 -6868 0
-6863 6870 0
-6869 6870 0
-6863 -6869 0
-6864 6871 0
-6870 6871 0
-6864 -6870 0
-6865 6872 0
-6871 6872 0
-6865 -6871 0
-6866 6873 0
-6872 6873 0
-6866 -6872 0
-6867 -6873 0
-6875 6 7 0
-6 6875 0
-7 6875 0
6875 1 2 3 4 5 0
-6876 55 56 0
-55 6876 0
-56 6876 0
6876 50 51 52 53 54 0
-6877 104 105 0
-104 6877 0
-105 6877 0
6877 99 100 101 102 103 0
-6878 153 154 0
-153 6878 0
-154 6878 0
6878 148 149 150 151 152 0
-6879 202 203 0
-202 6879 0
-203 6879 0
6879 197 198 199 200 201 0
-6880 251 252 0
-251 6880 0
-252 6880 0
6880 246 247 248 249 250 0
-6881 300 301 0
-300 6881 0
-301 6881 0
6881 295 296 297 298 299 0
-6875 6882 0
-6883 0
-6876 6884 0
-6882 6884 0
-6876 -6882 6885 0
-6883 6885 0
-6876 -6883 0
-6877 6886 0
-6884 6886 0
-6877 -6884 6887 0
-6885 6887 0
-6877 -6885 0
-6878 6888 0
-6886 6888 0
-6878 -6886 6889 0
-6887 6889 0
-6878 -6887 0
-6879 6890 0
-6888 6890 0
-6879 -6888 6891 0
-6889 6891 0
-6879 -6889 0
-6880 6892 0
-6890 6892 0
-6880 -6890 6893 0
-6891 6893 0
-6880 -6891 0
-6881 -6893 0
-6896 7 0
-7 6896 0
6896 1 2 3 4 5 6 0
-6897 56 0
-56 6897 0
6897 50 51 52 53 54 55 0
-6898 105 0
-105 6898 0
6898 99 100 101 102 103 104 0
-6899 154 0
-154 6899 0
6899 148 149 150 151 152 153 0
-6900 203 0
-203 6900 0
6900 197 198 199 200 201 202 0
-6901 252 0
-252 6901 0
6901 246 247 248 249 250 251 0
-6902 301 0
-301 6902 0
6902 295 296 297 298 299 300 0
-6896 6903 0
-6897 6904 0
-6903 6904 0
-6897 -6903 0
-6898 6905 0
-6904 6905 0
-6898 -6904 0
-6899 6906 0
-6905 6906 0
-6899 -6905 0
-6900 6907 0
-6906 6907 0
-6900 -6906 0
-6901 6908 0
-6907 6908 0
-6901 -6907 0
-6902 -6908 0
-1 6910 0
-50 6911 0
-6910 6911 0
-50 -6910 0
-99 6912 0
-6911 6912 0
-99 -6911 0
-148 6913 0
-6912 6913 0
-148 -6912 0
-197 6914 0
-6913 6914 0
-197 -6913 0
-246 6915 0
-6914 6915 0
-246 -6914 0
-295 -6915 0
1 50 99 148 197 246 295 0
-2 6917 0
-51 6918 0
-6917 6918 0
-51 -6917 0
-100 6919 0
-6918 6919 0
-100 -6918 0
-149 6920 0
-6919 6920 0
-149 -6919 0
-198 6921 0
-6920 6921 0
-198 -6920 0
-247 6922 0
-6921 6922 0
-247 -6921 0
-296 -6922 0
2 51 100 149 198 247 296 0
-3 6924 0
-52 6925 0
-6924 6925 0
-52 -6924 0
-101 6926 0
-6925 6926 0
-101 -6925 0
-150 6927 0
-6926 6927 0
-150 -6926 0
-199 6928 0
-6927 6928 0
-199 -6927 0
-248 6929 0
-6928 6929 0
-248 -6928 0
-297 -6929 0
3 52 101 150 199 248 297 0
-4 6931 0
-53 6932 0
-6931 6932 0
-53 -6931 0
-102 6933 0
-6932 6933 0
-102 -6932 0
-151 6934 0
-6933 6934 0
-151 -6933 0
-200 6935 0
-6934 6935 0
-200 -6934 0
-249 6936 0
-6935 6936 0
-249 -6935 0
-298 -6936 0
4 53 102 151 200 249 298 0
-5 6938 0
-54 6939 0
-6938 6939 0
-54 -6938 0
-103 6940 0
-6939 6940 0
-103 -6939 0
-152 6941 0
-6940 6941 0
-152 -6940 0
-201 6942 0
-6941 6942 0
-201 -6941 0
-250 6943 0
-6942 6943 0
-250 -6942 0
-299 -6943 0
5 54 103 152 201 250 299 0
-6 6945 0
-55 6946 0
-6945 6946 0
-55 -6945 0
-104 6947 0
-6946 6947 0
-104 -6946 0
-153 6948 0
-6947 6948 0
-153 -6947 0
-202 6949 0
-6948 6949 0
-202 -6948 0
-251 6950 0
-6949 6950 0
-251 -6949 0
-300 -6950 0
6 55 104 153 202 251 300 0
-7 6952 0
-56 6953 0
-6952 6953 0
-56 -6952 0
-105 6954 0
-6953 6954 0
-105 -6953 0
-154 6955 0
-6954 6955 0
-154 -6954 0
-203 6956 0
-6955 6956 0
-203 -6955 0
-252 6957 0
-6956 6957 0
-252 -6956 0
-301 -6957 0
7 56 105 154 203 252 301 0
-6959 8 0
-8 6959 0
6959 9 10 11 12 13 14 0
-6960 57 0
-57 6960 0
6960 58 59 60 61 62 63 0
-6961 106 0
-106 6961 0
6961 107 108 109 110 111 112 0
-6962 155 0
-155 6962 0
6962 156 157 158 159 160 161 0
-6963 204 0
-204 6963 0
6963 205 206 207 208 209 210 0
-6964 253 0
-253 6964 0
6964 254 255 256 257 258 259 0
-6965 302 0
-302 6965 0
6965 303 304 305 306 307 308 0
-6959 6966 0
-6960 6967 0
-6966 6967 0
-6960 -6966 0
-6961 6968 0
-6967 6968 0
-6961 -6967 0
-6962 6969 0
-6968 6969 0
-6962 -6968 0
-6963 6970 0
-6969 6970 0
-6963 -6969 0
-6964 6971 0
-6970 6971 0
-6964 -6970 0
-6965 -6971 0
-6973 8 9 0
-8 6973 0
-9 6973 0
6973 10 11 12 13 14 0
-6974 57 58 0
-57 6974 0
-58 6974 0
6974 59 60 61 62 63 0
-6975 106 107 0
-106 6975 0
-107 6975 0
6975 108 109 110 111 112 0
-6976 155 156 0
-155 6976 0
-156 6976 0
6976 157 158 159 160 161 0
-6977 204 205 0
-204 6977 0
-205 6977 0
6977 206 207 208 209 210 0
-6978 253 254 0
-253 6978 0
-254 6978 0
6978 255 256 257 258 259 0
-6979 302 303 0
-302 6979 0
-303 6979 0
6979 304 305 306 307 308 0
-6973 6980 0
-6981 0
-6974 6982 0
-6980 6982 0
-6974 -6980 6983 0
-6981 6983 0
-6974 -6981 0
-6975 6984 0
-6982 6984 0
-6975 -6982 6985 0
-6983 6985 0
-6975 -6983 0
-6976 6986 0
-6984 6986 0
-6976 -6984 6987 0
-6985 6987 0
-6976 -6985 0
-6977 6988 0
-6986 6988 0
-6977 -6986 6989 0
-6987 6989 0
-6977 -6987 0
-6978 6990 0
-6988 6990 0
-6978 -6988 6991 0
-6989 6991 0
-6978 -6989 0
-6979 -6991 0
-6994 8 9 10 0
-8 6994 0
-9 6994 0
-10 6994 0
6994 11 12 13 14 0
-6995 57 58 59 0
-57 6995 0
-58 6995 0
-59 6995 0
6995 60 61 62 63 0
-6996 106 107 108 0
-106 6996 0
-107 6996 0
-108 6996 0
6996 109 110 111 112 0
-6997 155 156 157 0
-155 6997 0
-156 6997 0
-157 6997 0
6997 158 159 160 161 0
-6998 204 205 206 0
-204 6998 0
-205 6998 0
-206 6998 0
6998 207 208 209 210 0
-6999 253 254 255 0
-253 6999 0
-254 6999 0
-255 6999 0
6999 256 257 258 259 0
-7000 302 303 304 0
-302 7000 0
-303 7000 0
-304 7000 0
7000 305 306 307 308 0
-6994 7001 0
-7002 0
-7003 0
-6995 7004 0
-7001 7004 0
-6995 -7001 7005 0
-7002 7005 0
-6995 -7002 7006 0
-7003 7006 0
-6995 -7003 0
-6996 7007 0
-7004 7007 0
-6996 -7004 7008 0
-7005 7008 0
-6996 -7005 7009 0
-7006 7009 0
-6996 -7006 0
-6997 7010 0
-7007 7010 0
-6997 -7007 7011 0
-7008 7011 0
-6997 -7008 7012 0
-7009 7012 0
-6997 -7009 0
-6998 7013 0
-7010 7013 0
-6998 -7010 7014 0
-7011 7014 0
-6998 -7011 7015 0
-7012 7015 0
-6998 -7012 0
-6999 7016 0
-7013 7016 0
-6999 -7013 7017 0
-7014 7017 0
-6999 -7014 7018 0
-7015 7018 0
-6999 -7015 0
-7000 -7018 0
-7022 8 9 10 11 0
-8 7022 0
-9 7022 0
-10 7022 0
-11 7022 0
7022 12 13 14 0
-7023 57 58 59 60 0
-57 7023 0
-58 7023 0
-59 7023 0
-60 7023 0
7023 61 62 63 0
-7024 106 107 108 109 0
-106 7024 0
-107 7024 0
-108 7024 0
-109 7024 0
7024 110 111 112 0
-7025 155 156 157 158 0
-155 7025 0
-156 7025 0
-157 7025 0
-158 7025 0
7025 159 160 161 0
-7026 204 205 206 207 0
-204 7026 0
-205 7026 0
-206 7026 0
-207 7026 0
7026 208 209 210 0
-7027 253 254 255 256 0
-253 7027 0
-254 7027 0
-255 7027 0
-256 7027 0
7027 257 258 259 0
-7028 302 303 304 305 0
-302 7028 0
-303 7028 0
-304 7028 0
-305 7028 0
7028 306 307 308 0
-7022 7029 0
-7030 0
-7031 0
-7032 0
-7023 7033 0
-7029 7033 0
-7023 -7029 7034 0
-7030 7034 0
-7023 -7030 7035 0
-7031 7035 0
-7023 -7031 7036 0
-7032 7036 0
-7023 -7032 0
-7024 7037 0
-7033 7037 0
-7024 -7033 7038 0
-7034 7038 0
-7024 -7034 7039 0
-7035 7039 0
-7024 -7035 7040 0
-7036 7040 0
-7024 -7036 0
-7025 7041 0
-7037 7041 0
-7025 -7037 7042 0
-7038 7042 0
-7025 -7038 7043 0
-7039 7043 0
-7025 -7039 7044 0
-7040 7044 0
-7025 -7040 0
-7026 7045 0
-7041 7045 0
-7026 -7041 7046 0
-7042 7046 0
-7026 -7042 7047 0
-7043 7047 0
-7026 -7043 7048 0
-7044 7048 0
-7026 -7044 0
-7027 7049 0
-7045 7049 0
-7027 -7045 7050 0
-7046 7050 0
-7027 -7046 7051 0
-7047 7051 0
-7027 -7047 7052 0
-7048 7052 0
-7027 -7048 0
-7028 -7052 0
-7057 8 9 10 11 12 0
-8 7057 0
-9 7057 0
-10 7057 0
-11 7057 0
-12 7057 0
7057 13 14 0
-7058 57 58 59 60 61 0
-57 7058 0
-58 7058 0
-59 7058 0
-60 7058 0
-61 7058 0
7058 62 63 0
-7059 106 107 108 109 110 0
-106 7059 0
-107 7059 0
-108 7059 0
-109 7059 0
-110 7059 0
7059 111 112 0
-7060 155 156 157 158 159 0
-155 7060 0
-156 7060 0
-157 7060 0
-158 7060 0
-159 7060 0
7060 160 161 0
-7061 204 205 206 207 208 0
-204 7061 0
-205 7061 0
-206 7061 0
-207 7061 0
-208 7061 0
7061 209 210 0
-7062 253 254 255 256 257 0
-253 7062 0
-254 7062 0
-255 7062 0
-256 7062 0
-257 7062 0
7062 258 259 0
-7063 302 303 304 305 306 0
-302 7063 0
-303 7063 0
-304 7063 0
-305 7063 0
-306 7063 0
7063 307 308 0
-7057 7064 0
-7065 0
-7066 0
-7067 0
-7068 0
-7058 7069 0
-7064 7069 0
-7058 -7064 7070 0
-7065 7070 0
-7058 -7065 7071 0
-7066 7071 0
-7058 -7066 7072 0
-7067 7072 0
-7058 -7067 7073 0
-7068 7073 0
-7058 -7068 0
-7059 7074 0
-7069 7074 0
-7059 -7069 7075 0
-7070 7075 0
-7059 -7070 7076 0
-7071 7076 0
-7059 -7071 7077 0
-7072 7077 0
-7059 -7072 7078 0
-7073 7078 0
-7059 -7073 0
-7060 7079 0
-7074 7079 0
-7060 -7074 7080 0
-7075 7080 0
-7060 -7075 7081 0
-7076 7081 0
-7060 -7076 7082 0
-7077 7082 0
-7060 -7077 7083 0
-7078 7083 0
-7060 -7078 0
-7061 7084 0
-7079 7084 0
-7061 -7079 7085 0
-7080 7085 0
-7061 -7080 7086 0
-7081 7086 0
-7061 -7081 7087 0
-7082 7087 0
-7061 -7082 7088 0
-7083 7088 0
-7061 -7083 0
-7062 7089 0
-7084 7089 0
-7062 -7084 7090 0
-7085 7090 0
-7062 -7085 7091 0
-7086 7091 0
-7062 -7086 7092 0
-7087 7092 0
-7062 -7087 7093 0
-7088 7093 0
-7062 -7088 0
-7063 -7093 0
-7099 8 9 10 11 12 13 0
-8 7099 0
-9 7099 0
-10 7099 0
-11 7099 0
-12 7099 0
-13 7099 0
7099 14 0
-7100 57 58 59 60 61 62 0
-57 7100 0
-58 7100 0
-59 7100 0
-60 7100 0
-61 7100 0
-62 7100 0
7100 63 0
-7101 106 107 108 109 110 111 0
-106 7101 0
-107 7101 0
-108 7101 0
-109 7101 0
-110 7101 0
-111 7101 0
7101 112 0
-7102 155 156 157 158 159 160 0
-155 7102 0
-156 7102 0
-157 7102 0
-158 7102 0
-159 7102 0
-160 7102 0
7102 161 0
-7103 204 205 206 207 208 209 0
-204 7103 0
-205 7103 0
-206 7103 0
-207 7103 0
-208 7103 0
-209 7103 0
7103 210 0
-7104 253 254 255 256 257 258 0
-253 7104 0
-254 7104 0
-255 7104 0
-256 7104 0
-257 7104 0
-258 7104 0
7104 259 0
-7105 302 303 304 305 306 307 0
-302 7105 0
-303 7105 0
-304 7105 0
-305 7105 0
-306 7105 0
-307 7105 0
7105 308 0
-7099 7106 0
-7107 0
-7108 0
-7109 0
-7110 0
-7111 0
-7100 7112 0
-7106 7112 0
-7100 -7106 7113 0
-7107 7113 0
-7100 -7107 7114 0
-7108 7114 0
-7100 -7108 7115 0
-7109 7115 0
-7100 -7109 7116 0
-7110 7116 0
-7100 -7110 7117 0
-7111 7117 0
-7100 -7111 0
-7101 7118 0
-7112 7118 0
-7101 -7112 7119 0
-7113 7119 0
-7101 -7113 7120 0
-7114 7120 0
-7101 -7114 7121 0
-7115 7121 0
-7101 -7115 7122 0
-7116 7122 0
-7101 -7116 7123 0
-7117 7123 0
-7101 -7117 0
-7102 7124 0
-7118 7124 0
-7102 -7118 7125 0
-7119 7125 0
-7102 -7119 7126 0
-7120 7126 0
-7102 -7120 7127 0
-7121 7127 0
-7102 -7121 7128 0
-7122 7128 0
-7102 -7122 7129 0
-7123 7129 0
-7102 -7123 0
-7103 7130 0
-7124 7130 0
-7103 -7124 7131 0
-7125 7131 0
-7103 -7125 7132 0
-7126 7132 0
-7103 -7126 7133 0
-7127 7133 0
-7103 -7127 7134 0
-7128 7134 0
-7103 -7128 7135 0
-7129 7135 0
-7103 -7129 0
-7104 7136 0
-7130 7136 0
-7104 -7130 7137 0
-7131 7137 0
-7104 -7131 7138 0
-7132 7138 0
-7104 -7132 7139 0
-7133 7139 0
-7104 -7133 7140 0
-7134 7140 0
-7104 -7134 7141 0
-7135 7141 0
-7104 -7135 0
-7105 -7141 0
-7148 8 9 10 11 12 13 14 0
-8 7148 0
-9 7148 0
-10 7148 0
-11 7148 0
-12 7148 0
-13 7148 0
-14 7148 0
7148 0
-7149 57 58 59 60 61 62 63 0
-57 7149 0
-58 7149 0
-59 7149 0
-60 7149 0
-61 7149 0
-62 7149 0
-63 7149 0
7149 0
-7150 106 107 108 109 110 111 112 0
-106 7150 0
-107 7150 0
-108 7150 0
-109 7150 0
-110 7150 0
-111 7150 0
-112 7150 0
7150 0
-7151 155 156 157 158 159 160 161 0
-155 7151 0
-156 7151 0
-157 7151 0
-158 7151 0
-159 7151 0
-160 7151 0
-161 7151 0
7151 0
-7152 204 205 206 207 208 209 210 0
-204 7152 0
-205 7152 0
-206 7152 0
-207 7152 0
-208 7152 0
-209 7152 0
-210 7152 0
7152 0
-7153 253 254 255 256 257 258 259 0
-253 7153 0
-254 7153 0
-255 7153 0
-256 7153 0
-257 7153 0
-258 7153 0
-259 7153 0
7153 0
-7154 302 303 304 305 306 307 308 0
-302 7154 0
-303 7154 0
-304 7154 0
-305 7154 0
-306 7154 0
-307 7154 0
-308 7154 0
7154 0
-7155 9 0
-9 7155 0
7155 8 10 11 12 13 14 0
-7156 58 0
-58 7156 0
7156 57 59 60 61 62 63 0
-7157 107 0
-107 7157 0
7157 106 108 109 110 111 112 0
-7158 156 0
-156 7158 0
7158 155 157 158 159 160 161 0
-7159 205 0
-205 7159 0
7159 204 206 207 208 209 210 0
-7160 254 0
-254 7160 0
7160 253 255 256 257 258 259 0
-7161 303 0
-303 7161 0
7161 302 304 305 306 307 308 0
-7155 7162 0
-7156 7163 0
-7162 7163 0
-7156 -7162 0
-7157 7164 0
-7163 7164 0
-7157 -7163 0
-7158 7165 0
-7164 7165 0
-7158 -7164 0
-7159 7166 0
-7165 7166 0
-7159 -7165 0
-7160 7167 0
-7166 7167 0
-7160 -7166 0
-7161 -7167 0
-7169 9 10 0
-9 7169 0
-10 7169 0
7169 8 11 12 13 14 0
-7170 58 59 0
-58 7170 0
-59 7170 0
7170 57 60 61 62 63 0
-7171 107 108 0
-107 7171 0
-108 7171 0
7171 106 109 110 111 112 0
-7172 156 157 0
-156 7172 0
-157 7172 0
7172 155 158 159 160 161 0
-7173 205 206 0
-205 7173 0
-206 7173 0
7173 204 207 208 209 210 0
-7174 254 255 0
-254 7174 0
-255 7174 0
7174 253 256 257 258 259 0
-7175 303 304 0
-303 7175 0
-304 7175 0
7175 302 305 306 307 308 0
-7169 7176 0
-7177 0
-7170 7178 0
-7176 7178 0
-7170 -7176 7179 0
-7177 7179 0
-7170 -7177 0
-7171 7180 0
-7178 7180 0
-7171 -7178 7181 0
-7179 7181 0
-7171 -7179 0
-7172 7182 0
-7180 7182 0
-7172 -7180 7183 0
-7181 7183 0
-7172 -7181 0
-7173 7184 0
-7182 7184 0
-7173 -7182 7185 0
-7183 7185 0
-7173 -7183 0
-7174 7186 0
-7184 7186 0
-7174 -7184 7187 0
-7185 7187 0
-7174 -7185 0
-7175 -7187 0
-7190 9 10 11 0
-9 7190 0
-10 7190 0
-11 7190 0
7190 8 12 13 14 0
-7191 58 59 60 0
-58 7191 0
-59 7191 0
-60 7191 0
7191 57 61 62 63 0
-7192 107 108 109 0
-107 7192 0
-108 7192 0
-109 7192 0
7192 106 110 111 112 0
-7193 156 157 158 0
-156 7193 0
-157 7193 0
-158 7193 0
7193 155 159 160 161 0
-7194 205 206 207 0
-205 7194 0
-206 7194 0
-207 7194 0
7194 204 208 209 210 0
-7195 254 255 256 0
-254 7195 0
-255 7195 0
-256 7195 0
7195 253 257 258 259 0
-7196 303 304 305 0
-303 7196 0
-304 7196 0
-305 7196 0
7196 302 306 307 308 0
-7190 7197 0
-7198 0
-7199 0
-7191 7200 0
-7197 7200 0
-7191 -7197 7201 0
-7198 7201 0
-7191 -7198 7202 0
-7199 7202 0
-7191 -7199 0
-7192 7203 0
-7200 7203 0
-7192 -7200 7204 0
-7201 7204 0
-7192 -7201 7205 0
-7202 7205 0
-7192 -7202 0
-7193 7206 0
-7203 7206 0
-7193 -7203 7207 0
-7204 7207 0
-7193 -7204 7208 0
-7205 7208 0
-7193 -7205 0
-7194 7209 0
-7206 7209 0
-7194 -7206 7210 0
-7207 7210 0
-7194 -7207 7211 0
-7208 7211 0
-7194 -7208 0
-7195 7212 0
-7209 7212 0
-7195 -7209 7213 0
-7210 7213 0
-7195 -7210 7214 0
-7211 7214 0
-7195 -7211 0
-7196 -7214 0
-7218 9 10 11 12 0
-9 7218 0
-10 7218 0
-11 7218 0
-12 7218 0
7218 8 13 14 0
-7219 58 59 60 61 0
-58 7219 0
-59 7219 0
-60 7219 0
-61 7219 0
7219 57 62 63 0
-7220 107 108 109 110 0
-107 7220 0
-108 7220 0
-109 7220 0
-110 7220 0
7220 106 111 112 0
-7221 156 157 158 159 0
-156 7221 0
-157 7221 0
-158 7221 0
-159 7221 0
7221 155 160 161 0
-7222 205 206 207 208 0
-205 7222 0
-206 7222 0
-207 7222 0
-208 7222 0
7222 204 209 210 0
-7223 254 255 256 257 0
-254 7223 0
-255 7223 0
-256 7223 0
-257 7223 0
7223 253 258 259 0
-7224 303 304 305 306 0
-303 7224 0
-304 7224 0
-305 7224 0
-306 7224 0
7224 302 307 308 0
-7218 7225 0
-7226 0
-7227 0
-7228 0
-7219 7229 0
-7225 7229 0
-7219 -7225 7230 0
-7226 7230 0
-7219 -7226 7231 0
-7227 7231 0
-7219 -7227 7232 0
-7228 7232 0
-7219 -7228 0
-7220 7233 0
-7229 7233 0
-7220 -7229 7234 0
-7230 7234 0
-7220 -7230 7235 0
-7231 7235 0
-7220 -7231 7236 0
-7232 7236 0
-7220 -7232 0
-7221 7237 0
-7233 7237 0
-7221 -7233 7238 0
-7234 7238 0
-7221 -7234 7239 0
-7235 7239 0
-7221 -7235 7240 0
-7236 7240 0
-7221 -7236 0
-7222 7241 0
-7237 7241 0
-7222 -7237 7242 0
-7238 7242 0
-7222 -7238 7243 0
-7239 7243 0
-7222 -7239 7244 0
-7240 7244 0
-7222 -7240 0
-7223 7245 0
-7241 7245 0
-7223 -7241 7246 0
-7242 7246 0
-7223 -7242 7247 0
-7243 7247 0
-7223 -7243 7248 0
-7244 7248 0
-7223 -7244 0
-7224 -7248 0
-7253 9 10 11 12 13 0
-9 7253 0
-10 7253 0
-11 7253 0
-12 7253 0
-13 7253 0
7253 8 14 0
-7254 58 59 60 61 62 0
-58 7254 0
-59 7254 0
-60 7254 0
-61 7254 0
-62 7254 0
7254 57 63 0
-7255 107 108 109 110 111 0
-107 7255 0
-108 7255 0
-109 7255 0
-110 7255 0
-111 7255 0
7255 106 112 0
-7256 156 157 158 159 160 0
-156 7256 0
-157 7256 0
-158 7256 0
-159 7256 0
-160 7256 0
7256 155 161 0
-7257 205 206 207 208 209 0
-205 7257 0
-206 7257 0
-207 7257 0
-208 7257 0
-209 7257 0
7257 204 210 0
-7258 254 255 256 257 258 0
-254 7258 0
-255 7258 0
-256 7258 0
-257 7258 0
-258 7258 0
7258 253 259 0
-7259 303 304 305 306 307 0
-303 7259 0
-304 7259 0
-305 7259 0
-306 7259 0
-307 7259 0
7259 302 308 0
-7253 7260 0
-7261 0
-7262 0
-7263 0
-7264 0
-7254 7265 0
-7260 7265 0
-7254 -7260 7266 0
-7261 7266 0
-7254 -7261 7267 0
-7262 7267 0
-7254 -7262 7268 0
-7263 7268 0
-7254 -7263 7269 0
-7264 7269 0
-7254 -7264 0
-7255 7270 0
-7265 7270 0
-7255 -7265 7271 0
-7266 7271 0
-7255 -7266 7272 0
-7267 7272 0
-7255 -7267 7273 0
-7268 7273 0
-7255 -7268 7274 0
-7269 7274 0
-7255 -7269 0
-7256 7275 0
-7270 7275 0
-7256 -7270 7276 0
-7271 7276 0
-7256 -7271 7277 0
-7272 7277 0
-7256 -7272 7278 0
-7273 7278 0
-7256 -7273 7279 0
-7274 7279 0
-7256 -7274 0
-7257 7280 0
-7275 7280 0
-7257 -7275 7281 0
-7276 7281 0
-7257 -7276 7282 0
-7277 7282 0
-7257 -7277 7283 0
-7278 7283 0
-7257 -7278 7284 0
-7279 7284 0
-7257 -7279 0
-7258 7285 0
-7280 7285 0
-7258 -7280 7286 0
-7281 7286 0
-7258 -7281 7287 0
-7282 7287 0
-7258 -7282 7288 0
-7283 7288 0
-7258 -7283 7289 0
-7284 7289 0
-7258 -7284 0
-7259 -7289 0
-7295 9 10 11 12 13 14 0
-9 7295 0
-10 7295 0
-11 7295 0
-12 7295 0
-13 7295 0
-14 7295 0
7295 8 0
-7296 58 59 60 61 62 63 0
-58 7296 0
-59 7296 0
-60 7296 0
-61 7296 0
-62 7296 0
-63 7296 0
7296 57 0
-7297 107 108 109 110 111 112 0
-107 7297 0
-108 7297 0
-109 7297 0
-110 7297 0
-111 7297 0
-112 7297 0
7297 106 0
-7298 156 157 158 159 160 161 0
-156 7298 0
-157 7298 0
-158 7298 0
-159 7298 0
-160 7298 0
-161 7298 0
7298 155 0
-7299 205 206 207 208 209 210 0
-205 7299 0
-206 7299 0
-207 7299 0
-208 7299 0
-209 7299 0
-210 7299 0
7299 204 0
-7300 254 255 256 257 258 259 0
-254 7300 0
-255 7300 0
-256 7300 0
-257 7300 0
-258 7300 0
-259 7300 0
7300 253 0
-7301 303 304 305 306 307 308 0
-303 7301 0
-304 7301 0
-305 7301 0
-306 7301 0
-307 7301 0
-308 7301 0
7301 302 0
-7295 7302 0
-7303 0
-7304 0
-7305 0
-7306 0
-7307 0
-7296 7308 0
-7302 7308 0
-7296 -7302 7309 0
-7303 7309 0
-7296 -7303 7310 0
-7304 7310 0
-7296 -7304 7311 0
-7305 7311 0
-7296 -7305 7312 0
-7306 7312 0
-7296 -7306 7313 0
-7307 7313 0
-7296 -7307 0
-7297 7314 0
-7308 7314 0
-7297 -7308 7315 0
-7309 7315 0
-7297 -7309 7316 0
-7310 7316 0
-7297 -7310 7317 0
-7311 7317 0
-7297 -7311 7318 0
-7312 7318 0
-7297 -7312 7319 0
-7313 7319 0
-7297 -7313 0
-7298 7320 0
-7314 7320 0
-7298 -7314 7321 0
-7315 7321 0
-7298 -7315 7322 0
-7316 7322 0
-7298 -7316 7323 0
-7317 7323 0
-7298 -7317 7324 0
-7318 7324 0
-7298 -7318 7325 0
-7319 7325 0
-7298 -7319 0
-7299 7326 0
-7320 7326 0
-7299 -7320 7327 0
-7321 7327 0
-7299 -7321 7328 0
-7322 7328 0
-7299 -7322 7329 0
-7323 7329 0
-7299 -7323 7330 0
-7324 7330 0
-7299 -7324 7331 0
-7325 7331 0
-7299 -7325 0
-7300 7332 0
-7326 7332 0
-7300 -7326 7333 0
-7327 7333 0
-7300 -7327 7334 0
-7328 7334 0
-7300 -7328 7335 0
-7329 7335 0
-7300 -7329 7336 0
-7330 7336 0
-7300 -7330 7337 0
-7331 7337 0
-7300 -7331 0
-7301 -7337 0
-7344 10 0
-10 7344 0
7344 8 9 11 12 13 14 0
-7345 59 0
-59 7345 0
7345 57 58 60 61 62 63 0
-7346 108 0
-108 7346 0
7346 106 107 109 110 111 112 0
-7347 157 0
-157 7347 0
7347 155 156 158 159 160 161 0
-7348 206 0
-206 7348 0
7348 204 205 207 208 209 210 0
-7349 255 0
-255 7349 0
7349 253 254 256 257 258 259 0
-7350 304 0
-304 7350 0
7350 302 303 305 306 307 308 0
-7344 7351 0
-7345 7352 0
-7351 7352 0
-7345 -7351 0
-7346 7353 0
-7352 7353 0
-7346 -7352 0
-7347 7354 0
-7353 7354 0
-7347 -7353 0
-7348 7355 0
-7354 7355 0
-7348 -7354 0
-7349 7356 0
-7355 7356 0
-7349 -7355 0
-7350 -7356 0
-7358 10 11 0
-10 7358 0
-11 7358 0
7358 8 9 12 13 14 0
-7359 59 60 0
-59 7359 0
-60 7359 0
7359 57 58 61 62 63 0
-7360 108 109 0
-108 7360 0
-109 7360 0
7360 106 107 110 111 112 0
-7361 157 158 0
-157 7361 0
-158 7361 0
7361 155 156 159 160 161 0
-7362 206 207 0
-206 7362 0
-207 7362 0
7362 204 205 208 209 210 0
-7363 255 256 0
-255 7363 0
-256 7363 0
7363 253 254 257 258 259 0
-7364 304 305 0
-304 7364 0
-305 7364 0
7364 302 303 306 307 308 0
-7358 7365 0
-7366 0
-7359 7367 0
-7365 7367 0
-7359 -7365 7368 0
-7366 7368 0
-7359 -7366 0
-7360 7369 0
-7367 7369 0
-7360 -7367 7370 0
-7368 7370 0
-7360 -7368 0
-7361 7371 0
-7369 7371 0
-7361 -7369 7372 0
-7370 7372 0
-7361 -7370 0
-7362 7373 0
-7371 7373 0
-7362 -7371 7374 0
-7372 7374 0
-7362 -7372 0
-7363 7375 0
-7373 7375 0
-7363 -7373 7376 0
-7374 7376 0
-7363 -7374 0
-7364 -7376 0
-7379 10 11 12 0
-10 7379 0
-11 7379 0
-12 7379 0
7379 8 9 13 14 0
-7380 59 60 61 0
-59 7380 0
-60 7380 0
-61 7380 0
7380 57 58 62 63 0
-7381 108 109 110 0
-108 7381 0
-109 7381 0
-110 7381 0
7381 106 107 111 112 0
-7382 157 158 159 0
-157 7382 0
-158 7382 0
-159 7382 0
7382 155 156 160 161 0
-7383 206 207 208 0
-206 7383 0
-207 7383 0
-208 7383 0
7383 204 205 209 210 0
-7384 255 256 257 0
-255 7384 0
-256 7384 0
-257 7384 0
7384 253 254 258 259 0
-7385 304 305 306 0
-304 7385 0
-305 7385 0
-306 7385 0
7385 302 303 307 308 0
-7379 7386 0
-7387 0
-7388 0
-7380 7389 0
-7386 7389 0
-7380 -7386 7390 0
-7387 7390 0
-7380 -7387 7391 0
-7388 7391 0
-7380 -7388 0
-7381 7392 0
-7389 7392 0
-7381 -7389 7393 0
-7390 7393 0
-7381 -7390 7394 0
-7391 7394 0
-7381 -7391 0
-7382 7395 0
-7392 7395 0
-7382 -7392 7396 0
-7393 7396 0
-7382 -7393 7397 0
-7394 7397 0
-7382 -7394 0
-7383 7398 0
-7395 7398 0
-7383 -7395 7399 0
-7396 7399 0
-7383 -7396 7400 0
-7397 7400 0
-7383 -7397 0
-7384 7401 0
-7398 7401 0
-7384 -7398 7402 0
-7399 7402 0
-7384 -7399 7403 0
-7400 7403 0
-7384 -7400 0
-7385 -7403 0
-7407 10 11 12 13 0
-10 7407 0
-11 7407 0
-12 7407 0
-13 7407 0
7407 8 9 14 0
-7408 59 60 61 62 0
-59 7408 0
-60 7408 0
-61 7408 0
-62 7408 0
7408 57 58 63 0
-7409 108 109 110 111 0
-108 7409 0
-109 7409 0
-110 7409 0
-111 7409 0
7409 106 107 112 0
-7410 157 158 159 160 0
-157 7410 0
-158 7410 0
-159 7410 0
-160 7410 0
7410 155 156 161 0
-7411 206 207 208 209 0
-206 7411 0
-207 7411 0
-208 7411 0
-209 7411 0
7411 204 205 210 0
-7412 255 256 257 258 0
-255 7412 0
-256 7412 0
-257 7412 0
-258 7412 0
7412 253 254 259 0
-7413 304 305 306 307 0
-304 7413 0
-305 7413 0
-306 7413 0
-307 7413 0
7413 302 303 308 0
-7407 7414 0
-7415 0
-7416 0
-7417 0
-7408 7418 0
-7414 7418 0
-7408 -7414 7419 0
-7415 7419 0
-7408 -7415 7420 0
-7416 7420 0
-7408 -7416 7421 0
-7417 7421 0
-7408 -7417 0
-7409 7422 0
-7418 7422 0
-7409 -7418 7423 0
-7419 7423 0
-7409 -7419 7424 0
-7420 7424 0
-7409 -7420 7425 0
-7421 7425 0
-7409 -7421 0
-7410 7426 0
-7422 7426 0
-7410 -7422 7427 0
-7423 7427 0
-7410 -7423 7428 0
-7424 7428 0
-7410 -7424 7429 0
-7425 7429 0
-7410 -7425 0
-7411 7430 0
-7426 7430 0
-7411 -7426 7431 0
-7427 7431 0
-7411 -7427 7432 0
-7428 7432 0
-7411 -7428 7433 0
-7429 7433 0
-7411 -7429 0
-7412 7434 0
-7430 7434 0
-7412 -7430 7435 0
-7431 7435 0
-7412 -7431 7436 0
-7432 7436 0
-7412 -7432 7437 0
-7433 7437 0
-7412 -7433 0
-7413 -7437 0
-7442 10 11 12 13 14 0
-10 7442 0
-11 7442 0
-12 7442 0
-13 7442 0
-14 7442 0
7442 8 9 0
-7443 59 60 61 62 63 0
-59 7443 0
-60 7443 0
-61 7443 0
-62 7443 0
-63 7443 0
7443 57 58 0
-7444 108 109 110 111 112 0
-108 7444 0
-109 7444 0
-110 7444 0
-111 7444 0
-112 7444 0
7444 106 107 0
-7445 157 158 159 160 161 0
-157 7445 0
-158 7445 0
-159 7445 0
-160 7445 0
-161 7445 0
7445 155 156 0
-7446 206 207 208 209 210 0
-206 7446 0
-207 7446 0
-208 7446 0
-209 7446 0
-210 7446 0
7446 204 205 0
-7447 255 256 257 258 259 0
-255 7447 0
-256 7447 0
-257 7447 0
-258 7447 0
-259 7447 0
7447 253 254 0
-7448 304 305 306 307 308 0
-304 7448 0
-305 7448 0
-306 7448 0
-307 7448 0
-308 7448 0
7448 302 303 0
-7442 7449 0
-7450 0
-7451 0
-7452 0
-7453 0
-7443 7454 0
-7449 7454 0
-7443 -7449 7455 0
-7450 7455 0
-7443 -7450 7456 0
-7451 7456 0
-7443 -7451 7457 0
-7452 7457 0
-7443 -7452 7458 0
-7453 7458 0
-7443 -7453 0
-7444 7459 0
-7454 7459 0
-7444 -7454 7460 0
-7455 7460 0
-7444 -7455 7461 0
-7456 7461 0
-7444 -7456 7462 0
-7457 7462 0
-7444 -7457 7463 0
-7458 7463 0
-7444 -7458 0
-7445 7464 0
-7459 7464 0
-7445 -7459 7465 0
-7460 7465 0
-7445 -7460 7466 0
-7461 7466 0
-7445 -7461 7467 0
-7462 7467 0
-7445 -7462 7468 0
-7463 7468 0
-7445 -7463 0
-7446 7469 0
-7464 7469 0
-7446 -7464 7470 0
-7465 7470 0
-7446 -7465 7471 0
-7466 7471 0
-7446 -7466 7472 0
-7467 7472 0
-7446 -7467 7473 0
-7468 7473 0
-7446 -7468 0
-7447 7474 0
-7469 7474 0
-7447 -7469 7475 0
-7470 7475 0
-7447 -7470 7476 0
-7471 7476 0
-7447 -7471 7477 0
-7472 7477 0
-7447 -7472 7478 0
-7473 7478 0
-7447 -7473 0
-7448 -7478 0
-7484 11 0
-11 7484 0
7484 8 9 10 12 13 14 0
-7485 60 0
-60 7485 0
7485 57 58 59 61 62 63 0
-7486 109 0
-109 7486 0
7486 106 107 108 110 111 112 0
-7487 158 0
-158 7487 0
7487 155 156 157 159 160 161 0
-7488 207 0
-207 7488 0
7488 204 205 206 208 209 210 0
-7489 256 0
-256 7489 0
7489 253 254 255 257 258 259 0
-7490 305 0
-305 7490 0
7490 302 303 304 306 307 308 0
-7484 7491 0
-7485 7492 0
-7491 7492 0
-7485 -7491 0
-7486 7493 0
-7492 7493 0
-7486 -7492 0
-7487 7494 0
-7493 7494 0
-7487 -7493 0
-7488 7495 0
-7494 7495 0
-7488 -7494 0
-7489 7496 0
-7495 7496 0
-7489 -7495 0
-7490 -7496 0
-7498 11 12 0
-11 7498 0
-12 7498 0
7498 8 9 10 13 14 0
-7499 60 61 0
-60 7499 0
-61 7499 0
7499 57 58 59 62 63 0
-7500 109 110 0
-109 7500 0
-110 7500 0
7500 106 107 108 111 112 0
-7501 158 159 0
-158 7501 0
-159 7501 0
7501 155 156 157 160 161 0
-7502 207 208 0
-207 7502 0
-208 7502 0
7502 204 205 206 209 210 0
-7503 256 257 0
-256 7503 0
-257 7503 0
7503 253 254 255 258 259 0
-7504 305 306 0
-305 7504 0
-306 7504 0
7504 302 303 304 307 308 0
-7498 7505 0
-7506 0
-7499 7507 0
-7505 7507 0
-7499 -7505 7508 0
-7506 7508 0
-7499 -7506 0
-7500 7509 0
-7507 7509 0
-7500 -7507 7510 0
-7508 7510 0
-7500 -7508 0
-7501 7511 0
-7509 7511 0
-7501 -7509 7512 0
-7510 7512 0
-7501 -7510 0
-7502 7513 0
-7511 7513 0
-7502 -7511 7514 0
-7512 7514 0
-7502 -7512 0
-7503 7515 0
-7513 7515 0
-7503 -7513 7516 0
-7514 7516 0
-7503 -7514 0
-7504 -7516 0
-7519 11 12 13 0
-11 7519 0
-12 7519 0
-13 7519 0
7519 8 9 10 14 0
-7520 60 61 62 0
-60 7520 0
-61 7520 0
-62 7520 0
7520 57 58 59 63 0
-7521 109 110 111 0
-109 7521 0
-110 7521 0
-111 7521 0
7521 106 107 108 112 0
-7522 158 159 160 0
-158 7522 0
-159 7522 0
-160 7522 0
7522 155 156 157 161 0
-7523 207 208 209 0
-207 7523 0
-208 7523 0
-209 7523 0
7523 204 205 206 210 0
-7524 256 257 258 0
-256 7524 0
-257 7524 0
-258 7524 0
7524 253 254 255 259 0
-7525 305 306 307 0
-305 7525 0
-306 7525 0
-307 7525 0
7525 302 303 304 308 0
-7519 7526 0
-7527 0
-7528 0
-7520 7529 0
-7526 7529 0
-7520 -7526 7530 0
-7527 7530 0
-7520 -7527 7531 0
-7528 7531 0
-7520 -7528 0
-7521 7532 0
-7529 7532 0
-7521 -7529 7533 0
-7530 7533 0
-7521 -7530 7534 0
-7531 7534 0
-7521 -7531 0
-7522 7535 0
-7532 7535 0
-7522 -7532 7536 0
-7533 7536 0
-7522 -7533 7537 0
-7534 7537 0
-7522 -7534 0
-7523 7538 0
-7535 7538 0
-7523 -7535 7539 0
-7536 7539 0
-7523 -7536 7540 0
-7537 7540 0
-7523 -7537 0
-7524 7541 0
-7538 7541 0
-7524 -7538 7542 0
-7539 7542 0
-7524 -7539 7543 0
-7540 7543 0
-7524 -7540 0
-7525 -7543 0
-7547 11 12 13 14 0
-11 7547 0
-12 7547 0
-13 7547 0
-14 7547 0
7547 8 9 10 0
-7548 60 61 62 63 0
-60 7548 0
-61 7548 0
-62 7548 0
-63 7548 0
7548 57 58 59 0
-7549 109 110 111 112 0
-109 7549 0
-110 7549 0
-111 7549 0
-112 7549 0
7549 106 107 108 0
-7550 158 159 160 161 0
-158 7550 0
-159 7550 0
-160 7550 0
-161 7550 0
7550 155 156 157 0
-7551 207 208 209 210 0
-207 7551 0
-208 7551 0
-209 7551 0
-210 7551 0
7551 204 205 206 0
-7552 256 257 258 259 0
-256 7552 0
-257 7552 0
-258 7552 0
-259 7552 0
7552 253 254 255 0
-7553 305 306 307 308 0
-305 7553 0
-306 7553 0
-307 7553 0
-308 7553 0
7553 302 303 304 0
-7547 7554 0
-7555 0
-7556 0
-7557 0
-7548 7558 0
-7554 7558 0
-7548 -7554 7559 0
-7555 7559 0
-7548 -7555 7560 0
-7556 7560 0
-7548 -7556 7561 0
-7557 7561 0
-7548 -7557 0
-7549 7562 0
-7558 7562 0
-7549 -7558 7563 0
-7559 7563 0
-7549 -7559 7564 0
-7560 7564 0
-7549 -7560 7565 0
-7561 7565 0
-7549 -7561 0
-7550 7566 0
-7562 7566 0
-7550 -7562 7567 0
-7563 7567 0
-7550 -7563 7568 0
-7564 7568 0
-7550 -7564 7569 0
-7565 7569 0
-7550 -7565 0
-7551 7570 0
-7566 7570 0
-7551 -7566 7571 0
-7567 7571 0
-7551 -7567 7572 0
-7568 7572 0
-7551 -7568 7573 0
-7569 7573 0
-7551 -7569 0
-7552 7574 0
-7570 7574 0
-7552 -7570 7575 0
-7571 7575 0
-7552 -7571 7576 0
-7572 7576 0
-7552 -7572 7577 0
-7573 7577 0
-7552 -7573 0
-7553 -7577 0
-7582 12 0
-12 7582 0
7582 8 9 10 11 13 14 0
-7583 61 0
-61 7583 0
7583 57 58 59 60 62 63 0
-7584 110 0
-110 7584 0
7584 106 107 108 109 111 112 0
-7585 159 0
-159 7585 0
7585 155 156 157 158 160 161 0
-7586 208 0
-208 7586 0
7586 204 205 206 207 209 210 0
-7587 257 0
-257 7587 0
7587 253 254 255 256 258 259 0
-7588 306 0
-306 7588 0
7588 302 303 304 305 307 308 0
-7582 7589 0
-7583 7590 0
-7589 7590 0
-7583 -7589 0
-7584 7591 0
-7590 7591 0
-7584 -7590 0
-7585 7592 0
-7591 7592 0
-7585 -7591 0
-7586 7593 0
-7592 7593 0
-7586 -7592 0
-7587 7594 0
-7593 7594 0
-7587 -7593 0
-7588 -7594 0
-7596 12 13 0
-12 7596 0
-13 7596 0
7596 8 9 10 11 14 0
-7597 61 62 0
-61 7597 0
-62 7597 0
7597 57 58 59 60 63 0
-7598 110 111 0
-110 7598 0
-111 7598 0
7598 106 107 108 109 112 0
-7599 159 160 0
-159 7599 0
-160 7599 0
7599 155 156 157 158 161 0
-7600 208 209 0
-208 7600 0
-209 7600 0
7600 204 205 206 207 210 0
-7601 257 258 0
-257 7601 0
-258 7601 0
7601 253 254 255 256 259 0
-7602 306 307 0
-306 7602 0
-307 7602 0
7602 302 303 304 305 308 0
-7596 7603 0
-7604 0
-7597 7605 0
-7603 7605 0
-7597 -7603 7606 0
-7604 7606 0
-7597 -7604 0
-7598 7607 0
-7605 7607 0
-7598 -7605 7608 0
-7606 7608 0
-7598 -7606 0
-7599 7609 0
-7607 7609 0
-7599 -7607 7610 0
-7608 7610 0
-7599 -7608 0
-7600 7611 0
-7609 7611 0
-7600 -7609 7612 0
-7610 7612 0
-7600 -7610 0
-7601 7613 0
-7611 7613 0
-7601 -7611 7614 0
-7612 7614 0
-7601 -7612 0
-7602 -7614 0
-7617 12 13 14 0
-12 7617 0
-13 7617 0
-14 7617 0
7617 8 9 10 11 0
-7618 61 62 63 0
-61 7618 0
-62 7618 0
-63 7618 0
7618 57 58 59 60 0
-7619 110 111 112 0
-110 7619 0
-111 7619 0
-112 7619 0
7619 106 107 108 109 0
-7620 159 160 161 0
-159 7620 0
-160 7620 0
-161 7620 0
7620 155 156 157 158 0
-7621 208 209 210 0
-208 7621 0
-209 7621 0
-210 7621 0
7621 204 205 206 207 0
-7622 257 258 259 0
-257 7622 0
-258 7622 0
-259 7622 0
7622 253 254 255 256 0
-7623 306 307 308 0
-306 7623 0
-307 7623 0
-308 7623 0
7623 302 303 304 305 0
-7617 7624 0
-7625 0
-7626 0
-7618 7627 0
-7624 7627 0
-7618 -7624 7628 0
-7625 7628 0
-7618 -7625 7629 0
-7626 7629 0
-7618 -7626 0
-7619 7630 0
-7627 7630 0
-7619 -7627 7631 0
-7628 7631 0
-7619 -7628 7632 0
-7629 7632 0
-7619 -7629 0
-7620 7633 0
-7630 7633 0
-7620 -7630 7634 0
-7631 7634 0
-7620 -7631 7635 0
-7632 7635 0
-7620 -7632 0
-7621 7636 0
-7633 7636 0
-7621 -7633 7637 0
-7634 7637 0
-7621 -7634 7638 0
-7635 7638 0
-7621 -7635 0
-7622 7639 0
-7636 7639 0
-7622 -7636 7640 0
-7637 7640 0
-7622 -7637 7641 0
-7638 7641 0
-7622 -7638 0
-7623 -7641 0
-7645 13 0
-13 7645 0
7645 8 9 10 11 12 14 0
-7646 62 0
-62 7646 0
7646 57 58 59 60 61 63 0
-7647 111 0
-111 7647 0
7647 106 107 108 109 110 112 0
-7648 160 0
-160 7648 0
7648 155 156 157 158 159 161 0
-7649 209 0
-209 7649 0
7649 204 205 206 207 208 210 0
-7650 258 0
-258 7650 0
7650 253 254 255 256 257 259 0
-7651 307 0
-307 7651 0
7651 302 303 304 305 306 308 0
-7645 7652 0
-7646 7653 0
-7652 7653 0
-7646 -7652 0
-7647 7654 0
-7653 7654 0
-7647 -7653 0
-7648 7655 0
-7654 7655 0
-7648 -7654 0
-7649 7656 0
-7655 7656 0
-7649 -7655 0
-7650 7657 0
-7656 7657 0
-7650 -7656 0
-7651 -7657 0
-7659 13 14 0
-13 7659 0
-14 7659 0
7659 8 9 10 11 12 0
-7660 62 63 0
-62 7660 0
-63 7660 0
7660 57 58 59 60 61 0
-7661 111 112 0
-111 7661 0
-112 7661 0
7661 106 107 108 109 110 0
-7662 160 161 0
-160 7662 0
-161 7662 0
7662 155 156 157 158 159 0
-7663 209 210 0
-209 7663 0
-210 7663 0
7663 204 205 206 207 208 0
-7664 258 259 0
-258 7664 0
-259 7664 0
7664 253 254 255 256 257 0
-7665 307 308 0
-307 7665 0
-308 7665 0
7665 302 303 304 305 306 0
-7659 7666 0
-7667 0
-7660 7668 0
-7666 7668 0
-7660 -7666 7669 0
-7667 7669 0
-7660 -7667 0
-7661 7670 0
-7668 7670 0
-7661 -7668 7671 0
-7669 7671 0
-7661 -7669 0
-7662 7672 0
-7670 7672 0
-7662 -7670 7673 0
-7671 7673 0
-7662 -7671 0
-7663 7674 0
-7672 7674 0
-7663 -7672 7675 0
-7673 7675 0
-7663 -7673 0
-7664 7676 0
-7674 7676 0
-7664 -7674 7677 0
-7675 7677 0
-7664 -7675 0
-7665 -7677 0
-7680 14 0
-14 7680 0
7680 8 9 10 11 12 13 0
-7681 63 0
-63 7681 0
7681 57 58 59 60 61 62 0
-7682 112 0
-112 7682 0
7682 106 107 108 109 110 111 0
-7683 161 0
-161 7683 0
7683 155 156 157 158 159 160 0
-7684 210 0
-210 7684 0
7684 204 205 206 207 208 209 0
-7685 259 0
-259 7685 0
7685 253 254 255 256 257 258 0
-7686 308 0
-308 7686 0
7686 302 303 304 305 306 307 0
-7680 7687 0
-7681 7688 0
-7687 7688 0
-7681 -7687 0
-7682 7689 0
-7688 7689 0
-7682 -7688 0
-7683 7690 0
-7689 7690 0
-7683 -7689 0
-7684 7691 0
-7690 7691 0
-7684 -7690 0
-7685 7692 0
-7691 7692 0
-7685 -7691 0
-7686 -7692 0
-8 7694 0
-57 7695 0
-7694 7695 0
-57 -7694 0
-106 7696 0
-7695 7696 0
-106 -7695 0
-155 7697 0
-7696 7697 0
-155 -7696 0
-204 7698 0
-7697 7698 0
-204 -7697 0
-253 7699 0
-7698 7699 0
-253 -7698 0
-302 -7699 0
8 57 106 155 204 253 302 0
-9 7701 0
-58 7702 0
-7701 7702 0
-58 -7701 0
-107 7703 0
-7702 7703 0
-107 -7702 0
-156 7704 0
-7703 7704 0
-156 -7703 0
-205 7705 0
-7704 7705 0
-205 -7704 0
-254 7706 0
-7705 7706 0
-254 -7705 0
-303 -7706 0
9 58 107 156 205 254 303 0
-10 7708 0
-59 7709 0
-7708 7709 0
-59 -7708 0
-108 7710 0
-7709 7710 0
-108 -7709 0
-157 7711 0
-7710 7711 0
-157 -7710 0
-206 7712 0
-7711 7712 0
-206 -7711 0
-255 7713 0
-7712 7713 0
-255 -7712 0
-304 -7713 0
10 59 108 157 206 255 304 0
-11 7715 0
-60 7716 0
-7715 7716 0
-60 -7715 0
-109 7717 0
-7716 7717 0
-109 -7716 0
-158 7718 0
-7717 7718 0
-158 -7717 0
-207 7719 0
-7718 7719 0
-207 -7718 0
-256 7720 0
-7719 7720 0
-256 -7719 0
-305 -7720 0
11 60 109 158 207 256 305 0
-12 7722 0
-61 7723 0
-7722 7723 0
-61 -7722 0
-110 7724 0
-7723 7724 0
-110 -7723 0
-159 7725 0
-7724 7725 0
-159 -7724 0
-208 7726 0
-7725 7726 0
-208 -7725 0
-257 7727 0
-7726 7727 0
-257 -7726 0
-306 -7727 0
12 61 110 159 208 257 306 0
-13 7729 0
-62 7730 0
-7729 7730 0
-62 -7729 0
-111 7731 0
-7730 7731 0
-111 -7730 0
-160 7732 0
-7731 7732 0
-160 -7731 0
-209 7733 0
-7732 7733 0
-209 -7732 0
-258 7734 0
-7733 7734 0
-258 -7733 0
-307 -7734 0
13 62 111 160 209 258 307 0
-14 7736 0
-63 7737 0
-7736 7737 0
-63 -7736 0
-112 7738 0
-7737 7738 0
-112 -7737 0
-161 7739 0
-7738 7739 0
-161 -7738 0
-210 7740 0
-7739 7740 0
-210 -7739 0
-259 7741 0
-7740 7741 0
-259 -7740 0
-308 -7741 0
14 63 112 161 210 259 308 0
-7743 15 0
-15 7743 0
7743 16 17 18 19 20 21 0
-7744 64 0
-64 7744 0
7744 65 66 67 68 69 70 0
-7745 113 0
-113 7745 0
7745 114 115 116 117 118 119 0
-7746 162 0
-162 7746 0
7746 163 164 165 166 167 168 0
-7747 211 0
-211 7747 0
7747 212 213 214 215 216 217 0
-7748 260 0
-260 7748 0
7748 261 262 263 264 265 266 0
-7749 309 0
-309 7749 0
7749 310 311 312 313 314 315 0
-7743 7750 0
-7744 7751 0
-7750 7751 0
-7744 -7750 0
-7745 7752 0
-7751 7752 0
-7745 -7751 0
-7746 7753 0
-7752 7753 0
-7746 -7752 0
-7747 7754 0
-7753 7754 0
-7747 -7753 0
-7748 7755 0
-7754 7755 0
-7748 -7754 0
-7749 -7755 0
-7757 15 16 0
-15 7757 0
-16 7757 0
7757 17 18 19 20 21 0
-7758 64 65 0
-64 7758 0
-65 7758 0
7758 66 67 68 69 70 0
-7759 113 114 0
-113 7759 0
-114 7759 0
7759 115 116 117 118 119 0
-7760 162 163 0
-162 7760 0
-163 7760 0
7760 164 165 166 167 168 0
-7761 211 212 0
-211 7761 0
-212 7761 0
7761 213 214 215 216 217 0
-7762 260 261 0
-260 7762 0
-261 7762 0
7762 262 263 264 265 266 0
-7763 309 310 0
-309 7763 0
-310 7763 0
7763 311 312 313 314 315 0
-7757 7764 0
-7765 0
-7758 7766 0
-7764 7766 0
-7758 -7764 7767 0
-7765 7767 0
-7758 -7765 0
-7759 7768 0
-7766 7768 0
-7759 -7766 7769 0
-7767 7769 0
-7759 -7767 0
-7760 7770 0
-7768 7770 0
-7760 -7768 7771 0
-7769 7771 0
-7760 -7769 0
-7761 7772 0
-7770 7772 0
-7761 -7770 7773 0
-7771 7773 0
-7761 -7771 0
-7762 7774 0
-7772 7774 0
-7762 -7772 7775 0
-7773 7775 0
-7762 -7773 0
-7763 -7775 0
-7778 15 16 17 0
-15 7778 0
-16 7778 0
-17 7778 0
7778 18 19 20 21 0
-7779 64 65 66 0
-64 7779 0
-65 7779 0
-66 7779 0
7779 67 68 69 70 0
-7780 113 114 115 0
-113 7780 0
-114 7780 0
-115 7780 0
7780 116 117 118 119 0
-7781 162 163 164 0
-162 7781 0
-163 7781 0
-164 7781 0
7781 165 166 167 168 0
-7782 211 212 213 0
-211 7782 0
-212 7782 0
-213 7782 0
7782 214 215 216 217 0
-7783 260 261 262 0
-260 7783 0
-261 7783 0
-262 7783 0
7783 263 264 265 266 0
-7784 309 310 311 0
-309 7784 0
-310 7784 0
-311 7784 0
7784 312 313 314 315 0
-7778 7785 0
-7786 0
-7787 0
-7779 7788 0
-7785 7788 0
-7779 -7785 7789 0
-7786 7789 0
-7779 -7786 7790 0
-7787 7790 0
-7779 -7787 0
-7780 7791 0
-7788 7791 0
-7780 -7788 7792 0
-7789 7792 0
-7780 -7789 7793 0
-7790 7793 0
-7780 -7790 0
-7781 7794 0
-7791 7794 0
-7781 -7791 7795 0
-7792 7795 0
-7781 -7792 7796 0
-7793 7796 0
-7781 -7793 0
-7782 7797 0
-7794 7797 0
-7782 -7794 7798 0
-7795 7798 0
-7782 -7795 7799 0
-7796 7799 0
-7782 -7796 0
-7783 7800 0
-7797 7800 0
-7783 -7797 7801 0
-7798 7801 0
-7783 -7798 7802 0
-7799 7802 0
-7783 -7799 0
-7784 -7802 0
-7806 15 16 17 18 0
-15 7806 0
-16 7806 0
-17 7806 0
-18 7806 0
7806 19 20 21 0
-7807 64 65 66 67 0
-64 7807 0
-65 7807 0
-66 7807 0
-67 7807 0
7807 68 69 70 0
-7808 113 114 115 116 0
-113 7808 0
-114 7808 0
-115 7808 0
-116 7808 0
7808 117 118 119 0
-7809 162 163 164 165 0
-162 7809 0
-163 7809 0
-164 7809 0
-165 7809 0
7809 166 167 168 0
-7810 211 212 213 214 0
-211 7810 0
-212 7810 0
-213 7810 0
-214 7810 0
7810 215 216 217 0
-7811 260 261 262 263 0
-260 7811 0
-261 7811 0
-262 7811 0
-263 7811 0
7811 264 265 266 0
-7812 309 310 311 312 0
-309 7812 0
-310 7812 0
-311 7812 0
-312 7812 0
7812 313 314 315 0
-7806 7813 0
-7814 0
-7815 0
-7816 0
-7807 7817 0
-7813 7817 0
-7807 -7813 7818 0
-7814 7818 0
-7807 -7814 7819 0
-7815 7819 0
-7807 -7815 7820 0
-7816 7820 0
-7807 -7816 0
-7808 7821 0
-7817 7821 0
-7808 -7817 7822 0
-7818 7822 0
-7808 -7818 7823 0
-7819 7823 0
-7808 -7819 7824 0
-7820 7824 0
-7808 -7820 0
-7809 7825 0
-7821 7825 0
-7809 -7821 7826 0
-7822 7826 0
-7809 -7822 7827 0
-7823 7827 0
-7809 -7823 7828 0
-7824 7828 0
-7809 -7824 0
-7810 7829 0
-7825 7829 0
-7810 -7825 7830 0
-7826 7830 0
-7810 -7826 7831 0
-7827 7831 0
-7810 -7827 7832 0
-7828 7832 0
-7810 -7828 0
-7811 7833 0
-7829 7833 0
-7811 -7829 7834 0
-7830 7834 0
-7811 -7830 7835 0
-7831 7835 0
-7811 -7831 7836 0
-7832 7836 0
-7811 -7832 0
-7812 -7836 0
-7841 15 16 17 18 19 0
-15 7841 0
-16 7841 0
-17 7841 0
-18 7841 0
-19 7841 0
7841 20 21 0
-7842 64 65 66 67 68 0
-64 7842 0
-65 7842 0
-66 7842 0
-67 7842 0
-68 7842 0
7842 69 70 0
-7843 113 114 115 116 117 0
-113 7843 0
-114 7843 0
-115 7843 0
-116 7843 0
-117 7843 0
7843 118 119 0
-7844 162 163 164 165 166 0
-162 7844 0
-163 7844 0
-164 7844 0
-165 7844 0
-166 7844 0
7844 167 168 0
-7845 211 212 213 214 215 0
-211 7845 0
-212 7845 0
-213 7845 0
-214 7845 0
-215 7845 0
7845 216 217 0
-7846 260 261 262 263 264 0
-260 7846 0
-261 7846 0
-262 7846 0
-263 7846 0
-264 7846 0
7846 265 266 0
-7847 309 310 311 312 313 0
-309 7847 0
-310 7847 0
-311 7847 0
-312 7847 0
-313 7847 0
7847 314 315 0
-7841 7848 0
-7849 0
-7850 0
-7851 0
-7852 0
-7842 7853 0
-7848 7853 0
-7842 -7848 7854 0
-7849 7854 0
-7842 -7849 7855 0
-7850 7855 0
-7842 -7850 7856 0
-7851 7856 0
-7842 -7851 7857 0
-7852 7857 0
-7842 -7852 0
-7843 7858 0
-7853 7858 0
-7843 -7853 7859 0
-7854 7859 0
-7843 -7854 7860 0
-7855 7860 0
-7843 -7855 7861 0
-7856 7861 0
-7843 -7856 7862 0
-7857 7862 0
-7843 -7857 0
-7844 7863 0
-7858 7863 0
-7844 -7858 7864 0
-7859 7864 0
-7844 -7859 7865 0
-7860 7865 0
-7844 -7860 7866 0
-7861 7866 0
-7844 -7861 7867 0
-7862 7867 0
-7844 -7862 0
-7845 7868 0
-7863 7868 0
-7845 -7863 7869 0
-7864 7869 0
-7845 -7864 7870 0
-7865 7870 0
-7845 -7865 7871 0
-7866 7871 0
-7845 -7866 7872 0
-7867 7872 0
-7845 -7867 0
-7846 7873 0
-7868 7873 0
-7846 -7868 7874 0
-7869 7874 0
-7846 -7869 7875 0
-7870 7875 0
-7846 -7870 7876 0
-7871 7876 0
-7846 -7871 7877 0
-7872 7877 0
-7846 -7872 0
-7847 -7877 0
-7883 15 16 17 18 19 20 0
-15 7883 0
-16 7883 0
-17 7883 0
-18 7883 0
-19 7883 0
-20 7883 0
7883 21 0
-7884 64 65 66 67 68 69 0
-64 7884 0
-65 7884 0
-66 7884 0
-67 7884 0
-68 7884 0
-69 7884 0
7884 70 0
-7885 113 114 115 116 117 118 0
-113 7885 0
-114 7885 0
-115 7885 0
-116 7885 0
-117 7885 0
-118 7885 0
7885 119 0
-7886 162 163 164 165 166 167 0
-162 7886 0
-163 7886 0
-164 7886 0
-165 7886 0
-166 7886 0
-167 7886 0
7886 168 0
-7887 211 212 213 214 215 216 0
-211 7887 0
-212 7887 0
-213 7887 0
-214 7887 0
-215 7887 0
-216 7887 0
7887 217 0
-7888 260 261 262 263 264 265 0
-260 7888 0
-261 7888 0
-262 7888 0
-263 7888 0
-264 7888 0
-265 7888 0
7888 266 0
-7889 309 310 311 312 313 314 0
-309 7889 0
-310 7889 0
-311 7889 0
-312 7889 0
-313 7889 0
-314 7889 0
7889 315 0
-7883 7890 0
-7891 0
-7892 0
-7893 0
-7894 0
-7895 0
-7884 7896 0
-7890 7896 0
-7884 -7890 7897 0
-7891 7897 0
-7884 -7891 7898 0
-7892 7898 0
-7884 -7892 7899 0
-7893 7899 0
-7884 -7893 7900 0
-7894 7900 0
-7884 -7894 7901 0
-7895 7901 0
-7884 -7895 0
-7885 7902 0
-7896 7902 0
-7885 -7896 7903 0
-7897 7903 0
-7885 -7897 7904 0
-7898 7904 0
-7885 -7898 7905 0
-7899 7905 0
-7885 -7899 7906 0
-7900 7906 0
-7885 -7900 7907 0
-7901 7907 0
-7885 -7901 0
-7886 7908 0
-7902 7908 0
-7886 -7902 7909 0
-7903 7909 0
-7886 -7903 7910 0
-7904 7910 0
-7886 -7904 7911 0
-7905 7911 0
-7886 -7905 7912 0
-7906 7912 0
-7886 -7906 7913 0
-7907 7913 0
-7886 -7907 0
-7887 7914 0
-7908 7914 0
-7887 -7908 7915 0
-7909 7915 0
-7887 -7909 7916 0
-7910 7916 0
-7887 -7910 7917 0
-7911 7917 0
-7887 -7911 7918 0
-7912 7918 0
-7887 -7912 7919 0
-7913 7919 0
-7887 -7913 0
-7888 7920 0
-7914 7920 0
-7888 -7914 7921 0
-7915 7921 0
-7888 -7915 7922 0
-7916 7922 0
-7888 -7916 7923 0
-7917 7923 0
-7888 -7917 7924 0
-7918 7924 0
-7888 -7918 7925 0
-7919 7925 0
-7888 -7919 0
-7889 -7925 0
-7932 15 16 17 18 19 20 21 0
-15 7932 0
-16 7932 0
-17 7932 0
-18 7932 0
-19 7932 0
-20 7932 0
-21 7932 0
7932 0
-7933 64 65 66 67 68 69 70 0
-64 7933 0
-65 7933 0
-66 7933 0
-67 7933 0
-68 7933 0
-69 7933 0
-70 7933 0
7933 0
-7934 113 114 115 116 117 118 119 0
-113 7934 0
-114 7934 0
-115 7934 0
-116 7934 0
-117 7934 0
-118 7934 0
-119 7934 0
7934 0
-7935 162 163 164 165 166 167 168 0
-162 7935 0
-163 7935 0
-164 7935 0
-165 7935 0
-166 7935 0
-167 7935 0
-168 7935 0
7935 0
-7936 211 212 213 214 215 216 217 0
-211 7936 0
-212 7936 0
-213 7936 0
-214 7936 0
-215 7936 0
-216 7936 0
-217 7936 0
7936 0
-7937 260 261 262 263 264 265 266 0
-260 7937 0
-261 7937 0
-262 7937 0
-263 7937 0
-264 7937 0
-265 7937 0
-266 7937 0
7937 0
-7938 309 310 311 312 313 314 315 0
-309 7938 0
-310 7938 0
-311 7938 0
-312 7938 0
-313 7938 0
-314 7938 0
-315 7938 0
7938 0
-7939 16 0
-16 7939 0
7939 15 17 18 19 20 21 0
-7940 65 0
-65 7940 0
7940 64 66 67 68 69 70 0
-7941 114 0
-114 7941 0
7941 113 115 116 117 118 119 0
-7942 163 0
-163 7942 0
7942 162 164 165 166 167 168 0
-7943 212 0
-212 7943 0
7943 211 213 214 215 216 217 0
-7944 261 0
-261 7944 0
7944 260 262 263 264 265 266 0
-7945 310 0
-310 7945 0
7945 309 311 312 313 314 315 0
-7939 7946 0
-7940 7947 0
-7946 7947 0
-7940 -7946 0
-7941 7948 0
-7947 7948 0
-7941 -7947 0
-7942 7949 0
-7948 7949 0
-7942 -7948 0
-7943 7950 0
-7949 7950 0
-7943 -7949 0
-7944 7951 0
-7950 7951 0
-7944 -7950 0
-7945 -7951 0
-7953 16 17 0
-16 7953 0
-17 7953 0
7953 15 18 19 20 21 0
-7954 65 66 0
-65 7954 0
-66 7954 0
7954 64 67 68 69 70 0
-7955 114 115 0
-114 7955 0
-115 7955 0
7955 113 116 117 118 119 0
-7956 163 164 0
-163 7956 0
-164 7956 0
7956 162 165 166 167 168 0
-7957 212 213 0
-212 7957 0
-213 7957 0
7957 211 214 215 216 217 0
-7958 261 262 0
-261 7958 0
-262 7958 0
7958 260 263 264 265 266 0
-7959 310 311 0
-310 7959 0
-311 7959 0
7959 309 312 313 314 315 0
-7953 7960 0
-7961 0
-7954 7962 0
-7960 7962 0
-7954 -7960 7963 0
-7961 7963 0
-7954 -7961 0
-7955 7964 0
-7962 7964 0
-7955 -7962 7965 0
-7963 7965 0
-7955 -7963 0
-7956 7966 0
-7964 7966 0
-7956 -7964 7967 0
-7965 7967 0
-7956 -7965 0
-7957 7968 0
-7966 7968 0
-7957 -7966 7969 0
-7967 7969 0
-7957 -7967 0
-7958 7970 0
-7968 7970 0
-7958 -7968 7971 0
-7969 7971 0
-7958 -7969 0
-7959 -7971 0
-7974 16 17 18 0
-16 7974 0
-17 7974 0
-18 7974 0
7974 15 19 20 21 0
-7975 65 66 67 0
-65 7975 0
-66 7975 0
-67 7975 0
7975 64 68 69 70 0
-7976 114 115 116 0
-114 7976 0
-115 7976 0
-116 7976 0
7976 113 117 118 119 0
-7977 163 164 165 0
-163 7977 0
-164 7977 0
-165 7977 0
7977 162 166 167 168 0
-7978 212 213 214 0
-212 7978 0
-213 7978 0
-214 7978 0
7978 211 215 216 217 0
-7979 261 262 263 0
-261 7979 0
-262 7979 0
-263 7979 0
7979 260 264 265 266 0
-7980 310 311 312 0
-310 7980 0
-311 7980 0
-312 7980 0
7980 309 313 314 315 0
-7974 7981 0
-7982 0
-7983 0
-7975 7984 0
-7981 7984 0
-7975 -7981 7985 0
-7982 7985 0
-7975 -7982 7986 0
-7983 7986 0
-7975 -7983 0
-7976 7987 0
-7984 7987 0
-7976 -7984 7988 0
-7985 7988 0
-7976 -7985 7989 0
-7986 7989 0
-7976 -7986 0
-7977 7990 0
-7987 7990 0
-7977 -7987 7991 0
-7988 7991 0
-7977 -7988 7992 0
-7989 7992 0
-7977 -7989 0
-7978 7993 0
-7990 7993 0
-7978 -7990 7994 0
-7991 7994 0
-7978 -7991 7995 0
-7992 7995 0
-7978 -7992 0
-7979 7996 0
-7993 7996 0
-7979 -7993 7997 0
-7994 7997 0
-7979 -7994 7998 0
-7995 7998 0
-7979 -7995 0
-7980 -7998 0
-8002 16 17 18 19 0
-16 8002 0
-17 8002 0
-18 8002 0
-19 8002 0
8002 15 20 21 0
-8003 65 66 67 68 0
-65 8003 0
-66 8003 0
-67 8003 0
-68 8003 0
8003 64 69 70 0
-8004 114 115 116 117 0
-114 8004 0
-115 8004 0
-116 8004 0
-117 8004 0
8004 113 118 119 0
-8005 163 164 165 166 0
-163 8005 0
-164 8005 0
-165 8005 0
-166 8005 0
8005 162 167 168 0
-8006 212 213 214 215 0
-212 8006 0
-213 8006 0
-214 8006 0
-215 8006 0
8006 211 216 217 0
-8007 261 262 263 264 0
-261 8007 0
-262 8007 0
-263 8007 0
-264 8007 0
8007 260 265 266 0
-8008 310 311 312 313 0
-310 8008 0
-311 8008 0
-312 8008 0
-313 8008 0
8008 309 314 315 0
-8002 8009 0
-8010 0
-8011 0
-8012 0
-8003 8013 0
-8009 8013 0
-8003 -8009 8014 0
-8010 8014 0
-8003 -8010 8015 0
-8011 8015 0
-8003 -8011 8016 0
-8012 8016 0
-8003 -8012 0
-8004 8017 0
-8013 8017 0
-8004 -8013 8018 0
-8014 8018 0
-8004 -8014 8019 0
-8015 8019 0
-8004 -8015 8020 0
-8016 8020 0
-8004 -8016 0
-8005 8021 0
-8017 8021 0
-8005 -8017 8022 0
-8018 8022 0
-8005 -8018 8023 0
-8019 8023 0
-8005 -8019 8024 0
-8020 8024 0
-8005 -8020 0
-8006 8025 0
-8021 8025 0
-8006 -8021 8026 0
-8022 8026 0
-8006 -8022 8027 0
-8023 8027 0
-8006 -8023 8028 0
-8024 8028 0
-8006 -8024 0
-8007 8029 0
-8025 8029 0
-8007 -8025 8030 0
-8026 8030 0
-8007 -8026 8031 0
-8027 8031 0
-8007 -8027 8032 0
-8028 8032 0
-8007 -8028 0
-8008 -8032 0
-8037 16 17 18 19 20 0
-16 8037 0
-17 8037 0
-18 8037 0
-19 8037 0
-20 8037 0
8037 15 21 0
-8038 65 66 67 68 69 0
-65 8038 0
-66 8038 0
-67 8038 0
-68 8038 0
-69 8038 0
8038 64 70 0
-8039 114 115 116 117 118 0
-114 8039 0
-115 8039 0
-116 8039 0
-117 8039 0
-118 8039 0
8039 113 119 0
-8040 163 164 165 166 167 0
-163 8040 0
-164 8040 0
-165 8040 0
-166 8040 0
-167 8040 0
8040 162 168 0
-8041 212 213 214 215 216 0
-212 8041 0
-213 8041 0
-214 8041 0
-215 8041 0
-216 8041 0
8041 211 217 0
-8042 261 262 263 264 265 0
-261 8042 0
-262 8042 0
-263 8042 0
-264 8042 0
-265 8042 0
8042 260 266 0
-8043 310 311 312 313 314 0
-310 8043 0
-311 8043 0
-312 8043 0
-313 8043 0
-314 8043 0
8043 309 315 0
-8037 8044 0
-8045 0
-8046 0
-8047 0
-8048 0
-8038 8049 0
-8044 8049 0
-8038 -8044 8050 0
-8045 8050 0
-8038 -8045 8051 0
-8046 8051 0
-8038 -8046 8052 0
-8047 8052 0
-8038 -8047 8053 0
-8048 8053 0
-8038 -8048 0
-8039 8054 0
-8049 8054 0
-8039 -8049 8055 0
-8050 8055 0
-8039 -8050 8056 0
-8051 8056 0
-8039 -8051 8057 0
-8052 8057 0
-8039 -8052 8058 0
-8053 8058 0
-8039 -8053 0
-8040 8059 0
-8054 8059 0
-8040 -8054 8060 0
-8055 8060 0
-8040 -8055 8061 0
-8056 8061 0
-8040 -8056 8062 0
-8057 8062 0
-8040 -8057 8063 0
-8058 8063 0
-8040 -8058 0
-8041 8064 0
-8059 8064 0
-8041 -8059 8065 0
-8060 8065 0
-8041 -8060 8066 0
-8061 8066 0
-8041 -8061 8067 0
-8062 8067 0
-8041 -8062 8068 0
-8063 8068 0
-8041 -8063 0
-8042 8069 0
-8064 8069 0
-8042 -8064 8070 0
-8065 8070 0
-8042 -8065 8071 0
-8066 8071 0
-8042 -8066 8072 0
-8067 8072 0
-8042 -8067 8073 0
-8068 8073 0
-8042 -8068 0
-8043 -8073 0
-8079 16 17 18 19 20 21 0
-16 8079 0
-17 8079 0
-18 8079 0
-19 8079 0
-20 8079 0
-21 8079 0
8079 15 0
-8080 65 66 67 68 69 70 0
-65 8080 0
-66 8080 0
-67 8080 0
-68 8080 0
-69 8080 0
-70 8080 0
8080 64 0
-8081 114 115 116 117 118 119 0
-114 8081 0
-115 8081 0
-116 8081 0
-117 8081 0
-118 8081 0
-119 8081 0
8081 113 0
-8082 163 164 165 166 167 168 0
-163 8082 0
-164 8082 0
-165 8082 0
-166 8082 0
-167 8082 0
-168 8082 0
8082 162 0
-8083 212 213 214 215 216 217 0
-212 8083 0
-213 8083 0
-214 8083 0
-215 8083 0
-216 8083 0
-217 8083 0
8083 211 0
-8084 261 262 263 264 265 266 0
-261 8084 0
-262 8084 0
-263 8084 0
-264 8084 0
-265 8084 0
-266 8084 0
8084 260 0
-8085 310 311 312 313 314 315 0
-310 8085 0
-311 8085 0
-312 8085 0
-313 8085 0
-314 8085 0
-315 8085 0
8085 309 0
-8079 8086 0
-8087 0
-8088 0
-8089 0
-8090 0
-8091 0
-8080 8092 0
-8086 8092 0
-8080 -8086 8093 0
-8087 8093 0
-8080 -8087 8094 0
-8088 8094 0
-8080 -8088 8095 0
-8089 8095 0
-8080 -8089 8096 0
-8090 8096 0
-8080 -8090 8097 0
-8091 8097 0
-8080 -8091 0
-8081 8098 0
-8092 8098 0
-8081 -8092 8099 0
-8093 8099 0
-8081 -8093 8100 0
-8094 8100 0
-8081 -8094 8101 0
-8095 8101 0
-8081 -8095 8102 0
-8096 8102 0
-8081 -8096 8103 0
-8097 8103 0
-8081 -8097 0
-8082 8104 0
-8098 8104 0
-8082 -8098 8105 0
-8099 8105 0
-8082 -8099 8106 0
-8100 8106 0
-8082 -8100 8107 0
-8101 8107 0
-8082 -8101 8108 0
-8102 8108 0
-8082 -8102 8109 0
-8103 8109 0
-8082 -8103 0
-8083 8110 0
-8104 8110 0
-8083 -8104 8111 0
-8105 8111 0
-8083 -8105 8112 0
-8106 8112 0
-8083 -8106 8113 0
-8107 8113 0
-8083 -8107 8114 0
-8108 8114 0
-8083 -8108 8115 0
-8109 8115 0
-8083 -8109 0
-8084 8116 0
-8110 8116 0
-8084 -8110 8117 0
-8111 8117 0
-8084 -8111 8118 0
-8112 8118 0
-8084 -8112 8119 0
-8113 8119 0
-8084 -8113 8120 0
-8114 8120 0
-8084 -8114 8121 0
-8115 8121 0
-8084 -8115 0
-8085 -8121 0
-8128 17 0
-17 8128 0
8128 15 16 18 19 20 21 0
-8129 66 0
-66 8129 0
8129 64 65 67 68 69 70 0
-8130 115 0
-115 8130 0
8130 113 114 116 117 118 119 0
-8131 164 0
-164 8131 0
8131 162 163 165 166 167 168 0
-8132 213 0
-213 8132 0
8132 211 212 214 215 216 217 0
-8133 262 0
-262 8133 0
8133 260 261 263 264 265 266 0
-8134 311 0
-311 8134 0
8134 309 310 312 313 314 315 0
-8128 8135 0
-8129 8136 0
-8135 8136 0
-8129 -8135 0
-8130 8137 0
-8136 8137 0
-8130 -8136 0
-8131 8138 0
-8137 8138 0
-8131 -8137 0
-8132 8139 0
-8138 8139 0
-8132 -8138 0
-8133 8140 0
-8139 8140 0
-8133 -8139 0
-8134 -8140 0
-8142 17 18 0
-17 8142 0
-18 8142 0
8142 15 16 19 20 21 0
-8143 66 67 0
-66 8143 0
-67 8143 0
8143 64 65 68 69 70 0
-8144 115 116 0
-115 8144 0
-116 8144 0
8144 113 114 117 118 119 0
-8145 164 165 0
-164 8145 0
-165 8145 0
8145 162 163 166 167 168 0
-8146 213 214 0
-213 8146 0
-214 8146 0
8146 211 212 215 216 217 0
-8147 262 263 0
-262 8147 0
-263 8147 0
8147 260 261 264 265 266 0
-8148 311 312 0
-311 8148 0
-312 8148 0
8148 309 310 313 314 315 0
-8142 8149 0
-8150 0
-8143 8151 0
-8149 8151 0
-8143 -8149 8152 0
-8150 8152 0
-8143 -8150 0
-8144 8153 0
-8151 8153 0
-8144 -8151 8154 0
-8152 8154 0
-8144 -8152 0
-8145 8155 0
-8153 8155 0
-8145 -8153 8156 0
-8154 8156 0
-8145 -8154 0
-8146 8157 0
-8155 8157 0
-8146 -8155 8158 0
-8156 8158 0
-8146 -8156 0
-8147 8159 0
-8157 8159 0
-8147 -8157 8160 0
-8158 8160 0
-8147 -8158 0
-8148 -8160 0
-8163 17 18 19 0
-17 8163 0
-18 8163 0
-19 8163 0
8163 15 16 20 21 0
-8164 66 67 68 0
-66 8164 0
-67 8164 0
-68 8164 0
8164 64 65 69 70 0
-8165 115 116 117 0
-115 8165 0
-116 8165 0
-117 8165 0
8165 113 114 118 119 0
-8166 164 165 166 0
-164 8166 0
-165 8166 0
-166 8166 0
8166 162 163 167 168 0
-8167 213 214 215 0
-213 8167 0
-214 8167 0
-215 8167 0
8167 211 212 216 217 0
-8168 262 263 264 0
-262 8168 0
-263 8168 0
-264 8168 0
8168 260 261 265 266 0
-8169 311 312 313 0
-311 8169 0
-312 8169 0
-313 8169 0
8169 309 310 314 315 0
-8163 8170 0
-8171 0
-8172 0
-8164 8173 0
-8170 8173 0
-8164 -8170 8174 0
-8171 8174 0
-8164 -8171 8175 0
-8172 8175 0
-8164 -8172 0
-8165 8176 0
-8173 8176 0
-8165 -8173 8177 0
-8174 8177 0
-8165 -8174 8178 0
-8175 8178 0
-8165 -8175 0
-8166 8179 0
-8176 8179 0
-8166 -8176 8180 0
-8177 8180 0
-8166 -8177 8181 0
-8178 8181 0
-8166 -8178 0
-8167 8182 0
-8179 8182 0
-8167 -8179 8183 0
-8180 8183 0
-8167 -8180 8184 0
-8181 8184 0
-8167 -8181 0
-8168 8185 0
-8182 8185 0
-8168 -8182 8186 0
-8183 8186 0
-8168 -8183 8187 0
-8184 8187 0
-8168 -8184 0
-8169 -8187 0
-8191 17 18 19 20 0
-17 8191 0
-18 8191 0
-19 8191 0
-20 8191 0
8191 15 16 21 0
-8192 66 67 68 69 0
-66 8192 0
-67 8192 0
-68 8192 0
-69 8192 0
8192 64 65 70 0
-8193 115 116 117 118 0
-115 8193 0
-116 8193 0
-117 8193 0
-118 8193 0
8193 113 114 119 0
-8194 164 165 166 167 0
-164 8194 0
-165 8194 0
-166 8194 0
-167 8194 0
8194 162 163 168 0
-8195 213 214 215 216 0
-213 8195 0
-214 8195 0
-215 8195 0
-216 8195 0
8195 211 212 217 0
-8196 262 263 264 265 0
-262 8196 0
-263 8196 0
-264 8196 0
-265 8196 0
8196 260 261 266 0
-8197 311 312 313 314 0
-311 8197 0
-312 8197 0
-313 8197 0
-314 8197 0
8197 309 310 315 0
-8191 8198 0
-8199 0
-8200 0
-8201 0
-8192 8202 0
-8198 8202 0
-8192 -8198 8203 0
-8199 8203 0
-8192 -8199 8204 0
-8200 8204 0
-8192 -8200 8205 0
-8201 8205 0
-8192 -8201 0
-8193 8206 0
-8202 8206 0
-8193 -8202 8207 0
-8203 8207 0
-8193 -8203 8208 0
-8204 8208 0
-8193 -8204 8209 0
-8205 8209 0
-8193 -8205 0
-8194 8210 0
-8206 8210 0
-8194 -8206 8211 0
-8207 8211 0
-8194 -8207 8212 0
-8208 8212 0
-8194 -8208 8213 0
-8209 8213 0
-8194 -8209 0
-8195 8214 0
-8210 8214 0
-8195 -8210 8215 0
-8211 8215 0
-8195 -8211 8216 0
-8212 8216 0
-8195 -8212 8217 0
-8213 8217 0
-8195 -8213 0
-8196 8218 0
-8214 8218 0
-8196 -8214 8219 0
-8215 8219 0
-8196 -8215 8220 0
-8216 8220 0
-8196 -8216 8221 0
-8217 8221 0
-8196 -8217 0
-8197 -8221 0
-8226 17 18 19 20 21 0
-17 8226 0
-18 8226 0
-19 8226 0
-20 8226 0
-21 8226 0
8226 15 16 0
-8227 66 67 68 69 70 0
-66 8227 0
-67 8227 0
-68 8227 0
-69 8227 0
-70 8227 0
8227 64 65 0
-8228 115 116 117 118 119 0
-115 8228 0
-116 8228 0
-117 8228 0
-118 8228 0
-119 8228 0
8228 113 114 0
-8229 164 165 166 167 168 0
-164 8229 0
-165 8229 0
-166 8229 0
-167 8229 0
-168 8229 0
8229 162 163 0
-8230 213 214 215 216 217 0
-213 8230 0
-214 8230 0
-215 8230 0
-216 8230 0
-217 8230 0
8230 211 212 0
-8231 262 263 264 265 266 0
-262 8231 0
-263 8231 0
-264 8231 0
-265 8231 0
-266 8231 0
8231 260 261 0
-8232 311 312 313 314 315 0
-311 8232 0
-312 8232 0
-313 8232 0
-314 8232 0
-315 8232 0
8232 309 310 0
-8226 8233 0
-8234 0
-8235 0
-8236 0
-8237 0
-8227 8238 0
-8233 8238 0
-8227 -8233 8239 0
-8234 8239 0
-8227 -8234 8240 0
-8235 8240 0
-8227 -8235 8241 0
-8236 8241 0
-8227 -8236 8242 0
-8237 8242 0
-8227 -8237 0
-8228 8243 0
-8238 8243 0
-8228 -8238 8244 0
-8239 8244 0
-8228 -8239 8245 0
-8240 8245 0
-8228 -8240 8246 0
-8241 8246 0
-8228 -8241 8247 0
-8242 8247 0
-8228 -8242 0
-8229 8248 0
-8243 8248 0
-8229 -8243 8249 0
-8244 8249 0
-8229 -8244 8250 0
-8245 8250 0
-8229 -8245 8251 0
-8246 8251 0
-8229 -8246 8252 0
-8247 8252 0
-8229 -8247 0
-8230 8253 0
-8248 8253 0
-8230 -8248 8254 0
-8249 8254 0
-8230 -8249 8255 0
-8250 8255 0
-8230 -8250 8256 0
-8251 8256 0
-8230 -8251 8257 0
-8252 8257 0
-8230 -8252 0
-8231 8258 0
-8253 8258 0
-8231 -8253 8259 0
-8254 8259 0
-8231 -8254 8260 0
-8255 8260 0
-8231 -8255 8261 0
-8256 8261 0
-8231 -8256 8262 0
-8257 8262 0
-8231 -8257 0
-8232 -8262 0
-8268 18 0
-18 8268 0
8268 15 16 17 19 20 21 0
-8269 67 0
-67 8269 0
8269 64 65 66 68 69 70 0
-8270 116 0
-116 8270 0
8270 113 114 115 117 118 119 0
-8271 165 0
-165 8271 0
8271 162 163 164 166 167 168 0
-8272 214 0
-214 8272 0
8272 211 212 213 215 216 217 0
-8273 263 0
-263 8273 0
8273 260 261 262 264 265 266 0
-8274 312 0
-312 8274 0
8274 309 310 311 313 314 315 0
-8268 8275 0
-8269 8276 0
-8275 8276 0
-8269 -8275 0
-8270 8277 0
-8276 8277 0
-8270 -8276 0
-8271 8278 0
-8277 8278 0
-8271 -8277 0
-8272 8279 0
-8278 8279 0
-8272 -8278 0
-8273 8280 0
-8279 8280 0
-8273 -8279 0
-8274 -8280 0
-8282 18 19 0
-18 8282 0
-19 8282 0
8282 15 16 17 20 21 0
-8283 67 68 0
-67 8283 0
-68 8283 0
8283 64 65 66 69 70 0
-8284 116 117 0
-116 8284 0
-117 8284 0
8284 113 114 115 118 119 0
-8285 165 166 0
-165 8285 0
-166 8285 0
8285 162 163 164 167 168 0
-8286 214 215 0
-214 8286 0
-215 8286 0
8286 211 212 213 216 217 0
-8287 263 264 0
-263 8287 0
-264 8287 0
8287 260 261 262 265 266 0
-8288 312 313 0
-312 8288 0
-313 8288 0
8288 309 310 311 314 315 0
-8282 8289 0
-8290 0
-8283 8291 0
-8289 8291 0
-8283 -8289 8292 0
-8290 8292 0
-8283 -8290 0
-8284 8293 0
-8291 8293 0
-8284 -8291 8294 0
-8292 8294 0
-8284 -8292 0
-8285 8295 0
-8293 8295 0
-8285 -8293 8296 0
-8294 8296 0
-8285 -8294 0
-8286 8297 0
-8295 8297 0
-8286 -8295 8298 0
-8296 8298 0
-8286 -8296 0
-8287 8299 0
-8297 8299 0
-8287 -8297 8300 0
-8298 8300 0
-8287 -8298 0
-8288 -8300 0
-8303 18 19 20 0
-18 8303 0
-19 8303 0
-20 8303 0
8303 15 16 17 21 0
-8304 67 68 69 0
-67 8304 0
-68 8304 0
-69 8304 0
8304 64 65 66 70 0
-8305 116 117 118 0
-116 8305 0
-117 8305 0
-118 8305 0
8305 113 114 115 119 0
-8306 165 166 167 0
-165 8306 0
-166 8306 0
-167 8306 0
8306 162 163 164 168 0
-8307 214 215 216 0
-214 8307 0
-215 8307 0
-216 8307 0
8307 211 212 213 217 0
-8308 263 264 265 0
-263 8308 0
-264 8308 0
-265 8308 0
8308 260 261 262 266 0
-8309 312 313 314 0
-312 8309 0
-313 8309 0
-314 8309 0
8309 309 310 311 315 0
-8303 8310 0
-8311 0
-8312 0
-8304 8313 0
-8310 8313 0
-8304 -8310 8314 0
-8311 8314 0
-8304 -8311 8315 0
-8312 8315 0
-8304 -8312 0
-8305 8316 0
-8313 8316 0
-8305 -8313 8317 0
-8314 8317 0
-8305 -8314 8318 0
-8315 8318 0
-8305 -8315 0
-8306 8319 0
-8316 8319 0
-8306 -8316 8320 0
-8317 8320 0
-8306 -8317 8321 0
-8318 8321 0
-8306 -8318 0
-8307 8322 0
-8319 8322 0
-8307 -8319 8323 0
-8320 8323 0
-8307 -8320 8324 0
-8321 8324 0
-8307 -8321 0
-8308 8325 0
-8322 8325 0
-8308 -8322 8326 0
-8323 8326 0
-8308 -8323 8327 0
-8324 8327 0
-8308 -8324 0
-8309 -8327 0
-8331 18 19 20 21 0
-18 8331 0
-19 8331 0
-20 8331 0
-21 8331 0
8331 15 16 17 0
-8332 67 68 69 70 0
-67 8332 0
-68 8332 0
-69 8332 0
-70 8332 0
8332 64 65 66 0
-8333 116 117 118 119 0
-116 8333 0
-117 8333 0
-118 8333 0
-119 8333 0
8333 113 114 115 0
-8334 165 166 167 168 0
-165 8334 0
-166 8334 0
-167 8334 0
-168 8334 0
8334 162 163 164 0
-8335 214 215 216 217 0
-214 8335 0
-215 8335 0
-216 8335 0
-217 8335 0
8335 211 212 213 0
-8336 263 264 265 266 0
-263 8336 0
-264 8336 0
-265 8336 0
-266 8336 0
8336 260 261 262 0
-8337 312 313 314 315 0
-312 8337 0
-313 8337 0
-314 8337 0
-315 8337 0
8337 309 310 311 0
-8331 8338 0
-8339 0
-8340 0
-8341 0
-8332 8342 0
-8338 8342 0
-8332 -8338 8343 0
-8339 8343 0
-8332 -8339 8344 0
-8340 8344 0
-8332 -8340 8345 0
-8341 8345 0
-8332 -8341 0
-8333 8346 0
-8342 8346 0
-8333 -8342 8347 0
-8343 8347 0
-8333 -8343 8348 0
-8344 8348 0
-8333 -8344 8349 0
-8345 8349 0
-8333 -8345 0
-8334 8350 0
-8346 8350 0
-8334 -8346 8351 0
-8347 8351 0
-8334 -8347 8352 0
-8348 8352 0
-8334 -8348 8353 0
-8349 8353 0
-8334 -8349 0
-8335 8354 0
-8350 8354 0
-8335 -8350 8355 0
-8351 8355 0
-8335 -8351 8356 0
-8352 8356 0
-8335 -8352 8357 0
-8353 8357 0
-8335 -8353 0
-8336 8358 0
-8354 8358 0
-8336 -8354 8359 0
-8355 8359 0
-8336 -8355 8360 0
-8356 8360 0
-8336 -8356 8361 0
-8357 8361 0
-8336 -8357 0
-8337 -8361 0
-8366 19 0
-19 8366 0
8366 15 16 17 18 20 21 0
-8367 68 0
-68 8367 0
8367 64 65 66 67 69 70 0
-8368 117 0
-117 8368 0
8368 113 114 115 116 118 119 0
-8369 166 0
-166 8369 0
8369 162 163 164 165 167 168 0
-8370 215 0
-215 8370 0
8370 211 212 213 214 216 217 0
-8371 264 0
-264 8371 0
8371 260 261 262 263 265 266 0
-8372 313 0
-313 8372 0
8372 309 310 311 312 314 315 0
-8366 8373 0
-8367 8374 0
-8373 8374 0
-8367 -8373 0
-8368 8375 0
-8374 8375 0
-8368 -8374 0
-8369 8376 0
-8375 8376 0
-8369 -8375 0
-8370 8377 0
-8376 8377 0
-8370 -8376 0
-8371 8378 0
-8377 8378 0
-8371 -8377 0
-8372 -8378 0
-8380 19 20 0
-19 8380 0
-20 8380 0
8380 15 16 17 18 21 0
-8381 68 69 0
-68 8381 0
-69 8381 0
8381 64 65 66 67 70 0
-8382 117 118 0
-117 8382 0
-118 8382 0
8382 113 114 115 116 119 0
-8383 166 167 0
-166 8383 0
-167 8383 0
8383 162 163 164 165 168 0
-8384 215 216 0
-215 8384 0
-216 8384 0
8384 211 212 213 214 217 0
-8385 264 265 0
-264 8385 0
-265 8385 0
8385 260 261 262 263 266 0
-8386 313 314 0
-313 8386 0
-314 8386 0
8386 309 310 311 312 315 0
-8380 8387 0
-8388 0
-8381 8389 0
-8387 8389 0
-8381 -8387 8390 0
-8388 8390 0
-8381 -8388 0
-8382 8391 0
-8389 8391 0
-8382 -8389 8392 0
-8390 8392 0
-8382 -8390 0
-8383 8393 0
-8391 8393 0
-8383 -8391 8394 0
-8392 8394 0
-8383 -8392 0
-8384 8395 0
-8393 8395 0
-8384 -8393 8396 0
-8394 8396 0
-8384 -8394 0
-8385 8397 0
-8395 8397 0
-8385 -8395 8398 0
-8396 8398 0
-8385 -8396 0
-8386 -8398 0
-8401 19 20 21 0
-19 8401 0
-20 8401 0
-21 8401 0
8401 15 16 17 18 0
-8402 68 69 70 0
-68 8402 0
-69 8402 0
-70 8402 0
8402 64 65 66 67 0
-8403 117 118 119 0
-117 8403 0
-118 8403 0
-119 8403 0
8403 113 114 115 116 0
-8404 166 167 168 0
-166 8404 0
-167 8404 0
-168 8404 0
8404 162 163 164 165 0
-8405 215 216 217 0
-215 8405 0
-216 8405 0
-217 8405 0
8405 211 212 213 214 0
-8406 264 265 266 0
-264 8406 0
-265 8406 0
-266 8406 0
8406 260 261 262 263 0
-8407 313 314 315 0
-313 8407 0
-314 8407 0
-315 8407 0
8407 309 310 311 312 0
-8401 8408 0
-8409 0
-8410 0
-8402 8411 0
-8408 8411 0
-8402 -8408 8412 0
-8409 8412 0
-8402 -8409 8413 0
-8410 8413 0
-8402 -8410 0
-8403 8414 0
-8411 8414 0
-8403 -8411 8415 0
-8412 8415 0
-8403 -8412 8416 0
-8413 8416 0
-8403 -8413 0
-8404 8417 0
-8414 8417 0
-8404 -8414 8418 0
-8415 8418 0
-8404 -8415 8419 0
-8416 8419 0
-8404 -8416 0
-8405 8420 0
-8417 8420 0
-8405 -8417 8421 0
-8418 8421 0
-8405 -8418 8422 0
-8419 8422 0
-8405 -8419 0
-8406 8423 0
-8420 8423 0
-8406 -8420 8424 0
-8421 8424 0
-8406 -8421 8425 0
-8422 8425 0
-8406 -8422 0
-8407 -8425 0
-8429 20 0
-20 8429 0
8429 15 16 17 18 19 21 0
-8430 69 0
-69 8430 0
8430 64 65 66 67 68 70 0
-8431 118 0
-118 8431 0
8431 113 114 115 116 117 119 0
-8432 167 0
-167 8432 0
8432 162 163 164 165 166 168 0
-8433 216 0
-216 8433 0
8433 211 212 213 214 215 217 0
-8434 265 0
-265 8434 0
8434 260 261 262 263 264 266 0
-8435 314 0
-314 8435 0
8435 309 310 311 312 313 315 0
-8429 8436 0
-8430 8437 0
-8436 8437 0
-8430 -8436 0
-8431 8438 0
-8437 8438 0
-8431 -8437 0
-8432 8439 0
-8438 8439 0
-8432 -8438 0
-8433 8440 0
-8439 8440 0
-8433 -8439 0
-8434 8441 0
-8440 8441 0
-8434 -8440 0
-8435 -8441 0
-8443 20 21 0
-20 8443 0
-21 8443 0
8443 15 16 17 18 19 0
-8444 69 70 0
-69 8444 0
-70 8444 0
8444 64 65 66 67 68 0
-8445 118 119 0
-118 8445 0
-119 8445 0
8445 113 114 115 116 117 0
-8446 167 168 0
-167 8446 0
-168 8446 0
8446 162 163 164 165 166 0
-8447 216 217 0
-216 8447 0
-217 8447 0
8447 211 212 213 214 215 0
-8448 265 266 0
-265 8448 0
-266 8448 0
8448 260 261 262 263 264 0
-8449 314 315 0
-314 8449 0
-315 8449 0
8449 309 310 311 312 313 0
-8443 8450 0
-8451 0
-8444 8452 0
-8450 8452 0
-8444 -8450 8453 0
-8451 8453 0
-8444 -8451 0
-8445 8454 0
-8452 8454 0
-8445 -8452 8455 0
-8453 8455 0
-8445 -8453 0
-8446 8456 0
-8454 8456 0
-8446 -8454 8457 0
-8455 8457 0
-8446 -8455 0
-8447 8458 0
-8456 8458 0
-8447 -8456 8459 0
-8457 8459 0
-8447 -8457 0
-8448 8460 0
-8458 8460 0
-8448 -8458 8461 0
-8459 8461 0
-8448 -8459 0
-8449 -8461 0
-8464 21 0
-21 8464 0
8464 15 16 17 18 19 20 0
-8465 70 0
-70 8465 0
8465 64 65 66 67 68 69 0
-8466 119 0
-119 8466 0
8466 113 114 115 116 117 118 0
-8467 168 0
-168 8467 0
8467 162 163 164 165 166 167 0
-8468 217 0
-217 8468 0
8468 211 212 213 214 215 216 0
-8469 266 0
-266 8469 0
8469 260 261 262 263 264 265 0
-8470 315 0
-315 8470 0
8470 309 310 311 312 313 314 0
-8464 8471 0
-8465 8472 0
-8471 8472 0
-8465 -8471 0
-8466 8473 0
-8472 8473 0
-8466 -8472 0
-8467 8474 0
-8473 8474 0
-8467 -8473 0
-8468 8475 0
-8474 8475 0
-8468 -8474 0
-8469 8476 0
-8475 8476 0
-8469 -8475 0
-8470 -8476 0
-15 8478 0
-64 8479 0
-8478 8479 0
-64 -8478 0
-113 8480 0
-8479 8480 0
-113 -8479 0
-162 8481 0
-8480 8481 0
-162 -8480 0
-211 8482 0
-8481 8482 0
-211 -8481 0
-260 8483 0
-8482 8483 0
-260 -8482 0
-309 -8483 0
15 64 113 162 211 260 309 0
-16 8485 0
-65 8486 0
-8485 8486 0
-65 -8485 0
-114 8487 0
-8486 8487 0
-114 -8486 0
-163 8488 0
-8487 8488 0
-163 -8487 0
-212 8489 0
-8488 8489 0
-212 -8488 0
-261 8490 0
-8489 8490 0
-261 -8489 0
-310 -8490 0
16 65 114 163 212 261 310 0
-17 8492 0
-66 8493 0
-8492 8493 0
-66 -8492 0
-115 8494 0
-8493 8494 0
-115 -8493 0
-164 8495 0
-8494 8495 0
-164 -8494 0
-213 8496 0
-8495 8496 0
-213 -8495 0
-262 8497 0
-8496 8497 0
-262 -8496 0
-311 -8497 0
17 66 115 164 213 262 311 0
-18 8499 0
-67 8500 0
-8499 8500 0
-67 -8499 0
-116 8501 0
-8500 8501 0
-116 -8500 0
-165 8502 0
-8501 8502 0
-165 -8501 0
-214 8503 0
-8502 8503 0
-214 -8502 0
-263 8504 0
-8503 8504 0
-263 -8503 0
-312 -8504 0
18 67 116 165 214 263 312 0
-19 8506 0
-68 8507 0
-8506 8507 0
-68 -8506 0
-117 8508 0
-8507 8508 0
-117 -8507 0
-166 8509 0
-8508 8509 0
-166 -8508 0
-215 8510 0
-8509 8510 0
-215 -8509 0
-264 8511 0
-8510 8511 0
-264 -8510 0
-313 -8511 0
19 68 117 166 215 264 313 0
-20 8513 0
-69 8514 0
-8513 8514 0
-69 -8513 0
-118 8515 0
-8514 8515 0
-118 -8514 0
-167 8516 0
-8515 8516 0
-167 -8515 0
-216 8517 0
-8516 8517 0
-216 -8516 0
-265 8518 0
-8517 8518 0
-265 -8517 0
-314 -8518 0
20 69 118 167 216 265 314 0
-21 8520 0
-70 8521 0
-8520 8521 0
-70 -8520 0
-119 8522 0
-8521 8522 0
-119 -8521 0
-168 8523 0
-8522 8523 0
-168 -8522 0
-217 8524 0
-8523 8524 0
-217 -8523 0
-266 8525 0
-8524 8525 0
-266 -8524 0
-315 -8525 0
21 70 119 168 217 266 315 0
-8527 22 0
-22 8527 0
8527 23 24 25 26 27 28 0
-8528 71 0
-71 8528 0
8528 72 73 74 75 76 77 0
-8529 120 0
-120 8529 0
8529 121 122 123 124 125 126 0
-8530 169 0
-169 8530 0
8530 170 171 172 173 174 175 0
-8531 218 0
-218 8531 0
8531 219 220 221 222 223 224 0
-8532 267 0
-267 8532 0
8532 268 269 270 271 272 273 0
-8533 316 0
-316 8533 0
8533 317 318 319 320 321 322 0
-8527 8534 0
-8528 8535 0
-8534 8535 0
-8528 -8534 0
-8529 8536 0
-8535 8536 0
-8529 -8535 0
-8530 8537 0
-8536 8537 0
-8530 -8536 0
-8531 8538 0
-8537 8538 0
-8531 -8537 0
-8532 8539 0
-8538 8539 0
-8532 -8538 0
-8533 -8539 0
-8541 22 23 0
-22 8541 0
-23 8541 0
8541 24 25 26 27 28 0
-8542 71 72 0
-71 8542 0
-72 8542 0
8542 73 74 75 76 77 0
-8543 120 121 0
-120 8543 0
-121 8543 0
8543 122 123 124 125 126 0
-8544 169 170 0
-169 8544 0
-170 8544 0
8544 171 172 173 174 175 0
-8545 218 219 0
-218 8545 0
-219 8545 0
8545 220 221 222 223 224 0
-8546 267 268 0
-267 8546 0
-268 8546 0
8546 269 270 271 272 273 0
-8547 316 317 0
-316 8547 0
-317 8547 0
8547 318 319 320 321 322 0
-8541 8548 0
-8549 0
-8542 8550 0
-8548 8550 0
-8542 -8548 8551 0
-8549 8551 0
-8542 -8549 0
-8543 8552 0
-8550 8552 0
-8543 -8550 8553 0
-8551 8553 0
-8543 -8551 0
-8544 8554 0
-8552 8554 0
-8544 -8552 8555 0
-8553 8555 0
-8544 -8553 0
-8545 8556 0
-8554 8556 0
-8545 -8554 8557 0
-8555 8557 0
-8545 -8555 0
-8546 8558 0
-8556 8558 0
-8546 -8556 8559 0
-8557 8559 0
-8546 -8557 0
-8547 -8559 0
-8562 22 23 24 0
-22 8562 0
-23 8562 0
-24 8562 0
8562 25 26 27 28 0
-8563 71 72 73 0
-71 8563 0
-72 8563 0
-73 8563 0
8563 74 75 76 77 0
-8564 120 121 122 0
-120 8564 0
-121 8564 0
-122 8564 0
8564 123 124 125 126 0
-8565 169 170 171 0
-169 8565 0
-170 8565 0
-171 8565 0
8565 172 173 174 175 0
-8566 218 219 220 0
-218 8566 0
-219 8566 0
-220 8566 0
8566 221 222 223 224 0
-8567 267 268 269 0
-267 8567 0
-268 8567 0
-269 8567 0
8567 270 271 272 273 0
-8568 316 317 318 0
-316 8568 0
-317 8568 0
-318 8568 0
8568 319 320 321 322 0
-8562 8569 0
-8570 0
-8571 0
-8563 8572 0
-8569 8572 0
-8563 -8569 8573 0
-8570 8573 0
-8563 -8570 8574 0
-8571 8574 0
-8563 -8571 0
-8564 8575 0
-8572 8575 0
-8564 -8572 8576 0
-8573 8576 0
-8564 -8573 8577 0
-8574 8577 0
-8564 -8574 0
-8565 8578 0
-8575 8578 0
-8565 -8575 8579 0
-8576 8579 0
-8565 -8576 8580 0
-8577 8580 0
-8565 -8577 0
-8566 8581 0
-8578 8581 0
-8566 -8578 8582 0
-8579 8582 0
-8566 -8579 8583 0
-8580 8583 0
-8566 -8580 0
-8567 8584 0
-8581 8584 0
-8567 -8581 8585 0
-8582 8585 0
-8567 -8582 8586 0
-8583 8586 0
-8567 -8583 0
-8568 -8586 0
-8590 22 23 24 25 0
-22 8590 0
-23 8590 0
-24 8590 0
-25 8590 0
8590 26 27 28 0
-8591 71 72 73 74 0
-71 8591 0
-72 8591 0
-73 8591 0
-74 8591 0
8591 75 76 77 0
-8592 120 121 122 123 0
-120 8592 0
-121 8592 0
-122 8592 0
-123 8592 0
8592 124 125 126 0
-8593 169 170 171 172 0
-169 8593 0
-170 8593 0
-171 8593 0
-172 8593 0
8593 173 174 175 0
-8594 218 219 220 221 0
-218 8594 0
-219 8594 0
-220 8594 0
-221 8594 0
8594 222 223 224 0
-8595 267 268 269 270 0
-267 8595 0
-268 8595 0
-269 8595 0
-270 8595 0
8595 271 272 273 0
-8596 316 317 318 319 0
-316 8596 0
-317 8596 0
-318 8596 0
-319 8596 0
8596 320 321 322 0
-8590 8597 0
-8598 0
-8599 0
-8600 0
-8591 8601 0
-8597 8601 0
-8591 -8597 8602 0
-8598 8602 0
-8591 -8598 8603 0
-8599 8603 0
-8591 -8599 8604 0
-8600 8604 0
-8591 -8600 0
-8592 8605 0
-8601 8605 0
-8592 -8601 8606 0
-8602 8606 0
-8592 -8602 8607 0
-8603 8607 0
-8592 -8603 8608 0
-8604 8608 0
-8592 -8604 0
-8593 8609 0
-8605 8609 0
-8593 -8605 8610 0
-8606 8610 0
-8593 -8606 8611 0
-8607 8611 0
-8593 -8607 8612 0
-8608 8612 0
-8593 -8608 0
-8594 8613 0
-8609 8613 0
-8594 -8609 8614 0
-8610 8614 0
-8594 -8610 8615 0
-8611 8615 0
-8594 -8611 8616 0
-8612 8616 0
-8594 -8612 0
-8595 8617 0
-8613 8617 0
-8595 -8613 8618 0
-8614 8618 0
-8595 -8614 8619 0
-8615 8619 0
-8595 -8615 8620 0
-8616 8620 0
-8595 -8616 0
-8596 -8620 0
-8625 22 23 24 25 26 0
-22 8625 0
-23 8625 0
-24 8625 0
-25 8625 0
-26 8625 0
8625 27 28 0
-8626 71 72 73 74 75 0
-71 8626 0
-72 8626 0
-73 8626 0
-74 8626 0
-75 8626 0
8626 76 77 0
-8627 120 121 122 123 124 0
-120 8627 0
-121 8627 0
-122 8627 0
-123 8627 0
-124 8627 0
8627 125 126 0
-8628 169 170 171 172 173 0
-169 8628 0
-170 8628 0
-171 8628 0
-172 8628 0
-173 8628 0
8628 174 175 0
-8629 218 219 220 221 222 0
-218 8629 0
-219 8629 0
-220 8629 0
-221 8629 0
-222 8629 0
8629 223 224 0
-8630 267 268 269 270 271 0
-267 8630 0
-268 8630 0
-269 8630 0
-270 8630 0
-271 8630 0
8630 272 273 0
-8631 316 317 318 319 320 0
-316 8631 0
-317 8631 0
-318 8631 0
-319 8631 0
-320 8631 0
8631 321 322 0
-8625 8632 0
-8633 0
-8634 0
-8635 0
-8636 0
-8626 8637 0
-8632 8637 0
-8626 -8632 8638 0
-8633 8638 0
-8626 -8633 8639 0
-8634 8639 0
-8626 -8634 8640 0
-8635 8640 0
-8626 -8635 8641 0
-8636 8641 0
-8626 -8636 0
-8627 8642 0
-8637 8642 0
-8627 -8637 8643 0
-8638 8643 0
-8627 -8638 8644 0
-8639 8644 0
-8627 -8639 8645 0
-8640 8645 0
-8627 -8640 8646 0
-8641 8646 0
-8627 -8641 0
-8628 8647 0
-8642 8647 0
-8628 -8642 8648 0
-8643 8648 0
-8628 -8643 8649 0
-8644 8649 0
-8628 -8644 8650 0
-8645 8650 0
-8628 -8645 8651 0
-8646 8651 0
-8628 -8646 0
-8629 8652 0
-8647 8652 0
-8629 -8647 8653 0
-8648 8653 0
-8629 -8648 8654 0
-8649 8654 0
-8629 -8649 8655 0
-8650 8655 0
-8629 -8650 8656 0
-8651 8656 0
-8629 -8651 0
-8630 8657 0
-8652 8657 0
-8630 -8652 8658 0
-8653 8658 0
-8630 -8653 8659 0
-8654 8659 0
-8630 -8654 8660 0
-8655 8660 0
-8630 -8655 8661 0
-8656 8661 0
-8630 -8656 0
-8631 -8661 0
-8667 22 23 24 25 26 27 0
-22 8667 0
-23 8667 0
-24 8667 0
-25 8667 0
-26 8667 0
-27 8667 0
8667 28 0
-8668 71 72 73 74 75 76 0
-71 8668 0
-72 8668 0
-73 8668 0
-74 8668 0
-75 8668 0
-76 8668 0
8668 77 0
-8669 120 121 122 123 124 125 0
-120 8669 0
-121 8669 0
-122 8669 0
-123 8669 0
-124 8669 0
-125 8669 0
8669 126 0
-8670 169 170 171 172 173 174 0
-169 8670 0
-170 8670 0
-171 8670 0
-172 8670 0
-173 8670 0
-174 8670 0
8670 175 0
-8671 218 219 220 221 222 223 0
-218 8671 0
-219 8671 0
-220 8671 0
-221 8671 0
-222 8671 0
-223 8671 0
8671 224 0
-8672 267 268 269 270 271 272 0
-267 8672 0
-268 8672 0
-269 8672 0
-270 8672 0
-271 8672 0
-272 8672 0
8672 273 0
-8673 316 317 318 319 320 321 0
-316 8673 0
-317 8673 0
-318 8673 0
-319 8673 0
-320 8673 0
-321 8673 0
8673 322 0
-8667 8674 0
-8675 0
-8676 0
-8677 0
-8678 0
-8679 0
-8668 8680 0
-8674 8680 0
-8668 -8674 8681 0
-8675 8681 0
-8668 -8675 8682 0
-8676 8682 0
-8668 -8676 8683 0
-8677 8683 0
-8668 -8677 8684 0
-8678 8684 0
-8668 -8678 8685 0
-8679 8685 0
-8668 -8679 0
-8669 8686 0
-8680 8686 0
-8669 -8680 8687 0
-8681 8687 0
-8669 -8681 8688 0
-8682 8688 0
-8669 -8682 8689 0
-8683 8689 0
-8669 -8683 8690 0
-8684 8690 0
-8669 -8684 8691 0
-8685 8691 0
-8669 -8685 0
-8670 8692 0
-8686 8692 0
-8670 -8686 8693 0
-8687 8693 0
-8670 -8687 8694 0
-8688 8694 0
-8670 -8688 8695 0
-8689 8695 0
-8670 -8689 8696 0
-8690 8696 0
-8670 -8690 8697 0
-8691 8697 0
-8670 -8691 0
-8671 8698 0
-8692 8698 0
-8671 -8692 8699 0
-8693 8699 0
-8671 -8693 8700 0
-8694 8700 0
-8671 -8694 8701 0
-8695 8701 0
-8671 -8695 8702 0
-8696 8702 0
-8671 -8696 8703 0
-8697 8703 0
-8671 -8697 0
-8672 8704 0
-8698 8704 0
-8672 -8698 8705 0
-8699 8705 0
-8672 -8699 8706 0
-8700 8706 0
-8672 -8700 8707 0
-8701 8707 0
-8672 -8701 8708 0
-8702 8708 0
-8672 -8702 8709 0
-8703 8709 0
-8672 -8703 0
-8673 -8709 0
-8716 22 23 24 25 26 27 28 0
-22 8716 0
-23 8716 0
-24 8716 0
-25 8716 0
-26 8716 0
-27 8716 0
-28 8716 0
8716 0
-8717 71 72 73 74 75 76 77 0
-71 8717 0
-72 8717 0
-73 8717 0
-74 8717 0
-75 8717 0
-76 8717 0
-77 8717 0
8717 0
-8718 120 121 122 123 124 125 126 0
-120 8718 0
-121 8718 0
-122 8718 0
-123 8718 0
-124 8718 0
-125 8718 0
-126 8718 0
8718 0
-8719 169 170 171 172 173 174 175 0
-169 8719 0
-170 8719 0
-171 8719 0
-172 8719 0
-173 8719 0
-174 8719 0
-175 8719 0
8719 0
-8720 218 219 220 221 222 223 224 0
-218 8720 0
-219 8720 0
-220 8720 0
-221 8720 0
-222 8720 0
-223 8720 0
-224 8720 0
8720 0
-8721 267 268 269 270 271 272 273 0
-267 8721 0
-268 8721 0
-269 8721 0
-270 8721 0
-271 8721 0
-272 8721 0
-273 8721 0
8721 0
-8722 316 317 318 319 320 321 322 0
-316 8722 0
-317 8722 0
-318 8722 0
-319 8722 0
-320 8722 0
-321 8722 0
-322 8722 0
8722 0
-8723 23 0
-23 8723 0
8723 22 24 25 26 27 28 0
-8724 72 0
-72 8724 0
8724 71 73 74 75 76 77 0
-8725 121 0
-121 8725 0
8725 120 122 123 124 125 126 0
-8726 170 0
-170 8726 0
8726 169 171 172 173 174 175 0
-8727 219 0
-219 8727 0
8727 218 220 221 222 223 224 0
-8728 268 0
-268 8728 0
8728 267 269 270 271 272 273 0
-8729 317 0
-317 8729 0
8729 316 318 319 320 321 322 0
-8723 8730 0
-8724 8731 0
-8730 8731 0
-8724 -8730 0
-8725 8732 0
-8731 8732 0
-8725 -8731 0
-8726 8733 0
-8732 8733 0
-8726 -8732 0
-8727 8734 0
-8733 8734 0
-8727 -8733 0
-8728 8735 0
-8734 8735 0
-8728 -8734 0
-8729 -8735 0
-8737 23 24 0
-23 8737 0
-24 8737 0
8737 22 25 26 27 28 0
-8738 72 73 0
-72 8738 0
-73 8738 0
8738 71 74 75 76 77 0
-8739 121 122 0
-121 8739 0
-122 8739 0
8739 120 123 124 125 126 0
-8740 170 171 0
-170 8740 0
-171 8740 0
8740 169 172 173 174 175 0
-8741 219 220 0
-219 8741 0
-220 8741 0
8741 218 221 222 223 224 0
-8742 268 269 0
-268 8742 0
-269 8742 0
8742 267 270 271 272 273 0
-8743 317 318 0
-317 8743 0
-318 8743 0
8743 316 319 320 321 322 0
-8737 8744 0
-8745 0
-8738 8746 0
-8744 8746 0
-8738 -8744 8747 0
-8745 8747 0
-8738 -8745 0
-8739 8748 0
-8746 8748 0
-8739 -8746 8749 0
-8747 8749 0
-8739 -8747 0
-8740 8750 0
-8748 8750 0
-8740 -8748 8751 0
-8749 8751 0
-8740 -8749 0
-8741 8752 0
-8750 8752 0
-8741 -8750 8753 0
-8751 8753 0
-8741 -8751 0
-8742 8754 0
-8752 8754 0
-8742 -8752 8755 0
-8753 8755 0
-8742 -8753 0
-8743 -8755 0
-8758 23 24 25 0
-23 8758 0
-24 8758 0
-25 8758 0
8758 22 26 27 28 0
-8759 72 73 74 0
-72 8759 0
-73 8759 0
-74 8759 0
8759 71 75 76 77 0
-8760 121 122 123 0
-121 8760 0
-122 8760 0
-123 8760 0
8760 120 124 125 126 0
-8761 170 171 172 0
-170 8761 0
-171 8761 0
-172 8761 0
8761 169 173 174 175 0
-8762 219 220 221 0
-219 8762 0
-220 8762 0
-221 8762 0
8762 218 222 223 224 0
-8763 268 269 270 0
-268 8763 0
-269 8763 0
-270 8763 0
8763 267 271 272 273 0
-8764 317 318 319 0
-317 8764 0
-318 8764 0
-319 8764 0
8764 316 320 321 322 0
-8758 8765 0
-8766 0
-8767 0
-8759 8768 0
-8765 8768 0
-8759 -8765 8769 0
-8766 8769 0
-8759 -8766 8770 0
-8767 8770 0
-8759 -8767 0
-8760 8771 0
-8768 8771 0
-8760 -8768 8772 0
-8769 8772 0
-8760 -8769 8773 0
-8770 8773 0
-8760 -8770 0
-8761 8774 0
-8771 8774 0
-8761 -8771 8775 0
-8772 8775 0
-8761 -8772 8776 0
-8773 8776 0
-8761 -8773 0
-8762 8777 0
-8774 8777 0
-8762 -8774 8778 0
-8775 8778 0
-8762 -8775 8779 0
-8776 8779 0
-8762 -8776 0
-8763 8780 0
-8777 8780 0
-8763 -8777 8781 0
-8778 8781 0
-8763 -8778 8782 0
-8779 8782 0
-8763 -8779 0
-8764 -8782 0
-8786 23 24 25 26 0
-23 8786 0
-24 8786 0
-25 8786 0
-26 8786 0
8786 22 27 28 0
-8787 72 73 74 75 0
-72 8787 0
-73 8787 0
-74 8787 0
-75 8787 0
8787 71 76 77 0
-8788 121 122 123 124 0
-121 8788 0
-122 8788 0
-123 8788 0
-124 8788 0
8788 120 125 126 0
-8789 170 171 172 173 0
-170 8789 0
-171 8789 0
-172 8789 0
-173 8789 0
8789 169 174 175 0
-8790 219 220 221 222 0
-219 8790 0
-220 8790 0
-221 8790 0
-222 8790 0
8790 218 223 224 0
-8791 268 269 270 271 0
-268 8791 0
-269 8791 0
-270 8791 0
-271 8791 0
8791 267 272 273 0
-8792 317 318 319 320 0
-317 8792 0
-318 8792 0
-319 8792 0
-320 8792 0
8792 316 321 322 0
-8786 8793 0
-8794 0
-8795 0
-8796 0
-8787 8797 0
-8793 8797 0
-8787 -8793 8798 0
-8794 8798 0
-8787 -8794 8799 0
-8795 8799 0
-8787 -8795 8800 0
-8796 8800 0
-8787 -8796 0
-8788 8801 0
-8797 8801 0
-8788 -8797 8802 0
-8798 8802 0
-8788 -8798 8803 0
-8799 8803 0
-8788 -8799 8804 0
-8800 8804 0
-8788 -8800 0
-8789 8805 0
-8801 8805 0
-8789 -8801 8806 0
-8802 8806 0
-8789 -8802 8807 0
-8803 8807 0
-8789 -8803 8808 0
-8804 8808 0
-8789 -8804 0
-8790 8809 0
-8805 8809 0
-8790 -8805 8810 0
-8806 8810 0
-8790 -8806 8811 0
-8807 8811 0
-8790 -8807 8812 0
-8808 8812 0
-8790 -8808 0
-8791 8813 0
-8809 8813 0
-8791 -8809 8814 0
-8810 8814 0
-8791 -8810 8815 0
-8811 8815 0
-8791 -8811 8816 0
-8812 8816 0
-8791 -8812 0
-8792 -8816 0
-8821 23 24 25 26 27 0
-23 8821 0
-24 8821 0
-25 8821 0
-26 8821 0
-27 8821 0
8821 22 28 0
-8822 72 73 74 75 76 0
-72 8822 0
-73 8822 0
-74 8822 0
-75 8822 0
-76 8822 0
8822 71 77 0
-8823 121 122 123 124 125 0
-121 8823 0
-122 8823 0
-123 8823 0
-124 8823 0
-125 8823 0
8823 120 126 0
-8824 170 171 172 173 174 0
-170 8824 0
-171 8824 0
-172 8824 0
-173 8824 0
-174 8824 0
8824 169 175 0
-8825 219 220 221 222 223 0
-219 8825 0
-220 8825 0
-221 8825 0
-222 8825 0
-223 8825 0
8825 218 224 0
-8826 268 269 270 271 272 0
-268 8826 0
-269 8826 0
-270 8826 0
-271 8826 0
-272 8826 0
8826 267 273 0
-8827 317 318 319 320 321 0
-317 8827 0
-318 8827 0
-319 8827 0
-320 8827 0
-321 8827 0
8827 316 322 0
-8821 8828 0
-8829 0
-8830 0
-8831 0
-8832 0
-8822 8833 0
-8828 8833 0
-8822 -8828 8834 0
-8829 8834 0
-8822 -8829 8835 0
-8830 8835 0
-8822 -8830 8836 0
-8831 8836 0
-8822 -8831 8837 0
-8832 8837 0
-8822 -8832 0
-8823 8838 0
-8833 8838 0
-8823 -8833 8839 0
-8834 8839 0
-8823 -8834 8840 0
-8835 8840 0
-8823 -8835 8841 0
-8836 8841 0
-8823 -8836 8842 0
-8837 8842 0
-8823 -8837 0
-8824 8843 0
-8838 8843 0
-8824 -8838 8844 0
-8839 8844 0
-8824 -8839 8845 0
-8840 8845 0
-8824 -8840 8846 0
-8841 8846 0
-8824 -8841 8847 0
-8842 8847 0
-8824 -8842 0
-8825 8848 0
-8843 8848 0
-8825 -8843 8849 0
-8844 8849 0
-8825 -8844 8850 0
-8845 8850 0
-8825 -8845 8851 0
-8846 8851 0
-8825 -8846 8852 0
-8847 8852 0
-8825 -8847 0
-8826 8853 0
-8848 8853 0
-8826 -8848 8854 0
-8849 8854 0
-8826 -8849 8855 0
-8850 8855 0
-8826 -8850 8856 0
-8851 8856 0
-8826 -8851 8857 0
-8852 8857 0
-8826 -8852 0
-8827 -8857 0
-8863 23 24 25 26 27 28 0
-23 8863 0
-24 8863 0
-25 8863 0
-26 8863 0
-27 8863 0
-28 8863 0
8863 22 0
-8864 72 73 74 75 76 77 0
-72 8864 0
-73 8864 0
-74 8864 0
-75 8864 0
-76 8864 0
-77 8864 0
8864 71 0
-8865 121 122 123 124 125 126 0
-121 8865 0
-122 8865 0
-123 8865 0
-124 8865 0
-125 8865 0
-126 8865 0
8865 120 0
-8866 170 171 172 173 174 175 0
-170 8866 0
-171 8866 0
-172 8866 0
-173 8866 0
-174 8866 0
-175 8866 0
8866 169 0
-8867 219 220 221 222 223 224 0
-219 8867 0
-220 8867 0
-221 8867 0
-222 8867 0
-223 8867 0
-224 8867 0
8867 218 0
-8868 268 269 270 271 272 273 0
-268 8868 0
-269 8868 0
-270 8868 0
-271 8868 0
-272 8868 0
-273 8868 0
8868 267 0
-8869 317 318 319 320 321 322 0
-317 8869 0
-318 8869 0
-319 8869 0
-320 8869 0
-321 8869 0
-322 8869 0
8869 316 0
-8863 8870 0
-8871 0
-8872 0
-8873 0
-8874 0
-8875 0
-8864 8876 0
-8870 8876 0
-8864 -8870 8877 0
-8871 8877 0
-8864 -8871 8878 0
-8872 8878 0
-8864 -8872 8879 0
-8873 8879 0
-8864 -8873 8880 0
-8874 8880 0
-8864 -8874 8881 0
-8875 8881 0
-8864 -8875 0
-8865 8882 0
-8876 8882 0
-8865 -8876 8883 0
-8877 8883 0
-8865 -8877 8884 0
-8878 8884 0
-8865 -8878 8885 0
-8879 8885 0
-8865 -8879 8886 0
-8880 8886 0
-8865 -8880 8887 0
-8881 8887 0
-8865 -8881 0
-8866 8888 0
-8882 8888 0
-8866 -8882 8889 0
-8883 8889 0
-8866 -8883 8890 0
-8884 8890 0
-8866 -8884 8891 0
-8885 8891 0
-8866 -8885 8892 0
-8886 8892 0
-8866 -8886 8893 0
-8887 8893 0
-8866 -8887 0
-8867 8894 0
-8888 8894 0
-8867 -8888 8895 0
-8889 8895 0
-8867 -8889 8896 0
-8890 8896 0
-8867 -8890 8897 0
-8891 8897 0
-8867 -8891 8898 0
-8892 8898 0
-8867 -8892 8899 0
-8893 8899 0
-8867 -8893 0
-8868 8900 0
-8894 8900 0
-8868 -8894 8901 0
-8895 8901 0
-8868 -8895 8902 0
-8896 8902 0
-8868 -8896 8903 0
-8897 8903 0
-8868 -8897 8904 0
-8898 8904 0
-8868 -8898 8905 0
-8899 8905 0
-8868 -8899 0
-8869 -8905 0
-8912 24 0
-24 8912 0
8912 22 23 25 26 27 28 0
-8913 73 0
-73 8913 0
8913 71 72 74 75 76 77 0
-8914 122 0
-122 8914 0
8914 120 121 123 124 125 126 0
-8915 171 0
-171 8915 0
8915 169 170 172 173 174 175 0
-8916 220 0
-220 8916 0
8916 218 219 221 222 223 224 0
-8917 269 0
-269 8917 0
8917 267 268 270 271 272 273 0
-8918 318 0
-318 8918 0
8918 316 317 319 320 321 322 0
-8912 8919 0
-8913 8920 0
-8919 8920 0
-8913 -8919 0
-8914 8921 0
-8920 8921 0
-8914 -8920 0
-8915 8922 0
-8921 8922 0
-8915 -8921 0
-8916 8923 0
-8922 8923 0
-8916 -8922 0
-8917 8924 0
-8923 8924 0
-8917 -8923 0
-8918 -8924 0
-8926 24 25 0
-24 8926 0
-25 8926 0
8926 22 23 26 27 28 0
-8927 73 74 0
-73 8927 0
-74 8927 0
8927 71 72 75 76 77 0
-8928 122 123 0
-122 8928 0
-123 8928 0
8928 120 121 124 125 126 0
-8929 171 172 0
-171 8929 0
-172 8929 0
8929 169 170 173 174 175 0
-8930 220 221 0
-220 8930 0
-221 8930 0
8930 218 219 222 223 224 0
-8931 269 270 0
-269 8931 0
-270 8931 0
8931 267 268 271 272 273 0
-8932 318 319 0
-318 8932 0
-319 8932 0
8932 316 317 320 321 322 0
-8926 8933 0
-8934 0
-8927 8935 0
-8933 8935 0
-8927 -8933 8936 0
-8934 8936 0
-8927 -8934 0
-8928 8937 0
-8935 8937 0
-8928 -8935 8938 0
-8936 8938 0
-8928 -8936 0
-8929 8939 0
-8937 8939 0
-8929 -8937 8940 0
-8938 8940 0
-8929 -8938 0
-8930 8941 0
-8939 8941 0
-8930 -8939 8942 0
-8940 8942 0
-8930 -8940 0
-8931 8943 0
-8941 8943 0
-8931 -8941 8944 0
-8942 8944 0
-8931 -8942 0
-8932 -8944 0
-8947 24 25 26 0
-24 8947 0
-25 8947 0
-26 8947 0
8947 22 23 27 28 0
-8948 73 74 75 0
-73 8948 0
-74 8948 0
-75 8948 0
8948 71 72 76 77 0
-8949 122 123 124 0
-122 8949 0
-123 8949 0
-124 8949 0
8949 120 121 125 126 0
-8950 171 172 173 0
-171 8950 0
-172 8950 0
-173 8950 0
8950 169 170 174 175 0
-8951 220 221 222 0
-220 8951 0
-221 8951 0
-222 8951 0
8951 218 219 223 224 0
-8952 269 270 271 0
-269 8952 0
-270 8952 0
-271 8952 0
8952 267 268 272 273 0
-8953 318 319 320 0
-318 8953 0
-319 8953 0
-320 8953 0
8953 316 317 321 322 0
-8947 8954 0
-8955 0
-8956 0
-8948 8957 0
-8954 8957 0
-8948 -8954 8958 0
-8955 8958 0
-8948 -8955 8959 0
-8956 8959 0
-8948 -8956 0
-8949 8960 0
-8957 8960 0
-8949 -8957 8961 0
-8958 8961 0
-8949 -8958 8962 0
-8959 8962 0
-8949 -8959 0
-8950 8963 0
-8960 8963 0
-8950 -8960 8964 0
-8961 8964 0
-8950 -8961 8965 0
-8962 8965 0
-8950 -8962 0
-8951 8966 0
-8963 8966 0
-8951 -8963 8967 0
-8964 8967 0
-8951 -8964 8968 0
-8965 8968 0
-8951 -8965 0
-8952 8969 0
-8966 8969 0
-8952 -8966 8970 0
-8967 8970 0
-8952 -8967 8971 0
-8968 8971 0
-8952 -8968 0
-8953 -8971 0
-8975 24 25 26 27 0
-24 8975 0
-25 8975 0
-26 8975 0
-27 8975 0
8975 22 23 28 0
-8976 73 74 75 76 0
-73 8976 0
-74 8976 0
-75 8976 0
-76 8976 0
8976 71 72 77 0
-8977 122 123 124 125 0
-122 8977 0
-123 8977 0
-124 8977 0
-125 8977 0
8977 120 121 126 0
-8978 171 172 173 174 0
-171 8978 0
-172 8978 0
-173 8978 0
-174 8978 0
8978 169 170 175 0
-8979 220 221 222 223 0
-220 8979 0
-221 8979 0
-222 8979 0
-223 8979 0
8979 218 219 224 0
-8980 269 270 271 272 0
-269 8980 0
-270 8980 0
-271 8980 0
-272 8980 0
8980 267 268 273 0
-8981 318 319 320 321 0
-318 8981 0
-319 8981 0
-320 8981 0
-321 8981 0
8981 316 317 322 0
-8975 8982 0
-8983 0
-8984 0
-8985 0
-8976 8986 0
-8982 8986 0
-8976 -8982 8987 0
-8983 8987 0
-8976 -8983 8988 0
-8984 8988 0
-8976 -8984 8989 0
-8985 8989 0
-8976 -8985 0
-8977 8990 0
-8986 8990 0
-8977 -8986 8991 0
-8987 8991 0
-8977 -8987 8992 0
-8988 8992 0
-8977 -8988 8993 0
-8989 8993 0
-8977 -8989 0
-8978 8994 0
-8990 8994 0
-8978 -8990 8995 0
-8991 8995 0
-8978 -8991 8996 0
-8992 8996 0
-8978 -8992 8997 0
-8993 8997 0
-8978 -8993 0
-8979 8998 0
-8994 8998 0
-8979 -8994 8999 0
-8995 8999 0
-8979 -8995 9000 0
-8996 9000 0
-8979 -8996 9001 0
-8997 9001 0
-8979 -8997 0
-8980 9002 0
-8998 9002 0
-8980 -8998 9003 0
-8999 9003 0
-8980 -8999 9004 0
-9000 9004 0
-8980 -9000 9005 0
-9001 9005 0
-8980 -9001 0
-8981 -9005 0
-9010 24 25 26 27 28 0
-24 9010 0
-25 9010 0
-26 9010 0
-27 9010 0
-28 9010 0
9010 22 23 0
-9011 73 74 75 76 77 0
-73 9011 0
-74 9011 0
-75 9011 0
-76 9011 0
-77 9011 0
9011 71 72 0
-9012 122 123 124 125 126 0
-122 9012 0
-123 9012 0
-124 9012 0
-125 9012 0
-126 9012 0
9012 120 121 0
-9013 171 172 173 174 175 0
-171 9013 0
-172 9013 0
-173 9013 0
-174 9013 0
-175 9013 0
9013 169 170 0
-9014 220 221 222 223 224 0
-220 9014 0
-221 9014 0
-222 9014 0
-223 9014 0
-224 9014 0
9014 218 219 0
-9015 269 270 271 272 273 0
-269 9015 0
-270 9015 0
-271 9015 0
-272 9015 0
-273 9015 0
9015 267 268 0
-9016 318 319 320 321 322 0
-318 9016 0
-319 9016 0
-320 9016 0
-321 9016 0
-322 9016 0
9016 316 317 0
-9010 9017 0
-9018 0
-9019 0
-9020 0
-9021 0
-9011 9022 0
-9017 9022 0
-9011 -9017 9023 0
-9018 9023 0
-9011 -9018 9024 0
-9019 9024 0
-9011 -9019 9025 0
-9020 9025 0
-9011 -9020 9026 0
-9021 9026 0
-9011 -9021 0
-9012 9027 0
-9022 9027 0
-9012 -9022 9028 0
-9023 9028 0
-9012 -9023 9029 0
-9024 9029 0
-9012 -9024 9030 0
-9025 9030 0
-9012 -9025 9031 0
-9026 9031 0
-9012 -9026 0
-9013 9032 0
-9027 9032 0
-9013 -9027 9033 0
-9028 9033 0
-9013 -9028 9034 0
-9029 9034 0
-9013 -9029 9035 0
-9030 9035 0
-9013 -9030 9036 0
-9031 9036 0
-9013 -9031 0
-9014 9037 0
-9032 9037 0
-9014 -9032 9038 0
-9033 9038 0
-9014 -9033 9039 0
-9034 9039 0
-9014 -9034 9040 0
-9035 9040 0
-9014 -9035 9041 0
-9036 9041 0
-9014 -9036 0
-9015 9042 0
-9037 9042 0
-9015 -9037 9043 0
-9038 9043 0
-9015 -9038 9044 0
-9039 9044 0
-9015 -9039 9045 0
-9040 9045 0
-9015 -9040 9046 0
-9041 9046 0
-9015 -9041 0
-9016 -9046 0
-9052 25 0
-25 9052 0
9052 22 23 24 26 27 28 0
-9053 74 0
-74 9053 0
9053 71 72 73 75 76 77 0
-9054 123 0
-123 9054 0
9054 120 121 122 124 125 126 0
-9055 172 0
-172 9055 0
9055 169 170 171 173 174 175 0
-9056 221 0
-221 9056 0
9056 218 219 220 222 223 224 0
-9057 270 0
-270 9057 0
9057 267 268 269 271 272 273 0
-9058 319 0
-319 9058 0
9058 316 317 318 320 321 322 0
-9052 9059 0
-9053 9060 0
-9059 9060 0
-9053 -9059 0
-9054 9061 0
-9060 9061 0
-9054 -9060 0
-9055 9062 0
-9061 9062 0
-9055 -9061 0
-9056 9063 0
-9062 9063 0
-9056 -9062 0
-9057 9064 0
-9063 9064 0
-9057 -9063 0
-9058 -9064 0
-9066 25 26 0
-25 9066 0
-26 9066 0
9066 22 23 24 27 28 0
-9067 74 75 0
-74 9067 0
-75 9067 0
9067 71 72 73 76 77 0
-9068 123 124 0
-123 9068 0
-124 9068 0
9068 120 121 122 125 126 0
-9069 172 173 0
-172 9069 0
-173 9069 0
9069 169 170 171 174 175 0
-9070 221 222 0
-221 9070 0
-222 9070 0
9070 218 219 220 223 224 0
-9071 270 271 0
-270 9071 0
-271 9071 0
9071 267 268 269 272 273 0
-9072 319 320 0
-319 9072 0
-320 9072 0
9072 316 317 318 321 322 0
-9066 9073 0
-9074 0
-9067 9075 0
-9073 9075 0
-9067 -9073 9076 0
-9074 9076 0
-9067 -9074 0
-9068 9077 0
-9075 9077 0
-9068 -9075 9078 0
-9076 9078 0
-9068 -9076 0
-9069 9079 0
-9077 9079 0
-9069 -9077 9080 0
-9078 9080 0
-9069 -9078 0
-9070 9081 0
-9079 9081 0
-9070 -9079 9082 0
-9080 9082 0
-9070 -9080 0
-9071 9083 0
-9081 9083 0
-9071 -9081 9084 0
-9082 9084 0
-9071 -9082 0
-9072 -9084 0
-9087 25 26 27 0
-25 9087 0
-26 9087 0
-27 9087 0
9087 22 23 24 28 0
-9088 74 75 76 0
-74 9088 0
-75 9088 0
-76 9088 0
9088 71 72 73 77 0
-9089 123 124 125 0
-123 9089 0
-124 9089 0
-125 9089 0
9089 120 121 122 126 0
-9090 172 173 174 0
-172 9090 0
-173 9090 0
-174 9090 0
9090 169 170 171 175 0
-9091 221 222 223 0
-221 9091 0
-222 9091 0
-223 9091 0
9091 218 219 220 224 0
-9092 270 271 272 0
-270 9092 0
-271 9092 0
-272 9092 0
9092 267 268 269 273 0
-9093 319 320 321 0
-319 9093 0
-320 9093 0
-321 9093 0
9093 316 317 318 322 0
-9087 9094 0
-9095 0
-9096 0
-9088 9097 0
-9094 9097 0
-9088 -9094 9098 0
-9095 9098 0
-9088 -9095 9099 0
-9096 9099 0
-9088 -9096 0
-9089 9100 0
-9097 9100 0
-9089 -9097 9101 0
-9098 9101 0
-9089 -9098 9102 0
-9099 9102 0
-9089 -9099 0
-9090 9103 0
-9100 9103 0
-9090 -9100 9104 0
-9101 9104 0
-9090 -9101 9105 0
-9102 9105 0
-9090 -9102 0
-9091 9106 0
-9103 9106 0
-9091 -9103 9107 0
-9104 9107 0
-9091 -9104 9108 0
-9105 9108 0
-9091 -9105 0
-9092 9109 0
-9106 9109 0
-9092 -9106 9110 0
-9107 9110 0
-9092 -9107 9111 0
-9108 9111 0
-9092 -9108 0
-9093 -9111 0
-9115 25 26 27 28 0
-25 9115 0
-26 9115 0
-27 9115 0
-28 9115 0
9115 22 23 24 0
-9116 74 75 76 77 0
-74 9116 0
-75 9116 0
-76 9116 0
-77 9116 0
9116 71 72 73 0
-9117 123 124 125 126 0
-123 9117 0
-124 9117 0
-125 9117 0
-126 9117 0
9117 120 121 122 0
-9118 172 173 174 175 0
-172 9118 0
-173 9118 0
-174 9118 0
-175 9118 0
9118 169 170 171 0
-9119 221 222 223 224 0
-221 9119 0
-222 9119 0
-223 9119 0
-224 9119 0
9119 218 219 220 0
-9120 270 271 272 273 0
-270 9120 0
-271 9120 0
-272 9120 0
-273 9120 0
9120 267 268 269 0
-9121 319 320 321 322 0
-319 9121 0
-320 9121 0
-321 9121 0
-322 9121 0
9121 316 317 318 0
-9115 9122 0
-9123 0
-9124 0
-9125 0
-9116 9126 0
-9122 9126 0
-9116 -9122 9127 0
-9123 9127 0
-9116 -9123 9128 0
-9124 9128 0
-9116 -9124 9129 0
-9125 9129 0
-9116 -9125 0
-9117 9130 0
-9126 9130 0
-9117 -9126 9131 0
-9127 9131 0
-9117 -9127 9132 0
-9128 9132 0
-9117 -9128 9133 0
-9129 9133 0
-9117 -9129 0
-9118 9134 0
-9130 9134 0
-9118 -9130 9135 0
-9131 9135 0
-9118 -9131 9136 0
-9132 9136 0
-9118 -9132 9137 0
-9133 9137 0
-9118 -9133 0
-9119 9138 0
-9134 9138 0
-9119 -9134 9139 0
-9135 9139 0
-9119 -9135 9140 0
-9136 9140 0
-9119 -9136 9141 0
-9137 9141 0
-9119 -9137 0
-9120 9142 0
-9138 9142 0
-9120 -9138 9143 0
-9139 9143 0
-9120 -9139 9144 0
-9140 9144 0
-9120 -9140 9145 0
-9141 9145 0
-9120 -9141 0
-9121 -9145 0
-9150 26 0
-26 9150 0
9150 22 23 24 25 27 28 0
-9151 75 0
-75 9151 0
9151 71 72 73 74 76 77 0
-9152 124 0
-124 9152 0
9152 120 121 122 123 125 126 0
-9153 173 0
-173 9153 0
9153 169 170 171 172 174 175 0
-9154 222 0
-222 9154 0
9154 218 219 220 221 223 224 0
-9155 271 0
-271 9155 0
9155 267 268 269 270 272 273 0
-9156 320 0
-320 9156 0
9156 316 317 318 319 321 322 0
-9150 9157 0
-9151 9158 0
-9157 9158 0
-9151 -9157 0
-9152 9159 0
-9158 9159 0
-9152 -9158 0
-9153 9160 0
-9159 9160 0
-9153 -9159 0
-9154 9161 0
-9160 9161 0
-9154 -9160 0
-9155 9162 0
-9161 9162 0
-9155 -9161 0
-9156 -9162 0
-9164 26 27 0
-26 9164 0
-27 9164 0
9164 22 23 24 25 28 0
-9165 75 76 0
-75 9165 0
-76 9165 0
9165 71 72 73 74 77 0
-9166 124 125 0
-124 9166 0
-125 9166 0
9166 120 121 122 123 126 0
-9167 173 174 0
-173 9167 0
-174 9167 0
9167 169 170 171 172 175 0
-9168 222 223 0
-222 9168 0
-223 9168 0
9168 218 219 220 221 224 0
-9169 271 272 0
-271 9169 0
-272 9169 0
9169 267 268 269 270 273 0
-9170 320 321 0
-320 9170 0
-321 9170 0
9170 316 317 318 319 322 0
-9164 9171 0
-9172 0
-9165 9173 0
-9171 9173 0
-9165 -9171 9174 0
-9172 9174 0
-9165 -9172 0
-9166 9175 0
-9173 9175 0
-9166 -9173 9176 0
-9174 9176 0
-9166 -9174 0
-9167 9177 0
-9175 9177 0
-9167 -9175 9178 0
-9176 9178 0
-9167 -9176 0
-9168 9179 0
-9177 9179 0
-9168 -9177 9180 0
-9178 9180 0
-9168 -9178 0
-9169 9181 0
-9179 9181 0
-9169 -9179 9182 0
-9180 9182 0
-9169 -9180 0
-9170 -9182 0
-9185 26 27 28 0
-26 9185 0
-27 9185 0
-28 9185 0
9185 22 23 24 25 0
-9186 75 76 77 0
-75 9186 0
-76 9186 0
-77 9186 0
9186 71 72 73 74 0
-9187 124 125 126 0
-124 9187 0
-125 9187 0
-126 9187 0
9187 120 121 122 123 0
-9188 173 174 175 0
-173 9188 0
-174 9188 0
-175 9188 0
9188 169 170 171 172 0
-9189 222 223 224 0
-222 9189 0
-223 9189 0
-224 9189 0
9189 218 219 220 221 0
-9190 271 272 273 0
-271 9190 0
-272 9190 0
-273 9190 0
9190 267 268 269 270 0
-9191 320 321 322 0
-320 9191 0
-321 9191 0
-322 9191 0
9191 316 317 318 319 0
-9185 9192 0
-9193 0
-9194 0
-9186 9195 0
-9192 9195 0
-9186 -9192 9196 0
-9193 9196 0
-9186 -9193 9197 0
-9194 9197 0
-9186 -9194 0
-9187 9198 0
-9195 9198 0
-9187 -9195 9199 0
-9196 9199 0
-9187 -9196 9200 0
-9197 9200 0
-9187 -9197 0
-9188 9201 0
-9198 9201 0
-9188 -9198 9202 0
-9199 9202 0
-9188 -9199 9203 0
-9200 9203 0
-9188 -9200 0
-9189 9204 0
-9201 9204 0
-9189 -9201 9205 0
-9202 9205 0
-9189 -9202 9206 0
-9203 9206 0
-9189 -9203 0
-9190 9207 0
-9204 9207 0
-9190 -9204 9208 0
-9205 9208 0
-9190 -9205 9209 0
-9206 9209 0
-9190 -9206 0
-9191 -9209 0
-9213 27 0
-27 9213 0
9213 22 23 24 25 26 28 0
-9214 76 0
-76 9214 0
9214 71 72 73 74 75 77 0
-9215 125 0
-125 9215 0
9215 120 121 122 123 124 126 0
-9216 174 0
-174 9216 0
9216 169 170 171 172 173 175 0
-9217 223 0
-223 9217 0
9217 218 219 220 221 222 224 0
-9218 272 0
-272 9218 0
9218 267 268 269 270 271 273 0
-9219 321 0
-321 9219 0
9219 316 317 318 319 320 322 0
-9213 9220 0
-9214 9221 0
-9220 9221 0
-9214 -9220 0
-9215 9222 0
-9221 9222 0
-9215 -9221 0
-9216 9223 0
-9222 9223 0
-9216 -9222 0
-9217 9224 0
-9223 9224 0
-9217 -9223 0
-9218 9225 0
-9224 9225 0
-9218 -9224 0
-9219 -9225 0
-9227 27 28 0
-27 9227 0
-28 9227 0
9227 22 23 24 25 26 0
-9228 76 77 0
-76 9228 0
-77 9228 0
9228 71 72 73 74 75 0
-9229 125 126 0
-125 9229 0
-126 9229 0
9229 120 121 122 123 124 0
-9230 174 175 0
-174 9230 0
-175 9230 0
9230 169 170 171 172 173 0
-9231 223 224 0
-223 9231 0
-224 9231 0
9231 218 219 220 221 222 0
-9232 272 273 0
-272 9232 0
-273 9232 0
9232 267 268 269 270 271 0
-9233 321 322 0
-321 9233 0
-322 9233 0
9233 316 317 318 319 320 0
-9227 9234 0
-9235 0
-9228 9236 0
-9234 9236 0
-9228 -9234 9237 0
-9235 9237 0
-9228 -9235 0
-9229 9238 0
-9236 9238 0
-9229 -9236 9239 0
-9237 9239 0
-9229 -9237 0
-9230 9240 0
-9238 9240 0
-9230 -9238 9241 0
-9239 9241 0
-9230 -9239 0
-9231 9242 0
-9240 9242 0
-9231 -9240 9243 0
-9241 9243 0
-9231 -9241 0
-9232 9244 0
-9242 9244 0
-9232 -9242 9245 0
-9243 9245 0
-9232 -9243 0
-9233 -9245 0
-9248 28 0
-28 9248 0
9248 22 23 24 25 26 27 0
-9249 77 0
-77 9249 0
9249 71 72 73 74 75 76 0
-9250 126 0
-126 9250 0
9250 120 121 122 123 124 125 0
-9251 175 0
-175 9251 0
9251 169 170 171 172 173 174 0
-9252 224 0
-224 9252 0
9252 218 219 220 221 222 223 0
-9253 273 0
-273 9253 0
9253 267 268 269 270 271 272 0
-9254 322 0
-322 9254 0
9254 316 317 318 319 320 321 0
-9248 9255 0
-9249 9256 0
-9255 9256 0
-9249 -9255 0
-9250 9257 0
-9256 9257 0
-9250 -9256 0
-9251 9258 0
-9257 9258 0
-9251 -9257 0
-9252 9259 0
-9258 9259 0
-9252 -9258 0
-9253 9260 0
-9259 9260 0
-9253 -9259 0
-9254 -9260 0
-22 9262 0
-71 9263 0
-9262 9263 0
-71 -9262 0
-120 9264 0
-9263 9264 0
-120 -9263 0
-169 9265 0
-9264 9265 0
-169 -9264 0
-218 9266 0
-9265 9266 0
-218 -9265 0
-267 9267 0
-9266 9267 0
-267 -9266 0
-316 -9267 0
22 71 120 169 218 267 316 0
-23 9269 0
-72 9270 0
-9269 9270 0
-72 -9269 0
-121 9271 0
-9270 9271 0
-121 -9270 0
-170 9272 0
-9271 9272 0
-170 -9271 0
-219 9273 0
-9272 9273 0
-219 -9272 0
-268 9274 0
-9273 9274 0
-268 -9273 0
-317 -9274 0
23 72 121 170 219 268 317 0
-24 9276 0
-73 9277 0
-9276 9277 0
-73 -9276 0
-122 9278 0
-9277 9278 0
-122 -9277 0
-171 9279 0
-9278 9279 0
-171 -9278 0
-220 9280 0
-9279 9280 0
-220 -9279 0
-269 9281 0
-9280 9281 0
-269 -9280 0
-318 -9281 0
24 73 122 171 220 269 318 0
-25 9283 0
-74 9284 0
-9283 9284 0
-74 -9283 0
-123 9285 0
-9284 9285 0
-123 -9284 0
-172 9286 0
-9285 9286 0
-172 -9285 0
-221 9287 0
-9286 9287 0
-221 -9286 0
-270 9288 0
-9287 9288 0
-270 -9287 0
-319 -9288 0
25 74 123 172 221 270 319 0
-26 9290 0
-75 9291 0
-9290 9291 0
-75 -9290 0
-124 9292 0
-9291 9292 0
-124 -9291 0
-173 9293 0
-9292 9293 0
-173 -9292 0
-222 9294 0
-9293 9294 0
-222 -9293 0
-271 9295 0
-9294 9295 0
-271 -9294 0
-320 -9295 0
26 75 124 173 222 271 320 0
-27 9297 0
-76 9298 0
-9297 9298 0
-76 -9297 0
-125 9299 0
-9298 9299 0
-125 -9298 0
-174 9300 0
-9299 9300 0
-174 -9299 0
-223 9301 0
-9300 9301 0
-223 -9300 0
-272 9302 0
-9301 9302 0
-272 -9301 0
-321 -9302 0
27 76 125 174 223 272 321 0
-28 9304 0
-77 9305 0
-9304 9305 0
-77 -9304 0
-126 9306 0
-9305 9306 0
-126 -9305 0
-175 9307 0
-9306 9307 0
-175 -9306 0
-224 9308 0
-9307 9308 0
-224 -9307 0
-273 9309 0
-9308 9309 0
-273 -9308 0
-322 -9309 0
28 77 126 175 224 273 322 0
-9311 29 0
-29 9311 0
9311 30 31 32 33 34 35 0
-9312 78 0
-78 9312 0
9312 79 80 81 82 83 84 0
-9313 127 0
-127 9313 0
9313 128 129 130 131 132 133 0
-9314 176 0
-176 9314 0
9314 177 178 179 180 181 182 0
-9315 225 0
-225 9315 0
9315 226 227 228 229 230 231 0
-9316 274 0
-274 9316 0
9316 275 276 277 278 279 280 0
-9317 323 0
-323 9317 0
9317 324 325 326 327 328 329 0
-9311 9318 0
-9312 9319 0
-9318 9319 0
-9312 -9318 0
-9313 9320 0
-9319 9320 0
-9313 -9319 0
-9314 9321 0
-9320 9321 0
-9314 -9320 0
-9315 9322 0
-9321 9322 0
-9315 -9321 0
-9316 9323 0
-9322 9323 0
-9316 -9322 0
-9317 -9323 0
-9325 29 30 0
-29 9325 0
-30 9325 0
9325 31 32 33 34 35 0
-9326 78 79 0
-78 9326 0
-79 9326 0
9326 80 81 82 83 84 0
-9327 127 128 0
-127 9327 0
-128 9327 0
9327 129 130 131 132 133 0
-9328 176 177 0
-176 9328 0
-177 9328 0
9328 178 179 180 181 182 0
-9329 225 226 0
-225 9329 0
-226 9329 0
9329 227 228 229 230 231 0
-9330 274 275 0
-274 9330 0
-275 9330 0
9330 276 277 278 279 280 0
-9331 323 324 0
-323 9331 0
-324 9331 0
9331 325 326 327 328 329 0
-9325 9332 0
-9333 0
-9326 9334 0
-9332 9334 0
-9326 -9332 9335 0
-9333 9335 0
-9326 -9333 0
-9327 9336 0
-9334 9336 0
-9327 -9334 9337 0
-9335 9337 0
-9327 -9335 0
-9328 9338 0
-9336 9338 0
-9328 -9336 9339 0
-9337 9339 0
-9328 -9337 0
-9329 9340 0
-9338 9340 0
-9329 -9338 9341 0
-9339 9341 0
-9329 -9339 0
-9330 9342 0
-9340 9342 0
-9330 -9340 9343 0
-9341 9343 0
-9330 -9341 0
-9331 -9343 0
-9346 29 30 31 0
-29 9346 0
-30 9346 0
-31 9346 0
9346 32 33 34 35 0
-9347 78 79 80 0
-78 9347 0
-79 9347 0
-80 9347 0
9347 81 82 83 84 0
-9348 127 128 129 0
-127 9348 0
-128 9348 0
-129 9348 0
9348 130 131 132 133 0
-9349 176 177 178 0
-176 9349 0
-177 9349 0
-178 9349 0
9349 179 180 181 182 0
-9350 225 226 227 0
-225 9350 0
-226 9350 0
-227 9350 0
9350 228 229 230 231 0
-9351 274 275 276 0
-274 9351 0
-275 9351 0
-276 9351 0
9351 277 278 279 280 0
-9352 323 324 325 0
-323 9352 0
-324 9352 0
-325 9352 0
9352 326 327 328 329 0
-9346 9353 0
-9354 0
-9355 0
-9347 9356 0
-9353 9356 0
-9347 -9353 9357 0
-9354 9357 0
-9347 -9354 9358 0
-9355 9358 0
-9347 -9355 0
-9348 9359 0
-9356 9359 0
-9348 -9356 9360 0
-9357 9360 0
-9348 -9357 9361 0
-9358 9361 0
-9348 -9358 0
-9349 9362 0
-9359 9362 0
-9349 -9359 9363 0
-9360 9363 0
-9349 -9360 9364 0
-9361 9364 0
-9349 -9361 0
-9350 9365 0
-9362 9365 0
-9350 -9362 9366 0
-9363 9366 0
-9350 -9363 9367 0
-9364 9367 0
-9350 -9364 0
-9351 9368 0
-9365 9368 0
-9351 -9365 9369 0
-9366 9369 0
-9351 -9366 9370 0
-9367 9370 0
-9351 -9367 0
-9352 -9370 0
-9374 29 30 31 32 0
-29 9374 0
-30 9374 0
-31 9374 0
-32 9374 0
9374 33 34 35 0
-9375 78 79 80 81 0
-78 9375 0
-79 9375 0
-80 9375 0
-81 9375 0
9375 82 83 84 0
-9376 127 128 129 130 0
-127 9376 0
-128 9376 0
-129 9376 0
-130 9376 0
9376 131 132 133 0
-9377 176 177 178 179 0
-176 9377 0
-177 9377 0
-178 9377 0
-179 9377 0
9377 180 181 182 0
-9378 225 226 227 228 0
-225 9378 0
-226 9378 0
-227 9378 0
-228 9378 0
9378 229 230 231 0
-9379 274 275 276 277 0
-274 9379 0
-275 9379 0
-276 9379 0
-277 9379 0
9379 278 279 280 0
-9380 323 324 325 326 0
-323 9380 0
-324 9380 0
-325 9380 0
-326 9380 0
9380 327 328 329 0
-9374 9381 0
-9382 0
-9383 0
-9384 0
-9375 9385 0
-9381 9385 0
-9375 -9381 9386 0
-9382 9386 0
-9375 -9382 9387 0
-9383 9387 0
-9375 -9383 9388 0
-9384 9388 0
-9375 -9384 0
-9376 9389 0
-9385 9389 0
-9376 -9385 9390 0
-9386 9390 0
-9376 -9386 9391 0
-9387 9391 0
-9376 -9387 9392 0
-9388 9392 0
-9376 -9388 0
-9377 9393 0
-9389 9393 0
-9377 -9389 9394 0
-9390 9394 0
-9377 -9390 9395 0
-9391 9395 0
-9377 -9391 9396 0
-9392 9396 0
-9377 -9392 0
-9378 9397 0
-9393 9397 0
-9378 -9393 9398 0
-9394 9398 0
-9378 -9394 9399 0
-9395 9399 0
-9378 -9395 9400 0
-9396 9400 0
-9378 -9396 0
-9379 9401 0
-9397 9401 0
-9379 -9397 9402 0
-9398 9402 0
-9379 -9398 9403 0
-9399 9403 0
-9379 -9399 9404 0
-9400 9404 0
-9379 -9400 0
-9380 -9404 0
-9409 29 30 31 32 33 0
-29 9409 0
-30 9409 0
-31 9409 0
-32 9409 0
-33 9409 0
9409 34 35 0
-9410 78 79 80 81 82 0
-78 9410 0
-79 9410 0
-80 9410 0
-81 9410 0
-82 9410 0
9410 83 84 0
-9411 127 128 129 130 131 0
-127 9411 0
-128 9411 0
-129 9411 0
-130 9411 0
-131 9411 0
9411 132 133 0
-9412 176 177 178 179 180 0
-176 9412 0
-177 9412 0
-178 9412 0
-179 9412 0
-180 9412 0
9412 181 182 0
-9413 225 226 227 228 229 0
-225 9413 0
-226 9413 0
-227 9413 0
-228 9413 0
-229 9413 0
9413 230 231 0
-9414 274 275 276 277 278 0
-274 9414 0
-275 9414 0
-276 9414 0
-277 9414 0
-278 9414 0
9414 279 280 0
-9415 323 324 325 326 327 0
-323 9415 0
-324 9415 0
-325 9415 0
-326 9415 0
-327 9415 0
9415 328 329 0
-9409 9416 0
-9417 0
-9418 0
-9419 0
-9420 0
-9410 9421 0
-9416 9421 0
-9410 -9416 9422 0
-9417 9422 0
-9410 -9417 9423 0
-9418 9423 0
-9410 -9418 9424 0
-9419 9424 0
-9410 -9419 9425 0
-9420 9425 0
-9410 -9420 0
-9411 9426 0
-9421 9426 0
-9411 -9421 9427 0
-9422 9427 0
-9411 -9422 9428 0
-9423 9428 0
-9411 -9423 9429 0
-9424 9429 0
-9411 -9424 9430 0
-9425 9430 0
-9411 -9425 0
-9412 9431 0
-9426 9431 0
-9412 -9426 9432 0
-9427 9432 0
-9412 -9427 9433 0
-9428 9433 0
-9412 -9428 9434 0
-9429 9434 0
-9412 -9429 9435 0
-9430 9435 0
-9412 -9430 0
-9413 9436 0
-9431 9436 0
-9413 -9431 9437 0
-9432 9437 0
-9413 -9432 9438 0
-9433 9438 0
-9413 -9433 9439 0
-9434 9439 0
-9413 -9434 9440 0
-9435 9440 0
-9413 -9435 0
-9414 9441 0
-9436 9441 0
-9414 -9436 9442 0
-9437 9442 0
-9414 -9437 9443 0
-9438 9443 0
-9414 -9438 9444 0
-9439 9444 0
-9414 -9439 9445 0
-9440 9445 0
-9414 -9440 0
-9415 -9445 0
-9451 29 30 31 32 33 34 0
-29 9451 0
-30 9451 0
-31 9451 0
-32 9451 0
-33 9451 0
-34 9451 0
9451 35 0
-9452 78 79 80 81 82 83 0
-78 9452 0
-79 9452 0
-80 9452 0
-81 9452 0
-82 9452 0
-83 9452 0
9452 84 0
-9453 127 128 129 130 131 132 0
-127 9453 0
-128 9453 0
-129 9453 0
-130 9453 0
-131 9453 0
-132 9453 0
9453 133 0
-9454 176 177 178 179 180 181 0
-176 9454 0
-177 9454 0
-178 9454 0
-179 9454 0
-180 9454 0
-181 9454 0
9454 182 0
-9455 225 226 227 228 229 230 0
-225 9455 0
-226 9455 0
-227 9455 0
-228 9455 0
-229 9455 0
-230 9455 0
9455 231 0
-9456 274 275 276 277 278 279 0
-274 9456 0
-275 9456 0
-276 9456 0
-277 9456 0
-278 9456 0
-279 9456 0
9456 280 0
-9457 323 324 325 326 327 328 0
-323 9457 0
-324 9457 0
-325 9457 0
-326 9457 0
-327 9457 0
-328 9457 0
9457 329 0
-9451 9458 0
-9459 0
-9460 0
-9461 0
-9462 0
-9463 0
-9452 9464 0
-9458 9464 0
-9452 -9458 9465 0
-9459 9465 0
-9452 -9459 9466 0
-9460 9466 0
-9452 -9460 9467 0
-9461 9467 0
-9452 -9461 9468 0
-9462 9468 0
-9452 -9462 9469 0
-9463 9469 0
-9452 -9463 0
-9453 9470 0
-9464 9470 0
-9453 -9464 9471 0
-9465 9471 0
-9453 -9465 9472 0
-9466 9472 0
-9453 -9466 9473 0
-9467 9473 0
-9453 -9467 9474 0
-9468 9474 0
-9453 -9468 9475 0
-9469 9475 0
-9453 -9469 0
-9454 9476 0
-9470 9476 0
-9454 -9470 9477 0
-9471 9477 0
-9454 -9471 9478 0
-9472 9478 0
-9454 -9472 9479 0
-9473 9479 0
-9454 -9473 9480 0
-9474 9480 0
-9454 -9474 9481 0
-9475 9481 0
-9454 -9475 0
-9455 9482 0
-9476 9482 0
-9455 -9476 9483 0
-9477 9483 0
-9455 -9477 9484 0
-9478 9484 0
-9455 -9478 9485 0
-9479 9485 0
-9455 -9479 9486 0
-9480 9486 0
-9455 -9480 9487 0
-9481 9487 0
-9455 -9481 0
-9456 9488 0
-9482 9488 0
-9456 -9482 9489 0
-9483 9489 0
-9456 -9483 9490 0
-9484 9490 0
-9456 -9484 9491 0
-9485 9491 0
-9456 -9485 9492 0
-9486 9492 0
-9456 -9486 9493 0
-9487 9493 0
-9456 -9487 0
-9457 -9493 0
-9500 29 30 31 32 33 34 35 0
-29 9500 0
-30 9500 0
-31 9500 0
-32 9500 0
-33 9500 0
-34 9500 0
-35 9500 0
9500 0
-9501 78 79 80 81 82 83 84 0
-78 9501 0
-79 9501 0
-80 9501 0
-81 9501 0
-82 9501 0
-83 9501 0
-84 9501 0
9501 0
-9502 127 128 129 130 131 132 133 0
-127 9502 0
-128 9502 0
-129 9502 0
-130 9502 0
-131 9502 0
-132 9502 0
-133 9502 0
9502 0
-9503 176 177 178 179 180 181 182 0
-176 9503 0
-177 9503 0
-178 9503 0
-179 9503 0
-180 9503 0
-181 9503 0
-182 9503 0
9503 0
-9504 225 226 227 228 229 230 231 0
-225 9504 0
-226 9504 0
-227 9504 0
-228 9504 0
-229 9504 0
-230 9504 0
-231 9504 0
9504 0
-9505 274 275 276 277 278 279 280 0
-274 9505 0
-275 9505 0
-276 9505 0
-277 9505 0
-278 9505 0
-279 9505 0
-280 9505 0
9505 0
-9506 323 324 325 326 327 328 329 0
-323 9506 0
-324 9506 0
-325 9506 0
-326 9506 0
-327 9506 0
-328 9506 0
-329 9506 0
9506 0
-9507 30 0
-30 9507 0
9507 29 31 32 33 34 35 0
-9508 79 0
-79 9508 0
9508 78 80 81 82 83 84 0
-9509 128 0
-128 9509 0
9509 127 129 130 131 132 133 0
-9510 177 0
-177 9510 0
9510 176 178 179 180 181 182 0
-9511 226 0
-226 9511 0
9511 225 227 228 229 230 231 0
-9512 275 0
-275 9512 0
9512 274 276 277 278 279 280 0
-9513 324 0
-324 9513 0
9513 323 325 326 327 328 329 0
-9507 9514 0
-9508 9515 0
-9514 9515 0
-9508 -9514 0
-9509 9516 0
-9515 9516 0
-9509 -9515 0
-9510 9517 0
-9516 9517 0
-9510 -9516 0
-9511 9518 0
-9517 9518 0
-9511 -9517 0
-9512 9519 0
-9518 9519 0
-9512 -9518 0
-9513 -9519 0
-9521 30 31 0
-30 9521 0
-31 9521 0
9521 29 32 33 34 35 0
-9522 79 80 0
-79 9522 0
-80 9522 0
9522 78 81 82 83 84 0
-9523 128 129 0
-128 9523 0
-129 9523 0
9523 127 130 131 132 133 0
-9524 177 178 0
-177 9524 0
-178 9524 0
9524 176 179 180 181 182 0
-9525 226 227 0
-226 9525 0
-227 9525 0
9525 225 228 229 230 231 0
-9526 275 276 0
-275 9526 0
-276 9526 0
9526 274 277 278 279 280 0
-9527 324 325 0
-324 9527 0
-325 9527 0
9527 323 326 327 328 329 0
-9521 9528 0
-9529 0
-9522 9530 0
-9528 9530 0
-9522 -9528 9531 0
-9529 9531 0
-9522 -9529 0
-9523 9532 0
-9530 9532 0
-9523 -9530 9533 0
-9531 9533 0
-9523 -9531 0
-9524 9534 0
-9532 9534 0
-9524 -9532 9535 0
-9533 9535 0
-9524 -9533 0
-9525 9536 0
-9534 9536 0
-9525 -9534 9537 0
-9535 9537 0
-9525 -9535 0
-9526 9538 0
-9536 9538 0
-9526 -9536 9539 0
-9537 9539 0
-9526 -9537 0
-9527 -9539 0
-9542 30 31 32 0
-30 9542 0
-31 9542 0
-32 9542 0
9542 29 33 34 35 0
-9543 79 80 81 0
-79 9543 0
-80 9543 0
-81 9543 0
9543 78 82 83 84 0
-9544 128 129 130 0
-128 9544 0
-129 9544 0
-130 9544 0
9544 127 131 132 133 0
-9545 177 178 179 0
-177 9545 0
-178 9545 0
-179 9545 0
9545 176 180 181 182 0
-9546 226 227 228 0
-226 9546 0
-227 9546 0
-228 9546 0
9546 225 229 230 231 0
-9547 275 276 277 0
-275 9547 0
-276 9547 0
-277 9547 0
9547 274 278 279 280 0
-9548 324 325 326 0
-324 9548 0
-325 9548 0
-326 9548 0
9548 323 327 328 329 0
-9542 9549 0
-9550 0
-9551 0
-9543 9552 0
-9549 9552 0
-9543 -9549 9553 0
-9550 9553 0
-9543 -9550 9554 0
-9551 9554 0
-9543 -9551 0
-9544 9555 0
-9552 9555 0
-9544 -9552 9556 0
-9553 9556 0
-9544 -9553 9557 0
-9554 9557 0
-9544 -9554 0
-9545 9558 0
-9555 9558 0
-9545 -9555 9559 0
-9556 9559 0
-9545 -9556 9560 0
-9557 9560 0
-9545 -9557 0
-9546 9561 0
-9558 9561 0
-9546 -9558 9562 0
-9559 9562 0
-9546 -9559 9563 0
-9560 9563 0
-9546 -9560 0
-9547 9564 0
-9561 9564 0
-9547 -9561 9565 0
-9562 9565 0
-9547 -9562 9566 0
-9563 9566 0
-9547 -9563 0
-9548 -9566 0
-9570 30 31 32 33 0
-30 9570 0
-31 9570 0
-32 9570 0
-33 9570 0
9570 29 34 35 0
-9571 79 80 81 82 0
-79 9571 0
-80 9571 0
-81 9571 0
-82 9571 0
9571 78 83 84 0
-9572 128 129 130 131 0
-128 9572 0
-129 9572 0
-130 9572 0
-131 9572 0
9572 127 132 133 0
-9573 177 178 179 180 0
-177 9573 0
-178 9573 0
-179 9573 0
-180 9573 0
9573 176 181 182 0
-9574 226 227 228 229 0
-226 9574 0
-227 9574 0
-228 9574 0
-229 9574 0
9574 225 230 231 0
-9575 275 276 277 278 0
-275 9575 0
-276 9575 0
-277 9575 0
-278 9575 0
9575 274 279 280 0
-9576 324 325 326 327 0
-324 9576 0
-325 9576 0
-326 9576 0
-327 9576 0
9576 323 328 329 0
-9570 9577 0
-9578 0
-9579 0
-9580 0
-9571 9581 0
-9577 9581 0
-9571 -9577 9582 0
-9578 9582 0
-9571 -9578 9583 0
-9579 9583 0
-9571 -9579 9584 0
-9580 9584 0
-9571 -9580 0
-9572 9585 0
-9581 9585 0
-9572 -9581 9586 0
-9582 9586 0
-9572 -9582 9587 0
-9583 9587 0
-9572 -9583 9588 0
-9584 9588 0
-9572 -9584 0
-9573 9589 0
-9585 9589 0
-9573 -9585 9590 0
-9586 9590 0
-9573 -9586 9591 0
-9587 9591 0
-9573 -9587 9592 0
-9588 9592 0
-9573 -9588 0
-9574 9593 0
-9589 9593 0
-9574 -9589 9594 0
-9590 9594 0
-9574 -9590 9595 0
-9591 9595 0
-9574 -9591 9596 0
-9592 9596 0
-9574 -9592 0
-9575 9597 0
-9593 9597 0
-9575 -9593 9598 0
-9594 9598 0
-9575 -9594 9599 0
-9595 9599 0
-9575 -9595 9600 0
-9596 9600 0
-9575 -9596 0
-9576 -9600 0
-9605 30 31 32 33 34 0
-30 9605 0
-31 9605 0
-32 9605 0
-33 9605 0
-34 9605 0
9605 29 35 0
-9606 79 80 81 82 83 0
-79 9606 0
-80 9606 0
-81 9606 0
-82 9606 0
-83 9606 0
9606 78 84 0
-9607 128 129 130 131 132 0
-128 9607 0
-129 9607 0
-130 9607 0
-131 9607 0
-132 9607 0
9607 127 133 0
-9608 177 178 179 180 181 0
-177 9608 0
-178 9608 0
-179 9608 0
-180 9608 0
-181 9608 0
9608 176 182 0
-9609 226 227 228 229 230 0
-226 9609 0
-227 9609 0
-228 9609 0
-229 9609 0
-230 9609 0
9609 225 231 0
-9610 275 276 277 278 279 0
-275 9610 0
-276 9610 0
-277 9610 0
-278 9610 0
-279 9610 0
9610 274 280 0
-9611 324 325 326 327 328 0
-324 9611 0
-325 9611 0
-326 9611 0
-327 9611 0
-328 9611 0
9611 323 329 0
-9605 9612 0
-9613 0
-9614 0
-9615 0
-9616 0
-9606 9617 0
-9612 9617 0
-9606 -9612 9618 0
-9613 9618 0
-9606 -9613 9619 0
-9614 9619 0
-9606 -9614 9620 0
-9615 9620 0
-9606 -9615 9621 0
-9616 9621 0
-9606 -9616 0
-9607 9622 0
-9617 9622 0
-9607 -9617 9623 0
-9618 9623 0
-9607 -9618 9624 0
-9619 9624 0
-9607 -9619 9625 0
-9620 9625 0
-9607 -9620 9626 0
-9621 9626 0
-9607 -9621 0
-9608 9627 0
-9622 9627 0
-9608 -9622 9628 0
-9623 9628 0
-9608 -9623 9629 0
-9624 9629 0
-9608 -9624 9630 0
-9625 9630 0
-9608 -9625 9631 0
-9626 9631 0
-9608 -9626 0
-9609 9632 0
-9627 9632 0
-9609 -9627 9633 0
-9628 9633 0
-9609 -9628 9634 0
-9629 9634 0
-9609 -9629 9635 0
-9630 9635 0
-9609 -9630 9636 0
-9631 9636 0
-9609 -9631 0
-9610 9637 0
-9632 9637 0
-9610 -9632 9638 0
-9633 9638 0
-9610 -9633 9639 0
-9634 9639 0
-9610 -9634 9640 0
-9635 9640 0
-9610 -9635 9641 0
-9636 9641 0
-9610 -9636 0
-9611 -9641 0
-9647 30 31 32 33 34 35 0
-30 9647 0
-31 9647 0
-32 9647 0
-33 9647 0
-34 9647 0
-35 9647 0
9647 29 0
-9648 79 80 81 82 83 84 0
-79 9648 0
-80 9648 0
-81 9648 0
-82 9648 0
-83 9648 0
-84 9648 0
9648 78 0
-9649 128 129 130 131 132 133 0
-128 9649 0
-129 9649 0
-130 9649 0
-131 9649 0
-132 9649 0
-133 9649 0
9649 127 0
-9650 177 178 179 180 181 182 0
-177 9650 0
-178 9650 0
-179 9650 0
-180 9650 0
-181 9650 0
-182 9650 0
9650 176 0
-9651 226 227 228 229 230 231 0
-226 9651 0
-227 9651 0
-228 9651 0
-229 9651 0
-230 9651 0
-231 9651 0
9651 225 0
-9652 275 276 277 278 279 280 0
-275 9652 0
-276 9652 0
-277 9652 0
-278 9652 0
-279 9652 0
-280 9652 0
9652 274 0
-9653 324 325 326 327 328 329 0
-324 9653 0
-325 9653 0
-326 9653 0
-327 9653 0
-328 9653 0
-329 9653 0
9653 323 0
-9647 9654 0
-9655 0
-9656 0
-9657 0
-9658 0
-9659 0
-9648 9660 0
-9654 9660 0
-9648 -9654 9661 0
-9655 9661 0
-9648 -9655 9662 0
-9656 9662 0
-9648 -9656 9663 0
-9657 9663 0
-9648 -9657 9664 0
-9658 9664 0
-9648 -9658 9665 0
-9659 9665 0
-9648 -9659 0
-9649 9666 0
-9660 9666 0
-9649 -9660 9667 0
-9661 9667 0
-9649 -9661 9668 0
-9662 9668 0
-9649 -9662 9669 0
-9663 9669 0
-9649 -9663 9670 0
-9664 9670 0
-9649 -9664 9671 0
-9665 9671 0
-9649 -9665 0
-9650 9672 0
-9666 9672 0
-9650 -9666 9673 0
-9667 9673 0
-9650 -9667 9674 0
-9668 9674 0
-9650 -9668 9675 0
-9669 9675 0
-9650 -9669 9676 0
-9670 9676 0
-9650 -9670 9677 0
-9671 9677 0
-9650 -9671 0
-9651 9678 0
-9672 9678 0
-9651 -9672 9679 0
-9673 9679 0
-9651 -9673 9680 0
-9674 9680 0
-9651 -9674 9681 0
-9675 9681 0
-9651 -9675 9682 0
-9676 9682 0
-9651 -9676 9683 0
-9677 9683 0
-9651 -9677 0
-9652 9684 0
-9678 9684 0
-9652 -9678 9685 0
-9679 9685 0
-9652 -9679 9686 0
-9680 9686 0
-9652 -9680 9687 0
-9681 9687 0
-9652 -9681 9688 0
-9682 9688 0
-9652 -9682 9689 0
-9683 9689 0
-9652 -9683 0
-9653 -9689 0
-9696 31 0
-31 9696 0
9696 29 30 32 33 34 35 0
-9697 80 0
-80 9697 0
9697 78 79 81 82 83 84 0
-9698 129 0
-129 9698 0
9698 127 128 130 131 132 133 0
-9699 178 0
-178 9699 0
9699 176 177 179 180 181 182 0
-9700 227 0
-227 9700 0
9700 225 226 228 229 230 231 0
-9701 276 0
-276 9701 0
9701 274 275 277 278 279 280 0
-9702 325 0
-325 9702 0
9702 323 324 326 327 328 329 0
-9696 9703 0
-9697 9704 0
-9703 9704 0
-9697 -9703 0
-9698 9705 0
-9704 9705 0
-9698 -9704 0
-9699 9706 0
-9705 9706 0
-9699 -9705 0
-9700 9707 0
-9706 9707 0
-9700 -9706 0
-9701 9708 0
-9707 9708 0
-9701 -9707 0
-9702 -9708 0
-9710 31 32 0
-31 9710 0
-32 9710 0
9710 29 30 33 34 35 0
-9711 80 81 0
-80 9711 0
-81 9711 0
9711 78 79 82 83 84 0
-9712 129 130 0
-129 9712 0
-130 9712 0
9712 127 128 131 132 133 0
-9713 178 179 0
-178 9713 0
-179 9713 0
9713 176 177 180 181 182 0
-9714 227 228 0
-227 9714 0
-228 9714 0
9714 225 226 229 230 231 0
-9715 276 277 0
-276 9715 0
-277 9715 0
9715 274 275 278 279 280 0
-9716 325 326 0
-325 9716 0
-326 9716 0
9716 323 324 327 328 329 0
-9710 9717 0
-9718 0
-9711 9719 0
-9717 9719 0
-9711 -9717 9720 0
-9718 9720 0
-9711 -9718 0
-9712 9721 0
-9719 9721 0
-9712 -9719 9722 0
-9720 9722 0
-9712 -9720 0
-9713 9723 0
-9721 9723 0
-9713 -9721 9724 0
-9722 9724 0
-9713 -9722 0
-9714 9725 0
-9723 9725 0
-9714 -9723 9726 0
-9724 9726 0
-9714 -9724 0
-9715 9727 0
-9725 9727 0
-9715 -9725 9728 0
-9726 9728 0
-9715 -9726 0
-9716 -9728 0
-9731 31 32 33 0
-31 9731 0
-32 9731 0
-33 9731 0
9731 29 30 34 35 0
-9732 80 81 82 0
-80 9732 0
-81 9732 0
-82 9732 0
9732 78 79 83 84 0
-9733 129 130 131 0
-129 9733 0
-130 9733 0
-131 9733 0
9733 127 128 132 133 0
-9734 178 179 180 0
-178 9734 0
-179 9734 0
-180 9734 0
9734 176 177 181 182 0
-9735 227 228 229 0
-227 9735 0
-228 9735 0
-229 9735 0
9735 225 226 230 231 0
-9736 276 277 278 0
-276 9736 0
-277 9736 0
-278 9736 0
9736 274 275 279 280 0
-9737 325 326 327 0
-325 9737 0
-326 9737 0
-327 9737 0
9737 323 324 328 329 0
-9731 9738 0
-9739 0
-9740 0
-9732 9741 0
-9738 9741 0
-9732 -9738 9742 0
-9739 9742 0
-9732 -9739 9743 0
-9740 9743 0
-9732 -9740 0
-9733 9744 0
-9741 9744 0
-9733 -9741 9745 0
-9742 9745 0
-9733 -9742 9746 0
-9743 9746 0
-9733 -9743 0
-9734 9747 0
-9744 9747 0
-9734 -9744 9748 0
-9745 9748 0
-9734 -9745 9749 0
-9746 9749 0
-9734 -9746 0
-9735 9750 0
-9747 9750 0
-9735 -9747 9751 0
-9748 9751 0
-9735 -9748 9752 0
-9749 9752 0
-9735 -9749 0
-9736 9753 0
-9750 9753 0
-9736 -9750 9754 0
-9751 9754 0
-9736 -9751 9755 0
-9752 9755 0
-9736 -9752 0
-9737 -9755 0
-9759 31 32 33 34 0
-31 9759 0
-32 9759 0
-33 9759 0
-34 9759 0
9759 29 30 35 0
-9760 80 81 82 83 0
-80 9760 0
-81 9760 0
-82 9760 0
-83 9760 0
9760 78 79 84 0
-9761 129 130 131 132 0
-129 9761 0
-130 9761 0
-131 9761 0
-132 9761 0
9761 127 128 133 0
-9762 178 179 180 181 0
-178 9762 0
-179 9762 0
-180 9762 0
-181 9762 0
9762 176 177 182 0
-9763 227 228 229 230 0
-227 9763 0
-228 9763 0
-229 9763 0
-230 9763 0
9763 225 226 231 0
-9764 276 277 278 279 0
-276 9764 0
-277 9764 0
-278 9764 0
-279 9764 0
9764 274 275 280 0
-9765 325 326 327 328 0
-325 9765 0
-326 9765 0
-327 9765 0
-328 9765 0
9765 323 324 329 0
-9759 9766 0
-9767 0
-9768 0
-9769 0
-9760 9770 0
-9766 9770 0
-9760 -9766 9771 0
-9767 9771 0
-9760 -9767 9772 0
-9768 9772 0
-9760 -9768 9773 0
-9769 9773 0
-9760 -9769 0
-9761 9774 0
-9770 9774 0
-9761 -9770 9775 0
-9771 9775 0
-9761 -9771 9776 0
-9772 9776 0
-9761 -9772 9777 0
-9773 9777 0
-9761 -9773 0
-9762 9778 0
-9774 9778 0
-9762 -9774 9779 0
-9775 9779 0
-9762 -9775 9780 0
-9776 9780 0
-9762 -9776 9781 0
-9777 9781 0
-9762 -9777 0
-9763 9782 0
-9778 9782 0
-9763 -9778 9783 0
-9779 9783 0
-9763 -9779 9784 0
-9780 9784 0
-9763 -9780 9785 0
-9781 9785 0
-9763 -9781 0
-9764 9786 0
-9782 9786 0
-9764 -9782 9787 0
-9783 9787 0
-9764 -9783 9788 0
-9784 9788 0
-9764 -9784 9789 0
-9785 9789 0
-9764 -9785 0
-9765 -9789 0
-9794 31 32 33 34 35 0
-31 9794 0
-32 9794 0
-33 9794 0
-34 9794 0
-35 9794 0
9794 29 30 0
-9795 80 81 82 83 84 0
-80 9795 0
-81 9795 0
-82 9795 0
-83 9795 0
-84 9795 0
9795 78 79 0
-9796 129 130 131 132 133 0
-129 9796 0
-130 9796 0
-131 9796 0
-132 9796 0
-133 9796 0
9796 127 128 0
-9797 178 179 180 181 182 0
-178 9797 0
-179 9797 0
-180 9797 0
-181 9797 0
-182 9797 0
9797 176 177 0
-9798 227 228 229 230 231 0
-227 9798 0
-228 9798 0
-229 9798 0
-230 9798 0
-231 9798 0
9798 225 226 0
-9799 276 277 278 279 280 0
-276 9799 0
-277 9799 0
-278 9799 0
-279 9799 0
-280 9799 0
9799 274 275 0
-9800 325 326 327 328 329 0
-325 9800 0
-326 9800 0
-327 9800 0
-328 9800 0
-329 9800 0
9800 323 324 0
-9794 9801 0
-9802 0
-9803 0
-9804 0
-9805 0
-9795 9806 0
-9801 9806 0
-9795 -9801 9807 0
-9802 9807 0
-9795 -9802 9808 0
-9803 9808 0
-9795 -9803 9809 0
-9804 9809 0
-9795 -9804 9810 0
-9805 9810 0
-9795 -9805 0
-9796 9811 0
-9806 9811 0
-9796 -9806 9812 0
-9807 9812 0
-9796 -9807 9813 0
-9808 9813 0
-9796 -9808 9814 0
-9809 9814 0
-9796 -9809 9815 0
-9810 9815 0
-9796 -9810 0
-9797 9816 0
-9811 9816 0
-9797 -9811 9817 0
-9812 9817 0
-9797 -9812 9818 0
-9813 9818 0
-9797 -9813 9819 0
-9814 9819 0
-9797 -9814 9820 0
-9815 9820 0
-9797 -9815 0
-9798 9821 0
-9816 9821 0
-9798 -9816 9822 0
-9817 9822 0
-9798 -9817 9823 0
-9818 9823 0
-9798 -9818 9824 0
-9819 9824 0
-9798 -9819 9825 0
-9820 9825 0
-9798 -9820 0
-9799 9826 0
-9821 9826 0
-9799 -9821 9827 0
-9822 9827 0
-9799 -9822 9828 0
-9823 9828 0
-9799 -9823 9829 0
-9824 9829 0
-9799 -9824 9830 0
-9825 9830 0
-9799 -9825 0
-9800 -9830 0
-9836 32 0
-32 9836 0
9836 29 30 31 33 34 35 0
-9837 81 0
-81 9837 0
9837 78 79 80 82 83 84 0
-9838 130 0
-130 9838 0
9838 127 128 129 131 132 133 0
-9839 179 0
-179 9839 0
9839 176 177 178 180 181 182 0
-9840 228 0
-228 9840 0
9840 225 226 227 229 230 231 0
-9841 277 0
-277 9841 0
9841 274 275 276 278 279 280 0
-9842 326 0
-326 9842 0
9842 323 324 325 327 328 329 0
-9836 9843 0
-9837 9844 0
-9843 9844 0
-9837 -9843 0
-9838 9845 0
-9844 9845 0
-9838 -9844 0
-9839 9846 0
-9845 9846 0
-9839 -9845 0
-9840 9847 0
-9846 9847 0
-9840 -9846 0
-9841 9848 0
-9847 9848 0
-9841 -9847 0
-9842 -9848 0
-9850 32 33 0
-32 9850 0
-33 9850 0
9850 29 30 31 34 35 0
-9851 81 82 0
-81 9851 0
-82 9851 0
9851 78 79 80 83 84 0
-9852 130 131 0
-130 9852 0
-131 9852 0
9852 127 128 129 132 133 0
-9853 179 180 0
-179 9853 0
-180 9853 0
9853 176 177 178 181 182 0
-9854 228 229 0
-228 9854 0
-229 9854 0
9854 225 226 227 230 231 0
-9855 277 278 0
-277 9855 0
-278 9855 0
9855 274 275 276 279 280 0
-9856 326 327 0
-326 9856 0
-327 9856 0
9856 323 324 325 328 329 0
-9850 9857 0
-9858 0
-9851 9859 0
-9857 9859 0
-9851 -9857 9860 0
-9858 9860 0
-9851 -9858 0
-9852 9861 0
-9859 9861 0
-9852 -9859 9862 0
-9860 9862 0
-9852 -9860 0
-9853 9863 0
-9861 9863 0
-9853 -9861 9864 0
-9862 9864 0
-9853 -9862 0
-9854 9865 0
-9863 9865 0
-9854 -9863 9866 0
-9864 9866 0
-9854 -9864 0
-9855 9867 0
-9865 9867 0
-9855 -9865 9868 0
-9866 9868 0
-9855 -9866 0
-9856 -9868 0
-9871 32 33 34 0
-32 9871 0
-33 9871 0
-34 9871 0
9871 29 30 31 35 0
-9872 81 82 83 0
-81 9872 0
-82 9872 0
-83 9872 0
9872 78 79 80 84 0
-9873 130 131 132 0
-130 9873 0
-131 9873 0
-132 9873 0
9873 127 128 129 133 0
-9874 179 180 181 0
-179 9874 0
-180 9874 0
-181 9874 0
9874 176 177 178 182 0
-9875 228 229 230 0
-228 9875 0
-229 9875 0
-230 9875 0
9875 225 226 227 231 0
-9876 277 278 279 0
-277 9876 0
-278 9876 0
-279 9876 0
9876 274 275 276 280 0
-9877 326 327 328 0
-326 9877 0
-327 9877 0
-328 9877 0
9877 323 324 325 329 0
-9871 9878 0
-9879 0
-9880 0
-9872 9881 0
-9878 9881 0
-9872 -9878 9882 0
-9879 9882 0
-9872 -9879 9883 0
-9880 9883 0
-9872 -9880 0
-9873 9884 0
-9881 9884 0
-9873 -9881 9885 0
-9882 9885 0
-9873 -9882 9886 0
-9883 9886 0
-9873 -9883 0
-9874 9887 0
-9884 9887 0
-9874 -9884 9888 0
-9885 9888 0
-9874 -9885 9889 0
-9886 9889 0
-9874 -9886 0
-9875 9890 0
-9887 9890 0
-9875 -9887 9891 0
-9888 9891 0
-9875 -9888 9892 0
-9889 9892 0
-9875 -9889 0
-9876 9893 0
-9890 9893 0
-9876 -9890 9894 0
-9891 9894 0
-9876 -9891 9895 0
-9892 9895 0
-9876 -9892 0
-9877 -9895 0
-9899 32 33 34 35 0
-32 9899 0
-33 9899 0
-34 9899 0
-35 9899 0
9899 29 30 31 0
-9900 81 82 83 84 0
-81 9900 0
-82 9900 0
-83 9900 0
-84 9900 0
9900 78 79 80 0
-9901 130 131 132 133 0
-130 9901 0
-131 9901 0
-132 9901 0
-133 9901 0
9901 127 128 129 0
-9902 179 180 181 182 0
-179 9902 0
-180 9902 0
-181 9902 0
-182 9902 0
9902 176 177 178 0
-9903 228 229 230 231 0
-228 9903 0
-229 9903 0
-230 9903 0
-231 9903 0
9903 225 226 227 0
-9904 277 278 279 280 0
-277 9904 0
-278 9904 0
-279 9904 0
-280 9904 0
9904 274 275 276 0
-9905 326 327 328 329 0
-326 9905 0
-327 9905 0
-328 9905 0
-329 9905 0
9905 323 324 325 0
-9899 9906 0
-9907 0
-9908 0
-9909 0
-9900 9910 0
-9906 9910 0
-9900 -9906 9911 0
-9907 9911 0
-9900 -9907 9912 0
-9908 9912 0
-9900 -9908 9913 0
-9909 9913 0
-9900 -9909 0
-9901 9914 0
-9910 9914 0
-9901 -9910 9915 0
-9911 9915 0
-9901 -9911 9916 0
-9912 9916 0
-9901 -9912 9917 0
-9913 9917 0
-9901 -9913 0
-9902 9918 0
-9914 9918 0
-9902 -9914 9919 0
-9915 9919 0
-9902 -9915 9920 0
-9916 9920 0
-9902 -9916 9921 0
-9917 9921 0
-9902 -9917 0
-9903 9922 0
-9918 9922 0
-9903 -9918 9923 0
-9919 9923 0
-9903 -9919 9924 0
-9920 9924 0
-9903 -9920 9925 0
-9921 9925 0
-9903 -9921 0
-9904 9926 0
-9922 9926 0
-9904 -9922 9927 0
-9923 9927 0
-9904 -9923 9928 0
-9924 9928 0
-9904 -9924 9929 0
-9925 9929 0
-9904 -9925 0
-9905 -9929 0
-9934 33 0
-33 9934 0
9934 29 30 31 32 34 35 0
-9935 82 0
-82 9935 0
9935 78 79 80 81 83 84 0
-9936 131 0
-131 9936 0
9936 127 128 129 130 132 133 0
-9937 180 0
-180 9937 0
9937 176 177 178 179 181 182 0
-9938 229 0
-229 9938 0
9938 225 226 227 228 230 231 0
-9939 278 0
-278 9939 0
9939 274 275 276 277 279 280 0
-9940 327 0
-327 9940 0
9940 323 324 325 326 328 329 0
-9934 9941 0
-9935 9942 0
-9941 9942 0
-9935 -9941 0
-9936 9943 0
-9942 9943 0
-9936 -9942 0
-9937 9944 0
-9943 9944 0
-9937 -9943 0
-9938 9945 0
-9944 9945 0
-9938 -9944 0
-9939 9946 0
-9945 9946 0
-9939 -9945 0
-9940 -9946 0
-9948 33 34 0
-33 9948 0
-34 9948 0
9948 29 30 31 32 35 0
-9949 82 83 0
-82 9949 0
-83 9949 0
9949 78 79 80 81 84 0
-9950 131 132 0
-131 9950 0
-132 9950 0
9950 127 128 129 130 133 0
-9951 180 181 0
-180 9951 0
-181 9951 0
9951 176 177 178 179 182 0
-9952 229 230 0
-229 9952 0
-230 9952 0
9952 225 226 227 228 231 0
-9953 278 279 0
-278 9953 0
-279 9953 0
9953 274 275 276 277 280 0
-9954 327 328 0
-327 9954 0
-328 9954 0
9954 323 324 325 326 329 0
-9948 9955 0
-9956 0
-9949 9957 0
-9955 9957 0
-9949 -9955 9958 0
-9956 9958 0
-9949 -9956 0
-9950 9959 0
-9957 9959 0
-9950 -9957 9960 0
-9958 9960 0
-9950 -9958 0
-9951 9961 0
-9959 9961 0
-9951 -9959 9962 0
-9960 9962 0
-9951 -9960 0
-9952 9963 0
-9961 9963 0
-9952 -9961 9964 0
-9962 9964 0
-9952 -9962 0
-9953 9965 0
-9963 9965 0
-9953 -9963 9966 0
-9964 9966 0
-9953 -9964 0
-9954 -9966 0
-9969 33 34 35 0
-33 9969 0
-34 9969 0
-35 9969 0
9969 29 30 31 32 0
-9970 82 83 84 0
-82 9970 0
-83 9970 0
-84 9970 0
9970 78 79 80 81 0
-9971 131 132 133 0
-131 9971 0
-132 9971 0
-133 9971 0
9971 127 128 129 130 0
-9972 180 181 182 0
-180 9972 0
-181 9972 0
-182 9972 0
9972 176 177 178 179 0
-9973 229 230 231 0
-229 9973 0
-230 9973 0
-231 9973 0
9973 225 226 227 228 0
-9974 278 279 280 0
-278 9974 0
-279 9974 0
-280 9974 0
9974 274 275 276 277 0
-9975 327 328 329 0
-327 9975 0
-328 9975 0
-329 9975 0
9975 323 324 325 326 0
-9969 9976 0
-9977 0
-9978 0
-9970 9979 0
-9976 9979 0
-9970 -9976 9980 0
-9977 9980 0
-9970 -9977 9981 0
-9978 9981 0
-9970 -9978 0
-9971 9982 0
-9979 9982 0
-9971 -9979 9983 0
-9980 9983 0
-9971 -9980 9984 0
-9981 9984 0
-9971 -9981 0
-9972 9985 0
-9982 9985 0
-9972 -9982 9986 0
-9983 9986 0
-9972 -9983 9987 0
-9984 9987 0
-9972 -9984 0
-9973 9988 0
-9985 9988 0
-9973 -9985 9989 0
-9986 9989 0
-9973 -9986 9990 0
-9987 9990 0
-9973 -9987 0
-9974 9991 0
-9988 9991 0
-9974 -9988 9992 0
-9989 9992 0
-9974 -9989 9993 0
-9990 9993 0
-9974 -9990 0
-9975 -9993 0
-9997 34 0
-34 9997 0
9997 29 30 31 32 33 35 0
-9998 83 0
-83 9998 0
9998 78 79 80 81 82 84 0
-9999 132 0
-132 9999 0
9999 127 128 129 130 131 133 0
-10000 181 0
-181 10000 0
10000 176 177 178 179 180 182 0
-10001 230 0
-230 10001 0
10001 225 226 227 228 229 231 0
-10002 279 0
-279 10002 0
10002 274 275 276 277 278 280 0
-10003 328 0
-328 10003 0
10003 323 324 325 326 327 329 0
-9997 10004 0
-9998 10005 0
-10004 10005 0
-9998 -10004 0
-9999 10006 0
-10005 10006 0
-9999 -10005 0
-10000 10007 0
-10006 10007 0
-10000 -10006 0
-10001 10008 0
-10007 10008 0
-10001 -10007 0
-10002 10009 0
-10008 10009 0
-10002 -10008 0
-10003 -10009 0
-10011 34 35 0
-34 10011 0
-35 10011 0
10011 29 30 31 32 33 0
-10012 83 84 0
-83 10012 0
-84 10012 0
10012 78 79 80 81 82 0
-10013 132 133 0
-132 10013 0
-133 10013 0
10013 127 128 129 130 131 0
-10014 181 182 0
-181 10014 0
-182 10014 0
10014 176 177 178 179 180 0
-10015 230 231 0
-230 10015 0
-231 10015 0
10015 225 226 227 228 229 0
-10016 279 280 0
-279 10016 0
-280 10016 0
10016 274 275 276 277 278 0
-10017 328 329 0
-328 10017 0
-329 10017 0
10017 323 324 325 326 327 0
-10011 10018 0
-10019 0
-10012 10020 0
-10018 10020 0
-10012 -10018 10021 0
-10019 10021 0
-10012 -10019 0
-10013 10022 0
-10020 10022 0
-10013 -10020 10023 0
-10021 10023 0
-10013 -10021 0
-10014 10024 0
-10022 10024 0
-10014 -10022 10025 0
-10023 10025 0
-10014 -10023 0
-10015 10026 0
-10024 10026 0
-10015 -10024 10027 0
-10025 10027 0
-10015 -10025 0
-10016 10028 0
-10026 10028 0
-10016 -10026 10029 0
-10027 10029 0
-10016 -10027 0
-10017 -10029 0
-10032 35 0
-35 10032 0
10032 29 30 31 32 33 34 0
-10033 84 0
-84 10033 0
10033 78 79 80 81 82 83 0
-10034 133 0
-133 10034 0
10034 127 128 129 130 131 132 0
-10035 182 0
-182 10035 0
10035 176 177 178 179 180 181 0
-10036 231 0
-231 10036 0
10036 225 226 227 228 229 230 0
-10037 280 0
-280 10037 0
10037 274 275 276 277 278 279 0
-10038 329 0
-329 10038 0
10038 323 324 325 326 327 328 0
-10032 10039 0
-10033 10040 0
-10039 10040 0
-10033 -10039 0
-10034 10041 0
-10040 10041 0
-10034 -10040 0
-10035 10042 0
-10041 10042 0
-10035 -10041 0
-10036 10043 0
-10042 10043 0
-10036 -10042 0
-10037 10044 0
-10043 10044 0
-10037 -10043 0
-10038 -10044 0
-29 10046 0
-78 10047 0
-10046 10047 0
-78 -10046 0
-127 10048 0
-10047 10048 0
-127 -10047 0
-176 10049 0
-10048 10049 0
-176 -10048 0
-225 10050 0
-10049 10050 0
-225 -10049 0
-274 10051 0
-10050 10051 0
-274 -10050 0
-323 -10051 0
29 78 127 176 225 274 323 0
-30 10053 0
-79 10054 0
-10053 10054 0
-79 -10053 0
-128 10055 0
-10054 10055 0
-128 -10054 0
-177 10056 0
-10055 10056 0
-177 -10055 0
-226 10057 0
-10056 10057 0
-226 -10056 0
-275 10058 0
-10057 10058 0
-275 -10057 0
-324 -10058 0
30 79 128 177 226 275 324 0
-31 10060 0
-80 10061 0
-10060 10061 0
-80 -10060 0
-129 10062 0
-10061 10062 0
-129 -10061 0
-178 10063 0
-10062 10063 0
-178 -10062 0
-227 10064 0
-10063 10064 0
-227 -10063 0
-276 10065 0
-10064 10065 0
-276 -10064 0
-325 -10065 0
31 80 129 178 227 276 325 0
-32 10067 0
-81 10068 0
-10067 10068 0
-81 -10067 0
-130 10069 0
-10068 10069 0
-130 -10068 0
-179 10070 0
-10069 10070 0
-179 -10069 0
-228 10071 0
-10070 10071 0
-228 -10070 0
-277 10072 0
-10071 10072 0
-277 -10071 0
-326 -10072 0
32 81 130 179 228 277 326 0
-33 10074 0
-82 10075 0
-10074 10075 0
-82 -10074 0
-131 10076 0
-10075 10076 0
-131 -10075 0
-180 10077 0
-10076 10077 0
-180 -10076 0
-229 10078 0
-10077 10078 0
-229 -10077 0
-278 10079 0
-10078 10079 0
-278 -10078 0
-327 -10079 0
33 82 131 180 229 278 327 0
-34 10081 0
-83 10082 0
-10081 10082 0
-83 -10081 0
-132 10083 0
-10082 10083 0
-132 -10082 0
-181 10084 0
-10083 10084 0
-181 -10083 0
-230 10085 0
-10084 10085 0
-230 -10084 0
-279 10086 0
-10085 10086 0
-279 -10085 0
-328 -10086 0
34 83 132 181 230 279 328 0
-35 10088 0
-84 10089 0
-10088 10089 0
-84 -10088 0
-133 10090 0
-10089 10090 0
-133 -10089 0
-182 10091 0
-10090 10091 0
-182 -10090 0
-231 10092 0
-10091 10092 0
-231 -10091 0
-280 10093 0
-10092 10093 0
-280 -10092 0
-329 -10093 0
35 84 133 182 231 280 329 0
-10095 36 0
-36 10095 0
10095 37 38 39 40 41 42 0
-10096 85 0
-85 10096 0
10096 86 87 88 89 90 91 0
-10097 134 0
-134 10097 0
10097 135 136 137 138 139 140 0
-10098 183 0
-183 10098 0
10098 184 185 186 187 188 189 0
-10099 232 0
-232 10099 0
10099 233 234 235 236 237 238 0
-10100 281 0
-281 10100 0
10100 282 283 284 285 286 287 0
-10101 330 0
-330 10101 0
10101 331 332 333 334 335 336 0
-10095 10102 0
-10096 10103 0
-10102 10103 0
-10096 -10102 0
-10097 10104 0
-10103 10104 0
-10097 -10103 0
-10098 10105 0
-10104 10105 0
-10098 -10104 0
-10099 10106 0
-10105 10106 0
-10099 -10105 0
-10100 10107 0
-10106 10107 0
-10100 -10106 0
-10101 -10107 0
-10109 36 37 0
-36 10109 0
-37 10109 0
10109 38 39 40 41 42 0
-10110 85 86 0
-85 10110 0
-86 10110 0
10110 87 88 89 90 91 0
-10111 134 135 0
-134 10111 0
-135 10111 0
10111 136 137 138 139 140 0
-10112 183 184 0
-183 10112 0
-184 10112 0
10112 185 186 187 188 189 0
-10113 232 233 0
-232 10113 0
-233 10113 0
10113 234 235 236 237 238 0
-10114 281 282 0
-281 10114 0
-282 10114 0
10114 283 284 285 286 287 0
-10115 330 331 0
-330 10115 0
-331 10115 0
10115 332 333 334 335 336 0
-10109 10116 0
-10117 0
-10110 10118 0
-10116 10118 0
-10110 -10116 10119 0
-10117 10119 0
-10110 -10117 0
-10111 10120 0
-10118 10120 0
-10111 -10118 10121 0
-10119 10121 0
-10111 -10119 0
-10112 10122 0
-10120 10122 0
-10112 -10120 10123 0
-10121 10123 0
-10112 -10121 0
-10113 10124 0
-10122 10124 0
-10113 -10122 10125 0
-10123 10125 0
-10113 -10123 0
-10114 10126 0
-10124 10126 0
-10114 -10124 10127 0
-10125 10127 0
-10114 -10125 0
-10115 -10127 0
-10130 36 37 38 0
-36 10130 0
-37 10130 0
-38 10130 0
10130 39 40 41 42 0
-10131 85 86 87 0
-85 10131 0
-86 10131 0
-87 10131 0
10131 88 89 90 91 0
-10132 134 135 136 0
-134 10132 0
-135 10132 0
-136 10132 0
10132 137 138 139 140 0
-10133 183 184 185 0
-183 10133 0
-184 10133 0
-185 10133 0
10133 186 187 188 189 0
-10134 232 233 234 0
-232 10134 0
-233 10134 0
-234 10134 0
10134 235 236 237 238 0
-10135 281 282 283 0
-281 10135 0
-282 10135 0
-283 10135 0
10135 284 285 286 287 0
-10136 330 331 332 0
-330 10136 0
-331 10136 0
-332 10136 0
10136 333 334 335 336 0
-10130 10137 0
-10138 0
-10139 0
-10131 10140 0
-10137 10140 0
-10131 -10137 10141 0
-10138 10141 0
-10131 -10138 10142 0
-10139 10142 0
-10131 -10139 0
-10132 10143 0
-10140 10143 0
-10132 -10140 10144 0
-10141 10144 0
-10132 -10141 10145 0
-10142 10145 0
-10132 -10142 0
-10133 10146 0
-10143 10146 0
-10133 -10143 10147 0
-10144 10147 0
-10133 -10144 10148 0
-10145 10148 0
-10133 -10145 0
-10134 10149 0
-10146 10149 0
-10134 -10146 10150 0
-10147 10150 0
-10134 -10147 10151 0
-10148 10151 0
-10134 -10148 0
-10135 10152 0
-10149 10152 0
-10135 -10149 10153 0
-10150 10153 0
-10135 -10150 10154 0
-10151 10154 0
-10135 -10151 0
-10136 -10154 0
-10158 36 37 38 39 0
-36 10158 0
-37 10158 0
-38 10158 0
-39 10158 0
10158 40 41 42 0
-10159 85 86 87 88 0
-85 10159 0
-86 10159 0
-87 10159 0
-88 10159 0
10159 89 90 91 0
-10160 134 135 136 137 0
-134 10160 0
-135 10160 0
-136 10160 0
-137 10160 0
10160 138 139 140 0
-10161 183 184 185 186 0
-183 10161 0
-184 10161 0
-185 10161 0
-186 10161 0
10161 187 188 189 0
-10162 232 233 234 235 0
-232 10162 0
-233 10162 0
-234 10162 0
-235 10162 0
10162 236 237 238 0
-10163 281 282 283 284 0
-281 10163 0
-282 10163 0
-283 10163 0
-284 10163 0
10163 285 286 287 0
-10164 330 331 332 333 0
-330 10164 0
-331 10164 0
-332 10164 0
-333 10164 0
10164 334 335 336 0
-10158 10165 0
-10166 0
-10167 0
-10168 0
-10159 10169 0
-10165 10169 0
-10159 -10165 10170 0
-10166 10170 0
-10159 -10166 10171 0
-10167 10171 0
-10159 -10167 10172 0
-10168 10172 0
-10159 -10168 0
-10160 10173 0
-10169 10173 0
-10160 -10169 10174 0
-10170 10174 0
-10160 -10170 10175 0
-10171 10175 0
-10160 -10171 10176 0
-10172 10176 0
-10160 -10172 0
-10161 10177 0
-10173 10177 0
-10161 -10173 10178 0
-10174 10178 0
-10161 -10174 10179 0
-10175 10179 0
-10161 -10175 10180 0
-10176 10180 0
-10161 -10176 0
-10162 10181 0
-10177 10181 0
-10162 -10177 10182 0
-10178 10182 0
-10162 -10178 10183 0
-10179 10183 0
-10162 -10179 10184 0
-10180 10184 0
-10162 -10180 0
-10163 10185 0
-10181 10185 0
-10163 -10181 10186 0
-10182 10186 0
-10163 -10182 10187 0
-10183 10187 0
-10163 -10183 10188 0
-10184 10188 0
-10163 -10184 0
-10164 -10188 0
-10193 36 37 38 39 40 0
-36 10193 0
-37 10193 0
-38 10193 0
-39 10193 0
-40 10193 0
10193 41 42 0
-10194 85 86 87 88 89 0
-85 10194 0
-86 10194 0
-87 10194 0
-88 10194 0
-89 10194 0
10194 90 91 0
-10195 134 135 136 137 138 0
-134 10195 0
-135 10195 0
-136 10195 0
-137 10195 0
-138 10195 0
10195 139 140 0
-10196 183 184 185 186 187 0
-183 10196 0
-184 10196 0
-185 10196 0
-186 10196 0
-187 10196 0
10196 188 189 0
-10197 232 233 234 235 236 0
-232 10197 0
-233 10197 0
-234 10197 0
-235 10197 0
-236 10197 0
10197 237 238 0
-10198 281 282 283 284 285 0
-281 10198 0
-282 10198 0
-283 10198 0
-284 10198 0
-285 10198 0
10198 286 287 0
-10199 330 331 332 333 334 0
-330 10199 0
-331 10199 0
-332 10199 0
-333 10199 0
-334 10199 0
10199 335 336 0
-10193 10200 0
-10201 0
-10202 0
-10203 0
-10204 0
-10194 10205 0
-10200 10205 0
-10194 -10200 10206 0
-10201 10206 0
-10194 -10201 10207 0
-10202 10207 0
-10194 -10202 10208 0
-10203 10208 0
-10194 -10203 10209 0
-10204 10209 0
-10194 -10204 0
-10195 10210 0
-10205 10210 0
-10195 -10205 10211 0
-10206 10211 0
-10195 -10206 10212 0
-10207 10212 0
-10195 -10207 10213 0
-10208 10213 0
-10195 -10208 10214 0
-10209 10214 0
-10195 -10209 0
-10196 10215 0
-10210 10215 0
-10196 -10210 10216 0
-10211 10216 0
-10196 -10211 10217 0
-10212 10217 0
-10196 -10212 10218 0
-10213 10218 0
-10196 -10213 10219 0
-10214 10219 0
-10196 -10214 0
-10197 10220 0
-10215 10220 0
-10197 -10215 10221 0
-10216 10221 0
-10197 -10216 10222 0
-10217 10222 0
-10197 -10217 10223 0
-10218 10223 0
-10197 -10218 10224 0
-10219 10224 0
-10197 -10219 0
-10198 10225 0
-10220 10225 0
-10198 -10220 10226 0
-10221 10226 0
-10198 -10221 10227 0
-10222 10227 0
-10198 -10222 10228 0
-10223 10228 0
-10198 -10223 10229 0
-10224 10229 0
-10198 -10224 0
-10199 -10229 0
-10235 36 37 38 39 40 41 0
-36 10235 0
-37 10235 0
-38 10235 0
-39 10235 0
-40 10235 0
-41 10235 0
10235 42 0
-10236 85 86 87 88 89 90 0
-85 10236 0
-86 10236 0
-87 10236 0
-88 10236 0
-89 10236 0
-90 10236 0
10236 91 0
-10237 134 135 136 137 138 139 0
-134 10237 0
-135 10237 0
-136 10237 0
-137 10237 0
-138 10237 0
-139 10237 0
10237 140 0
-10238 183 184 185 186 187 188 0
-183 10238 0
-184 10238 0
-185 10238 0
-186 10238 0
-187 10238 0
-188 10238 0
10238 189 0
-10239 232 233 234 235 236 237 0
-232 10239 0
-233 10239 0
-234 10239 0
-235 10239 0
-236 10239 0
-237 10239 0
10239 238 0
-10240 281 282 283 284 285 286 0
-281 10240 0
-282 10240 0
-283 10240 0
-284 10240 0
-285 10240 0
-286 10240 0
10240 287 0
-10241 330 331 332 333 334 335 0
-330 10241 0
-331 10241 0
-332 10241 0
-333 10241 0
-334 10241 0
-335 10241 0
10241 336 0
-10235 10242 0
-10243 0
-10244 0
-10245 0
-10246 0
-10247 0
-10236 10248 0
-10242 10248 0
-10236 -10242 10249 0
-10243 10249 0
-10236 -10243 10250 0
-10244 10250 0
-10236 -10244 10251 0
-10245 10251 0
-10236 -10245 10252 0
-10246 10252 0
-10236 -10246 10253 0
-10247 10253 0
-10236 -10247 0
-10237 10254 0
-10248 10254 0
-10237 -10248 10255 0
-10249 10255 0
-10237 -10249 10256 0
-10250 10256 0
-10237 -10250 10257 0
-10251 10257 0
-10237 -10251 10258 0
-10252 10258 0
-10237 -10252 10259 0
-10253 10259 0
-10237 -10253 0
-10238 10260 0
-10254 10260 0
-10238 -10254 10261 0
-10255 10261 0
-10238 -10255 10262 0
-10256 10262 0
-10238 -10256 10263 0
-10257 10263 0
-10238 -10257 10264 0
-10258 10264 0
-10238 -10258 10265 0
-10259 10265 0
-10238 -10259 0
-10239 10266 0
-10260 10266 0
-10239 -10260 10267 0
-10261 10267 0
-10239 -10261 10268 0
-10262 10268 0
-10239 -10262 10269 0
-10263 10269 0
-10239 -10263 10270 0
-10264 10270 0
-10239 -10264 10271 0
-10265 10271 0
-10239 -10265 0
-10240 10272 0
-10266 10272 0
-10240 -10266 10273 0
-10267 10273 0
-10240 -10267 10274 0
-10268 10274 0
-10240 -10268 10275 0
-10269 10275 0
-10240 -10269 10276 0
-10270 10276 0
-10240 -10270 10277 0
-10271 10277 0
-10240 -10271 0
-10241 -10277 0
-10284 36 37 38 39 40 41 42 0
-36 10284 0
-37 10284 0
-38 10284 0
-39 10284 0
-40 10284 0
-41 10284 0
-42 10284 0
10284 0
-10285 85 86 87 88 89 90 91 0
-85 10285 0
-86 10285 0
-87 10285 0
-88 10285 0
-89 10285 0
-90 10285 0
-91 10285 0
10285 0
-10286 134 135 136 137 138 139 140 0
-134 10286 0
-135 10286 0
-136 10286 0
-137 10286 0
-138 10286 0
-139 10286 0
-140 10286 0
10286 0
-10287 183 184 185 186 187 188 189 0
-183 10287 0
-184 10287 0
-185 10287 0
-186 10287 0
-187 10287 0
-188 10287 0
-189 10287 0
10287 0
-10288 232 233 234 235 236 237 238 0
-232 10288 0
-233 10288 0
-234 10288 0
-235 10288 0
-236 10288 0
-237 10288 0
-238 10288 0
10288 0
-10289 281 282 283 284 285 286 287 0
-281 10289 0
-282 10289 0
-283 10289 0
-284 10289 0
-285 10289 0
-286 10289 0
-287 10289 0
10289 0
-10290 330 331 332 333 334 335 336 0
-330 10290 0
-331 10290 0
-332 10290 0
-333 10290 0
-334 10290 0
-335 10290 0
-336 10290 0
10290 0
-10291 37 0
-37 10291 0
10291 36 38 39 40 41 42 0
-10292 86 0
-86 10292 0
10292 85 87 88 89 90 91 0
-10293 135 0
-135 10293 0
10293 134 136 137 138 139 140 0
-10294 184 0
-184 10294 0
10294 183 185 186 187 188 189 0
-10295 233 0
-233 10295 0
10295 232 234 235 236 237 238 0
-10296 282 0
-282 10296 0
10296 281 283 284 285 286 287 0
-10297 331 0
-331 10297 0
10297 330 332 333 334 335 336 0
-10291 10298 0
-10292 10299 0
-10298 10299 0
-10292 -10298 0
-10293 10300 0
-10299 10300 0
-10293 -10299 0
-10294 10301 0
-10300 10301 0
-10294 -10300 0
-10295 10302 0
-10301 10302 0
-10295 -10301 0
-10296 10303 0
-10302 10303 0
-10296 -10302 0
-10297 -10303 0
-10305 37 38 0
-37 10305 0
-38 10305 0
10305 36 39 40 41 42 0
-10306 86 87 0
-86 10306 0
-87 10306 0
10306 85 88 89 90 91 0
-10307 135 136 0
-135 10307 0
-136 10307 0
10307 134 137 138 139 140 0
-10308 184 185 0
-184 10308 0
-185 10308 0
10308 183 186 187 188 189 0
-10309 233 234 0
-233 10309 0
-234 10309 0
10309 232 235 236 237 238 0
-10310 282 283 0
-282 10310 0
-283 10310 0
10310 281 284 285 286 287 0
-10311 331 332 0
-331 10311 0
-332 10311 0
10311 330 333 334 335 336 0
-10305 10312 0
-10313 0
-10306 10314 0
-10312 10314 0
-10306 -10312 10315 0
-10313 10315 0
-10306 -10313 0
-10307 10316 0
-10314 10316 0
-10307 -10314 10317 0
-10315 10317 0
-10307 -10315 0
-10308 10318 0
-10316 10318 0
-10308 -10316 10319 0
-10317 10319 0
-10308 -10317 0
-10309 10320 0
-10318 10320 0
-10309 -10318 10321 0
-10319 10321 0
-10309 -10319 0
-10310 10322 0
-10320 10322 0
-10310 -10320 10323 0
-10321 10323 0
-10310 -10321 0
-10311 -10323 0
-10326 37 38 39 0
-37 10326 0
-38 10326 0
-39 10326 0
10326 36 40 41 42 0
-10327 86 87 88 0
-86 10327 0
-87 10327 0
-88 10327 0
10327 85 89 90 91 0
-10328 135 136 137 0
-135 10328 0
-136 10328 0
-137 10328 0
10328 134 138 139 140 0
-10329 184 185 186 0
-184 10329 0
-185 10329 0
-186 10329 0
10329 183 187 188 189 0
-10330 233 234 235 0
-233 10330 0
-234 10330 0
-235 10330 0
10330 232 236 237 238 0
-10331 282 283 284 0
-282 10331 0
-283 10331 0
-284 10331 0
10331 281 285 286 287 0
-10332 331 332 333 0
-331 10332 0
-332 10332 0
-333 10332 0
10332 330 334 335 336 0
-10326 10333 0
-10334 0
-10335 0
-10327 10336 0
-10333 10336 0
-10327 -10333 10337 0
-10334 10337 0
-10327 -10334 10338 0
-10335 10338 0
-10327 -10335 0
-10328 10339 0
-10336 10339 0
-10328 -10336 10340 0
-10337 10340 0
-10328 -10337 10341 0
-10338 10341 0
-10328 -10338 0
-10329 10342 0
-10339 10342 0
-10329 -10339 10343 0
-10340 10343 0
-10329 -10340 10344 0
-10341 10344 0
-10329 -10341 0
-10330 10345 0
-10342 10345 0
-10330 -10342 10346 0
-10343 10346 0
-10330 -10343 10347 0
-10344 10347 0
-10330 -10344 0
-10331 10348 0
-10345 10348 0
-10331 -10345 10349 0
-10346 10349 0
-10331 -10346 10350 0
-10347 10350 0
-10331 -10347 0
-10332 -10350 0
-10354 37 38 39 40 0
-37 10354 0
-38 10354 0
-39 10354 0
-40 10354 0
10354 36 41 42 0
-10355 86 87 88 89 0
-86 10355 0
-87 10355 0
-88 10355 0
-89 10355 0
10355 85 90 91 0
-10356 135 136 137 138 0
-135 10356 0
-136 10356 0
-137 10356 0
-138 10356 0
10356 134 139 140 0
-10357 184 185 186 187 0
-184 10357 0
-185 10357 0
-186 10357 0
-187 10357 0
10357 183 188 189 0
-10358 233 234 235 236 0
-233 10358 0
-234 10358 0
-235 10358 0
-236 10358 0
10358 232 237 238 0
-10359 282 283 284 285 0
-282 10359 0
-283 10359 0
-284 10359 0
-285 10359 0
10359 281 286 287 0
-10360 331 332 333 334 0
-331 10360 0
-332 10360 0
-333 10360 0
-334 10360 0
10360 330 335 336 0
-10354 10361 0
-10362 0
-10363 0
-10364 0
-10355 10365 0
-10361 10365 0
-10355 -10361 10366 0
-10362 10366 0
-10355 -10362 10367 0
-10363 10367 0
-10355 -10363 10368 0
-10364 10368 0
-10355 -10364 0
-10356 10369 0
-10365 10369 0
-10356 -10365 10370 0
-10366 10370 0
-10356 -10366 10371 0
-10367 10371 0
-10356 -10367 10372 0
-10368 10372 0
-10356 -10368 0
-10357 10373 0
-10369 10373 0
-10357 -10369 10374 0
-10370 10374 0
-10357 -10370 10375 0
-10371 10375 0
-10357 -10371 10376 0
-10372 10376 0
-10357 -10372 0
-10358 10377 0
-10373 10377 0
-10358 -10373 10378 0
-10374 10378 0
-10358 -10374 10379 0
-10375 10379 0
-10358 -10375 10380 0
-10376 10380 0
-10358 -10376 0
-10359 10381 0
-10377 10381 0
-10359 -10377 10382 0
-10378 10382 0
-10359 -10378 10383 0
-10379 10383 0
-10359 -10379 10384 0
-10380 10384 0
-10359 -10380 0
-10360 -10384 0
-10389 37 38 39 40 41 0
-37 10389 0
-38 10389 0
-39 10389 0
-40 10389 0
-41 10389 0
10389 36 42 0
-10390 86 87 88 89 90 0
-86 10390 0
-87 10390 0
-88 10390 0
-89 10390 0
-90 10390 0
10390 85 91 0
-10391 135 136 137 138 139 0
-135 10391 0
-136 10391 0
-137 10391 0
-138 10391 0
-139 10391 0
10391 134 140 0
-10392 184 185 186 187 188 0
-184 10392 0
-185 10392 0
-186 10392 0
-187 10392 0
-188 10392 0
10392 183 189 0
-10393 233 234 235 236 237 0
-233 10393 0
-234 10393 0
-235 10393 0
-236 10393 0
-237 10393 0
10393 232 238 0
-10394 282 283 284 285 286 0
-282 10394 0
-283 10394 0
-284 10394 0
-285 10394 0
-286 10394 0
10394 281 287 0
-10395 331 332 333 334 335 0
-331 10395 0
-332 10395 0
-333 10395 0
-334 10395 0
-335 10395 0
10395 330 336 0
-10389 10396 0
-10397 0
-10398 0
-10399 0
-10400 0
-10390 10401 0
-10396 10401 0
-10390 -10396 10402 0
-10397 10402 0
-10390 -10397 10403 0
-10398 10403 0
-10390 -10398 10404 0
-10399 10404 0
-10390 -10399 10405 0
-10400 10405 0
-10390 -10400 0
-10391 10406 0
-10401 10406 0
-10391 -10401 10407 0
-10402 10407 0
-10391 -10402 10408 0
-10403 10408 0
-10391 -10403 10409 0
-10404 10409 0
-10391 -10404 10410 0
-10405 10410 0
-10391 -10405 0
-10392 10411 0
-10406 10411 0
-10392 -10406 10412 0
-10407 10412 0
-10392 -10407 10413 0
-10408 10413 0
-10392 -10408 10414 0
-10409 10414 0
-10392 -10409 10415 0
-10410 10415 0
-10392 -10410 0
-10393 10416 0
-10411 10416 0
-10393 -10411 10417 0
-10412 10417 0
-10393 -10412 10418 0
-10413 10418 0
-10393 -10413 10419 0
-10414 10419 0
-10393 -10414 10420 0
-10415 10420 0
-10393 -10415 0
-10394 10421 0
-10416 10421 0
-10394 -10416 10422 0
-10417 10422 0
-10394 -10417 10423 0
-10418 10423 0
-10394 -10418 10424 0
-10419 10424 0
-10394 -10419 10425 0
-10420 10425 0
-10394 -10420 0
-10395 -10425 0
-10431 37 38 39 40 41 42 0
-37 10431 0
-38 10431 0
-39 10431 0
-40 10431 0
-41 10431 0
-42 10431 0
10431 36 0
-10432 86 87 88 89 90 91 0
-86 10432 0
-87 10432 0
-88 10432 0
-89 10432 0
-90 10432 0
-91 10432 0
10432 85 0
-10433 135 136 137 138 139 140 0
-135 10433 0
-136 10433 0
-137 10433 0
-138 10433 0
-139 10433 0
-140 10433 0
10433 134 0
-10434 184 185 186 187 188 189 0
-184 10434 0
-185 10434 0
-186 10434 0
-187 10434 0
-188 10434 0
-189 10434 0
10434 183 0
-10435 233 234 235 236 237 238 0
-233 10435 0
-234 10435 0
-235 10435 0
-236 10435 0
-237 10435 0
-238 10435 0
10435 232 0
-10436 282 283 284 285 286 287 0
-282 10436 0
-283 10436 0
-284 10436 0
-285 10436 0
-286 10436 0
-287 10436 0
10436 281 0
-10437 331 332 333 334 335 336 0
-331 10437 0
-332 10437 0
-333 10437 0
-334 10437 0
-335 10437 0
-336 10437 0
10437 330 0
-10431 10438 0
-10439 0
-10440 0
-10441 0
-10442 0
-10443 0
-10432 10444 0
-10438 10444 0
-10432 -10438 10445 0
-10439 10445 0
-10432 -10439 10446 0
-10440 10446 0
-10432 -10440 10447 0
-10441 10447 0
-10432 -10441 10448 0
-10442 10448 0
-10432 -10442 10449 0
-10443 10449 0
-10432 -10443 0
-10433 10450 0
-10444 10450 0
-10433 -10444 10451 0
-10445 10451 0
-10433 -10445 10452 0
-10446 10452 0
-10433 -10446 10453 0
-10447 10453 0
-10433 -10447 10454 0
-10448 10454 0
-10433 -10448 10455 0
-10449 10455 0
-10433 -10449 0
-10434 10456 0
-10450 10456 0
-10434 -10450 10457 0
-10451 10457 0
-10434 -10451 10458 0
-10452 10458 0
-10434 -10452 10459 0
-10453 10459 0
-10434 -10453 10460 0
-10454 10460 0
-10434 -10454 10461 0
-10455 10461 0
-10434 -10455 0
-10435 10462 0
-10456 10462 0
-10435 -10456 10463 0
-10457 10463 0
-10435 -10457 10464 0
-10458 10464 0
-10435 -10458 10465 0
-10459 10465 0
-10435 -10459 10466 0
-10460 10466 0
-10435 -10460 10467 0
-10461 10467 0
-10435 -10461 0
-10436 10468 0
-10462 10468 0
-10436 -10462 10469 0
-10463 10469 0
-10436 -10463 10470 0
-10464 10470 0
-10436 -10464 10471 0
-10465 10471 0
-10436 -10465 10472 0
-10466 10472 0
-10436 -10466 10473 0
-10467 10473 0
-10436 -10467 0
-10437 -10473 0
-10480 38 0
-38 10480 0
10480 36 37 39 40 41 42 0
-10481 87 0
-87 10481 0
10481 85 86 88 89 90 91 0
-10482 136 0
-136 10482 0
10482 134 135 137 138 139 140 0
-10483 185 0
-185 10483 0
10483 183 184 186 187 188 189 0
-10484 234 0
-234 10484 0
10484 232 233 235 236 237 238 0
-10485 283 0
-283 10485 0
10485 281 282 284 285 286 287 0
-10486 332 0
-332 10486 0
10486 330 331 333 334 335 336 0
-10480 10487 0
-10481 10488 0
-10487 10488 0
-10481 -10487 0
-10482 10489 0
-10488 10489 0
-10482 -10488 0
-10483 10490 0
-10489 10490 0
-10483 -10489 0
-10484 10491 0
-10490 10491 0
-10484 -10490 0
-10485 10492 0
-10491 10492 0
-10485 -10491 0
-10486 -10492 0
-10494 38 39 0
-38 10494 0
-39 10494 0
10494 36 37 40 41 42 0
-10495 87 88 0
-87 10495 0
-88 10495 0
10495 85 86 89 90 91 0
-10496 136 137 0
-136 10496 0
-137 10496 0
10496 134 135 138 139 140 0
-10497 185 186 0
-185 10497 0
-186 10497 0
10497 183 184 187 188 189 0
-10498 234 235 0
-234 10498 0
-235 10498 0
10498 232 233 236 237 238 0
-10499 283 284 0
-283 10499 0
-284 10499 0
10499 281 282 285 286 287 0
-10500 332 333 0
-332 10500 0
-333 10500 0
10500 330 331 334 335 336 0
-10494 10501 0
-10502 0
-10495 10503 0
-10501 10503 0
-10495 -10501 10504 0
-10502 10504 0
-10495 -10502 0
-10496 10505 0
-10503 10505 0
-10496 -10503 10506 0
-10504 10506 0
-10496 -10504 0
-10497 10507 0
-10505 10507 0
-10497 -10505 10508 0
-10506 10508 0
-10497 -10506 0
-10498 10509 0
-10507 10509 0
-10498 -10507 10510 0
-10508 10510 0
-10498 -10508 0
-10499 10511 0
-10509 10511 0
-10499 -10509 10512 0
-10510 10512 0
-10499 -10510 0
-10500 -10512 0
-10515 38 39 40 0
-38 10515 0
-39 10515 0
-40 10515 0
10515 36 37 41 42 0
-10516 87 88 89 0
-87 10516 0
-88 10516 0
-89 10516 0
10516 85 86 90 91 0
-10517 136 137 138 0
-136 10517 0
-137 10517 0
-138 10517 0
10517 134 135 139 140 0
-10518 185 186 187 0
-185 10518 0
-186 10518 0
-187 10518 0
10518 183 184 188 189 0
-10519 234 235 236 0
-234 10519 0
-235 10519 0
-236 10519 0
10519 232 233 237 238 0
-10520 283 284 285 0
-283 10520 0
-284 10520 0
-285 10520 0
10520 281 282 286 287 0
-10521 332 333 334 0
-332 10521 0
-333 10521 0
-334 10521 0
10521 330 331 335 336 0
-10515 10522 0
-10523 0
-10524 0
-10516 10525 0
-10522 10525 0
-10516 -10522 10526 0
-10523 10526 0
-10516 -10523 10527 0
-10524 10527 0
-10516 -10524 0
-10517 10528 0
-10525 10528 0
-10517 -10525 10529 0
-10526 10529 0
-10517 -10526 10530 0
-10527 10530 0
-10517 -10527 0
-10518 10531 0
-10528 10531 0
-10518 -10528 10532 0
-10529 10532 0
-10518 -10529 10533 0
-10530 10533 0
-10518 -10530 0
-10519 10534 0
-10531 10534 0
-10519 -10531 10535 0
-10532 10535 0
-10519 -10532 10536 0
-10533 10536 0
-10519 -10533 0
-10520 10537 0
-10534 10537 0
-10520 -10534 10538 0
-10535 10538 0
-10520 -10535 10539 0
-10536 10539 0
-10520 -10536 0
-10521 -10539 0
-10543 38 39 40 41 0
-38 10543 0
-39 10543 0
-40 10543 0
-41 10543 0
10543 36 37 42 0
-10544 87 88 89 90 0
-87 10544 0
-88 10544 0
-89 10544 0
-90 10544 0
10544 85 86 91 0
-10545 136 137 138 139 0
-136 10545 0
-137 10545 0
-138 10545 0
-139 10545 0
10545 134 135 140 0
-10546 185 186 187 188 0
-185 10546 0
-186 10546 0
-187 10546 0
-188 10546 0
10546 183 184 189 0
-10547 234 235 236 237 0
-234 10547 0
-235 10547 0
-236 10547 0
-237 10547 0
10547 232 233 238 0
-10548 283 284 285 286 0
-283 10548 0
-284 10548 0
-285 10548 0
-286 10548 0
10548 281 282 287 0
-10549 332 333 334 335 0
-332 10549 0
-333 10549 0
-334 10549 0
-335 10549 0
10549 330 331 336 0
-10543 10550 0
-10551 0
-10552 0
-10553 0
-10544 10554 0
-10550 10554 0
-10544 -10550 10555 0
-10551 10555 0
-10544 -10551 10556 0
-10552 10556 0
-10544 -10552 10557 0
-10553 10557 0
-10544 -10553 0
-10545 10558 0
-10554 10558 0
-10545 -10554 10559 0
-10555 10559 0
-10545 -10555 10560 0
-10556 10560 0
-10545 -10556 10561 0
-10557 10561 0
-10545 -10557 0
-10546 10562 0
-10558 10562 0
-10546 -10558 10563 0
-10559 10563 0
-10546 -10559 10564 0
-10560 10564 0
-10546 -10560 10565 0
-10561 10565 0
-10546 -10561 0
-10547 10566 0
-10562 10566 0
-10547 -10562 10567 0
-10563 10567 0
-10547 -10563 10568 0
-10564 10568 0
-10547 -10564 10569 0
-10565 10569 0
-10547 -10565 0
-10548 10570 0
-10566 10570 0
-10548 -10566 10571 0
-10567 10571 0
-10548 -10567 10572 0
-10568 10572 0
-10548 -10568 10573 0
-10569 10573 0
-10548 -10569 0
-10549 -10573 0
-10578 38 39 40 41 42 0
-38 10578 0
-39 10578 0
-40 10578 0
-41 10578 0
-42 10578 0
10578 36 37 0
-10579 87 88 89 90 91 0
-87 10579 0
-88 10579 0
-89 10579 0
-90 10579 0
-91 10579 0
10579 85 86 0
-10580 136 137 138 139 140 0
-136 10580 0
-137 10580 0
-138 10580 0
-139 10580 0
-140 10580 0
10580 134 135 0
-10581 185 186 187 188 189 0
-185 10581 0
-186 10581 0
-187 10581 0
-188 10581 0
-189 10581 0
10581 183 184 0
-10582 234 235 236 237 238 0
-234 10582 0
-235 10582 0
-236 10582 0
-237 10582 0
-238 10582 0
10582 232 233 0
-10583 283 284 285 286 287 0
-283 10583 0
-284 10583 0
-285 10583 0
-286 10583 0
-287 10583 0
10583 281 282 0
-10584 332 333 334 335 336 0
-332 10584 0
-333 10584 0
-334 10584 0
-335 10584 0
-336 10584 0
10584 330 331 0
-10578 10585 0
-10586 0
-10587 0
-10588 0
-10589 0
-10579 10590 0
-10585 10590 0
-10579 -10585 10591 0
-10586 10591 0
-10579 -10586 10592 0
-10587 10592 0
-10579 -10587 10593 0
-10588 10593 0
-10579 -10588 10594 0
-10589 10594 0
-10579 -10589 0
-10580 10595 0
-10590 10595 0
-10580 -10590 10596 0
-10591 10596 0
-10580 -10591 10597 0
-10592 10597 0
-10580 -10592 10598 0
-10593 10598 0
-10580 -10593 10599 0
-10594 10599 0
-10580 -10594 0
-10581 10600 0
-10595 10600 0
-10581 -10595 10601 0
-10596 10601 0
-10581 -10596 10602 0
-10597 10602 0
-10581 -10597 10603 0
-10598 10603 0
-10581 -10598 10604 0
-10599 10604 0
-10581 -10599 0
-10582 10605 0
-10600 10605 0
-10582 -10600 10606 0
-10601 10606 0
-10582 -10601 10607 0
-10602 10607 0
-10582 -10602 10608 0
-10603 10608 0
-10582 -10603 10609 0
-10604 10609 0
-10582 -10604 0
-10583 10610 0
-10605 10610 0
-10583 -10605 10611 0
-10606 10611 0
-10583 -10606 10612 0
-10607 10612 0
-10583 -10607 10613 0
-10608 10613 0
-10583 -10608 10614 0
-10609 10614 0
-10583 -10609 0
-10584 -10614 0
-10620 39 0
-39 10620 0
10620 36 37 38 40 41 42 0
-10621 88 0
-88 10621 0
10621 85 86 87 89 90 91 0
-10622 137 0
-137 10622 0
10622 134 135 136 138 139 140 0
-10623 186 0
-186 10623 0
10623 183 184 185 187 188 189 0
-10624 235 0
-235 10624 0
10624 232 233 234 236 237 238 0
-10625 284 0
-284 10625 0
10625 281 282 283 285 286 287 0
-10626 333 0
-333 10626 0
10626 330 331 332 334 335 336 0
-10620 10627 0
-10621 10628 0
-10627 10628 0
-10621 -10627 0
-10622 10629 0
-10628 10629 0
-10622 -10628 0
-10623 10630 0
-10629 10630 0
-10623 -10629 0
-10624 10631 0
-10630 10631 0
-10624 -10630 0
-10625 10632 0
-10631 10632 0
-10625 -10631 0
-10626 -10632 0
-10634 39 40 0
-39 10634 0
-40 10634 0
10634 36 37 38 41 42 0
-10635 88 89 0
-88 10635 0
-89 10635 0
10635 85 86 87 90 91 0
-10636 137 138 0
-137 10636 0
-138 10636 0
10636 134 135 136 139 140 0
-10637 186 187 0
-186 10637 0
-187 10637 0
10637 183 184 185 188 189 0
-10638 235 236 0
-235 10638 0
-236 10638 0
10638 232 233 234 237 238 0
-10639 284 285 0
-284 10639 0
-285 10639 0
10639 281 282 283 286 287 0
-10640 333 334 0
-333 10640 0
-334 10640 0
10640 330 331 332 335 336 0
-10634 10641 0
-10642 0
-10635 10643 0
-10641 10643 0
-10635 -10641 10644 0
-10642 10644 0
-10635 -10642 0
-10636 10645 0
-10643 10645 0
-10636 -10643 10646 0
-10644 10646 0
-10636 -10644 0
-10637 10647 0
-10645 10647 0
-10637 -10645 10648 0
-10646 10648 0
-10637 -10646 0
-10638 10649 0
-10647 10649 0
-10638 -10647 10650 0
-10648 10650 0
-10638 -10648 0
-10639 10651 0
-10649 10651 0
-10639 -10649 10652 0
-10650 10652 0
-10639 -10650 0
-10640 -10652 0
-10655 39 40 41 0
-39 10655 0
-40 10655 0
-41 10655 0
10655 36 37 38 42 0
-10656 88 89 90 0
-88 10656 0
-89 10656 0
-90 10656 0
10656 85 86 87 91 0
-10657 137 138 139 0
-137 10657 0
-138 10657 0
-139 10657 0
10657 134 135 136 140 0
-10658 186 187 188 0
-186 10658 0
-187 10658 0
-188 10658 0
10658 183 184 185 189 0
-10659 235 236 237 0
-235 10659 0
-236 10659 0
-237 10659 0
10659 232 233 234 238 0
-10660 284 285 286 0
-284 10660 0
-285 10660 0
-286 10660 0
10660 281 282 283 287 0
-10661 333 334 335 0
-333 10661 0
-334 10661 0
-335 10661 0
10661 330 331 332 336 0
-10655 10662 0
-10663 0
-10664 0
-10656 10665 0
-10662 10665 0
-10656 -10662 10666 0
-10663 10666 0
-10656 -10663 10667 0
-10664 10667 0
-10656 -10664 0
-10657 10668 0
-10665 10668 0
-10657 -10665 10669 0
-10666 10669 0
-10657 -10666 10670 0
-10667 10670 0
-10657 -10667 0
-10658 10671 0
-10668 10671 0
-10658 -10668 10672 0
-10669 10672 0
-10658 -10669 10673 0
-10670 10673 0
-10658 -10670 0
-10659 10674 0
-10671 10674 0
-10659 -10671 10675 0
-10672 10675 0
-10659 -10672 10676 0
-10673 10676 0
-10659 -10673 0
-10660 10677 0
-10674 10677 0
-10660 -10674 10678 0
-10675 10678 0
-10660 -10675 10679 0
-10676 10679 0
-10660 -10676 0
-10661 -10679 0
-10683 39 40 41 42 0
-39 10683 0
-40 10683 0
-41 10683 0
-42 10683 0
10683 36 37 38 0
-10684 88 89 90 91 0
-88 10684 0
-89 10684 0
-90 10684 0
-91 10684 0
10684 85 86 87 0
-10685 137 138 139 140 0
-137 10685 0
-138 10685 0
-139 10685 0
-140 10685 0
10685 134 135 136 0
-10686 186 187 188 189 0
-186 10686 0
-187 10686 0
-188 10686 0
-189 10686 0
10686 183 184 185 0
-10687 235 236 237 238 0
-235 10687 0
-236 10687 0
-237 10687 0
-238 10687 0
10687 232 233 234 0
-10688 284 285 286 287 0
-284 10688 0
-285 10688 0
-286 10688 0
-287 10688 0
10688 281 282 283 0
-10689 333 334 335 336 0
-333 10689 0
-334 10689 0
-335 10689 0
-336 10689 0
10689 330 331 332 0
-10683 10690 0
-10691 0
-10692 0
-10693 0
-10684 10694 0
-10690 10694 0
-10684 -10690 10695 0
-10691 10695 0
-10684 -10691 10696 0
-10692 10696 0
-10684 -10692 10697 0
-10693 10697 0
-10684 -10693 0
-10685 10698 0
-10694 10698 0
-10685 -10694 10699 0
-10695 10699 0
-10685 -10695 10700 0
-10696 10700 0
-10685 -10696 10701 0
-10697 10701 0
-10685 -10697 0
-10686 10702 0
-10698 10702 0
-10686 -10698 10703 0
-10699 10703 0
-10686 -10699 10704 0
-10700 10704 0
-10686 -10700 10705 0
-10701 10705 0
-10686 -10701 0
-10687 10706 0
-10702 10706 0
-10687 -10702 10707 0
-10703 10707 0
-10687 -10703 10708 0
-10704 10708 0
-10687 -10704 10709 0
-10705 10709 0
-10687 -10705 0
-10688 10710 0
-10706 10710 0
-10688 -10706 10711 0
-10707 10711 0
-10688 -10707 10712 0
-10708 10712 0
-10688 -10708 10713 0
-10709 10713 0
-10688 -10709 0
-10689 -10713 0
-10718 40 0
-40 10718 0
10718 36 37 38 39 41 42 0
-10719 89 0
-89 10719 0
10719 85 86 87 88 90 91 0
-10720 138 0
-138 10720 0
10720 134 135 136 137 139 140 0
-10721 187 0
-187 10721 0
10721 183 184 185 186 188 189 0
-10722 236 0
-236 10722 0
10722 232 233 234 235 237 238 0
-10723 285 0
-285 10723 0
10723 281 282 283 284 286 287 0
-10724 334 0
-334 10724 0
10724 330 331 332 333 335 336 0
-10718 10725 0
-10719 10726 0
-10725 10726 0
-10719 -10725 0
-10720 10727 0
-10726 10727 0
-10720 -10726 0
-10721 10728 0
-10727 10728 0
-10721 -10727 0
-10722 10729 0
-10728 10729 0
-10722 -10728 0
-10723 10730 0
-10729 10730 0
-10723 -10729 0
-10724 -10730 0
-10732 40 41 0
-40 10732 0
-41 10732 0
10732 36 37 38 39 42 0
-10733 89 90 0
-89 10733 0
-90 10733 0
10733 85 86 87 88 91 0
-10734 138 139 0
-138 10734 0
-139 10734 0
10734 134 135 136 137 140 0
-10735 187 188 0
-187 10735 0
-188 10735 0
10735 183 184 185 186 189 0
-10736 236 237 0
-236 10736 0
-237 10736 0
10736 232 233 234 235 238 0
-10737 285 286 0
-285 10737 0
-286 10737 0
10737 281 282 283 284 287 0
-10738 334 335 0
-334 10738 0
-335 10738 0
10738 330 331 332 333 336 0
-10732 10739 0
-10740 0
-10733 10741 0
-10739 10741 0
-10733 -10739 10742 0
-10740 10742 0
-10733 -10740 0
-10734 10743 0
-10741 10743 0
-10734 -10741 10744 0
-10742 10744 0
-10734 -10742 0
-10735 10745 0
-10743 10745 0
-10735 -10743 10746 0
-10744 10746 0
-10735 -10744 0
-10736 10747 0
-10745 10747 0
-10736 -10745 10748 0
-10746 10748 0
-10736 -10746 0
-10737 10749 0
-10747 10749 0
-10737 -10747 10750 0
-10748 10750 0
-10737 -10748 0
-10738 -10750 0
-10753 40 41 42 0
-40 10753 0
-41 10753 0
-42 10753 0
10753 36 37 38 39 0
-10754 89 90 91 0
-89 10754 0
-90 10754 0
-91 10754 0
10754 85 86 87 88 0
-10755 138 139 140 0
-138 10755 0
-139 10755 0
-140 10755 0
10755 134 135 136 137 0
-10756 187 188 189 0
-187 10756 0
-188 10756 0
-189 10756 0
10756 183 184 185 186 0
-10757 236 237 238 0
-236 10757 0
-237 10757 0
-238 10757 0
10757 232 233 234 235 0
-10758 285 286 287 0
-285 10758 0
-286 10758 0
-287 10758 0
10758 281 282 283 284 0
-10759 334 335 336 0
-334 10759 0
-335 10759 0
-336 10759 0
10759 330 331 332 333 0
-10753 10760 0
-10761 0
-10762 0
-10754 10763 0
-10760 10763 0
-10754 -10760 10764 0
-10761 10764 0
-10754 -10761 10765 0
-10762 10765 0
-10754 -10762 0
-10755 10766 0
-10763 10766 0
-10755 -10763 10767 0
-10764 10767 0
-10755 -10764 10768 0
-10765 10768 0
-10755 -10765 0
-10756 10769 0
-10766 10769 0
-10756 -10766 10770 0
-10767 10770 0
-10756 -10767 10771 0
-10768 10771 0
-10756 -10768 0
-10757 10772 0
-10769 10772 0
-10757 -10769 10773 0
-10770 10773 0
-10757 -10770 10774 0
-10771 10774 0
-10757 -10771 0
-10758 10775 0
-10772 10775 0
-10758 -10772 10776 0
-10773 10776 0
-10758 -10773 10777 0
-10774 10777 0
-10758 -10774 0
-10759 -10777 0
-10781 41 0
-41 10781 0
10781 36 37 38 39 40 42 0
-10782 90 0
-90 10782 0
10782 85 86 87 88 89 91 0
-10783 139 0
-139 10783 0
10783 134 135 136 137 138 140 0
-10784 188 0
-188 10784 0
10784 183 184 185 186 187 189 0
-10785 237 0
-237 10785 0
10785 232 233 234 235 236 238 0
-10786 286 0
-286 10786 0
10786 281 282 283 284 285 287 0
-10787 335 0
-335 10787 0
10787 330 331 332 333 334 336 0
-10781 10788 0
-10782 10789 0
-10788 10789 0
-10782 -10788 0
-10783 10790 0
-10789 10790 0
-10783 -10789 0
-10784 10791 0
-10790 10791 0
-10784 -10790 0
-10785 10792 0
-10791 10792 0
-10785 -10791 0
-10786 10793 0
-10792 10793 0
-10786 -10792 0
-10787 -10793 0
-10795 41 42 0
-41 10795 0
-42 10795 0
10795 36 37 38 39 40 0
-10796 90 91 0
-90 10796 0
-91 10796 0
10796 85 86 87 88 89 0
-10797 139 140 0
-139 10797 0
-140 10797 0
10797 134 135 136 137 138 0
-10798 188 189 0
-188 10798 0
-189 10798 0
10798 183 184 185 186 187 0
-10799 237 238 0
-237 10799 0
-238 10799 0
10799 232 233 234 235 236 0
-10800 286 287 0
-286 10800 0
-287 10800 0
10800 281 282 283 284 285 0
-10801 335 336 0
-335 10801 0
-336 10801 0
10801 330 331 332 333 334 0
-10795 10802 0
-10803 0
-10796 10804 0
-10802 10804 0
-10796 -10802 10805 0
-10803 10805 0
-10796 -10803 0
-10797 10806 0
-10804 10806 0
-10797 -10804 10807 0
-10805 10807 0
-10797 -10805 0
-10798 10808 0
-10806 10808 0
-10798 -10806 10809 0
-10807 10809 0
-10798 -10807 0
-10799 10810 0
-10808 10810 0
-10799 -10808 10811 0
-10809 10811 0
-10799 -10809 0
-10800 10812 0
-10810 10812 0
-10800 -10810 10813 0
-10811 10813 0
-10800 -10811 0
-10801 -10813 0
-10816 42 0
-42 10816 0
10816 36 37 38 39 40 41 0
-10817 91 0
-91 10817 0
10817 85 86 87 88 89 90 0
-10818 140 0
-140 10818 0
10818 134 135 136 137 138 139 0
-10819 189 0
-189 10819 0
10819 183 184 185 186 187 188 0
-10820 238 0
-238 10820 0
10820 232 233 234 235 236 237 0
-10821 287 0
-287 10821 0
10821 281 282 283 284 285 286 0
-10822 336 0
-336 10822 0
10822 330 331 332 333 334 335 0
-10816 10823 0
-10817 10824 0
-10823 10824 0
-10817 -10823 0
-10818 10825 0
-10824 10825 0
-10818 -10824 0
-10819 10826 0
-10825 10826 0
-10819 -10825 0
-10820 10827 0
-10826 10827 0
-10820 -10826 0
-10821 10828 0
-10827 10828 0
-10821 -10827 0
-10822 -10828 0
-36 10830 0
-85 10831 0
-10830 10831 0
-85 -10830 0
-134 10832 0
-10831 10832 0
-134 -10831 0
-183 10833 0
-10832 10833 0
-183 -10832 0
-232 10834 0
-10833 10834 0
-232 -10833 0
-281 10835 0
-10834 10835 0
-281 -10834 0
-330 -10835 0
36 85 134 183 232 281 330 0
-37 10837 0
-86 10838 0
-10837 10838 0
-86 -10837 0
-135 10839 0
-10838 10839 0
-135 -10838 0
-184 10840 0
-10839 10840 0
-184 -10839 0
-233 10841 0
-10840 10841 0
-233 -10840 0
-282 10842 0
-10841 10842 0
-282 -10841 0
-331 -10842 0
37 86 135 184 233 282 331 0
-38 10844 0
-87 10845 0
-10844 10845 0
-87 -10844 0
-136 10846 0
-10845 10846 0
-136 -10845 0
-185 10847 0
-10846 10847 0
-185 -10846 0
-234 10848 0
-10847 10848 0
-234 -10847 0
-283 10849 0
-10848 10849 0
-283 -10848 0
-332 -10849 0
38 87 136 185 234 283 332 0
-39 10851 0
-88 10852 0
-10851 10852 0
-88 -10851 0
-137 10853 0
-10852 10853 0
-137 -10852 0
-186 10854 0
-10853 10854 0
-186 -10853 0
-235 10855 0
-10854 10855 0
-235 -10854 0
-284 10856 0
-10855 10856 0
-284 -10855 0
-333 -10856 0
39 88 137 186 235 284 333 0
-40 10858 0
-89 10859 0
-10858 10859 0
-89 -10858 0
-138 10860 0
-10859 10860 0
-138 -10859 0
-187 10861 0
-10860 10861 0
-187 -10860 0
-236 10862 0
-10861 10862 0
-236 -10861 0
-285 10863 0
-10862 10863 0
-285 -10862 0
-334 -10863 0
40 89 138 187 236 285 334 0
-41 10865 0
-90 10866 0
-10865 10866 0
-90 -10865 0
-139 10867 0
-10866 10867 0
-139 -10866 0
-188 10868 0
-10867 10868 0
-188 -10867 0
-237 10869 0
-10868 10869 0
-237 -10868 0
-286 10870 0
-10869 10870 0
-286 -10869 0
-335 -10870 0
41 90 139 188 237 286 335 0
-42 10872 0
-91 10873 0
-10872 10873 0
-91 -10872 0
-140 10874 0
-10873 10874 0
-140 -10873 0
-189 10875 0
-10874 10875 0
-189 -10874 0
-238 10876 0
-10875 10876 0
-238 -10875 0
-287 10877 0
-10876 10877 0
-287 -10876 0
-336 -10877 0
42 91 140 189 238 287 336 0
-10879 43 0
-43 10879 0
10879 44 45 46 47 48 49 0
-10880 92 0
-92 10880 0
10880 93 94 95 96 97 98 0
-10881 141 0
-141 10881 0
10881 142 143 144 145 146 147 0
-10882 190 0
-190 10882 0
10882 191 192 193 194 195 196 0
-10883 239 0
-239 10883 0
10883 240 241 242 243 244 245 0
-10884 288 0
-288 10884 0
10884 289 290 291 292 293 294 0
-10885 337 0
-337 10885 0
10885 338 339 340 341 342 343 0
-10879 10886 0
-10880 10887 0
-10886 10887 0
-10880 -10886 0
-10881 10888 0
-10887 10888 0
-10881 -10887 0
-10882 10889 0
-10888 10889 0
-10882 -10888 0
-10883 10890 0
-10889 10890 0
-10883 -10889 0
-10884 10891 0
-10890 10891 0
-10884 -10890 0
-10885 -10891 0
-10893 43 44 0
-43 10893 0
-44 10893 0
10893 45 46 47 48 49 0
-10894 92 93 0
-92 10894 0
-93 10894 0
10894 94 95 96 97 98 0
-10895 141 142 0
-141 10895 0
-142 10895 0
10895 143 144 145 146 147 0
-10896 190 191 0
-190 10896 0
-191 10896 0
10896 192 193 194 195 196 0
-10897 239 240 0
-239 10897 0
-240 10897 0
10897 241 242 243 244 245 0
-10898 288 289 0
-288 10898 0
-289 10898 0
10898 290 291 292 293 294 0
-10899 337 338 0
-337 10899 0
-338 10899 0
10899 339 340 341 342 343 0
-10893 10900 0
-10901 0
-10894 10902 0
-10900 10902 0
-10894 -10900 10903 0
-10901 10903 0
-10894 -10901 0
-10895 10904 0
-10902 10904 0
-10895 -10902 10905 0
-10903 10905 0
-10895 -10903 0
-10896 10906 0
-10904 10906 0
-10896 -10904 10907 0
-10905 10907 0
-10896 -10905 0
-10897 10908 0
-10906 10908 0
-10897 -10906 10909 0
-10907 10909 0
-10897 -10907 0
-10898 10910 0
-10908 10910 0
-10898 -10908 10911 0
-10909 10911 0
-10898 -10909 0
-10899 -10911 0
-10914 43 44 45 0
-43 10914 0
-44 10914 0
-45 10914 0
10914 46 47 48 49 0
-10915 92 93 94 0
-92 10915 0
-93 10915 0
-94 10915 0
10915 95 96 97 98 0
-10916 141 142 143 0
-141 10916 0
-142 10916 0
-143 10916 0
10916 144 145 146 147 0
-10917 190 191 192 0
-190 10917 0
-191 10917 0
-192 10917 0
10917 193 194 195 196 0
-10918 239 240 241 0
-239 10918 0
-240 10918 0
-241 10918 0
10918 242 243 244 245 0
-10919 288 289 290 0
-288 10919 0
-289 10919 0
-290 10919 0
10919 291 292 293 294 0
-10920 337 338 339 0
-337 10920 0
-338 10920 0
-339 10920 0
10920 340 341 342 343 0
-10914 10921 0
-10922 0
-10923 0
-10915 10924 0
-10921 10924 0
-10915 -10921 10925 0
-10922 10925 0
-10915 -10922 10926 0
-10923 10926 0
-10915 -10923 0
-10916 10927 0
-10924 10927 0
-10916 -10924 10928 0
-10925 10928 0
-10916 -10925 10929 0
-10926 10929 0
-10916 -10926 0
-10917 10930 0
-10927 10930 0
-10917 -10927 10931 0
-10928 10931 0
-10917 -10928 10932 0
-10929 10932 0
-10917 -10929 0
-10918 10933 0
-10930 10933 0
-10918 -10930 10934 0
-10931 10934 0
-10918 -10931 10935 0
-10932 10935 0
-10918 -10932 0
-10919 10936 0
-10933 10936 0
-10919 -10933 10937 0
-10934 10937 0
-10919 -10934 10938 0
-10935 10938 0
-10919 -10935 0
-10920 -10938 0
-10942 43 44 45 46 0
-43 10942 0
-44 10942 0
-45 10942 0
-46 10942 0
10942 47 48 49 0
-10943 92 93 94 95 0
-92 10943 0
-93 10943 0
-94 10943 0
-95 10943 0
10943 96 97 98 0
-10944 141 142 143 144 0
-141 10944 0
-142 10944 0
-143 10944 0
-144 10944 0
10944 145 146 147 0
-10945 190 191 192 193 0
-190 10945 0
-191 10945 0
-192 10945 0
-193 10945 0
10945 194 195 196 0
-10946 239 240 241 242 0
-239 10946 0
-240 10946 0
-241 10946 0
-242 10946 0
10946 243 244 245 0
-10947 288 289 290 291 0
-288 10947 0
-289 10947 0
-290 10947 0
-291 10947 0
10947 292 293 294 0
-10948 337 338 339 340 0
-337 10948 0
-338 10948 0
-339 10948 0
-340 10948 0
10948 341 342 343 0
-10942 10949 0
-10950 0
-10951 0
-10952 0
-10943 10953 0
-10949 10953 0
-10943 -10949 10954 0
-10950 10954 0
-10943 -10950 10955 0
-10951 10955 0
-10943 -10951 10956 0
-10952 10956 0
-10943 -10952 0
-10944 10957 0
-10953 10957 0
-10944 -10953 10958 0
-10954 10958 0
-10944 -10954 10959 0
-10955 10959 0
-10944 -10955 10960 0
-10956 10960 0
-10944 -10956 0
-10945 10961 0
-10957 10961 0
-10945 -10957 10962 0
-10958 10962 0
-10945 -10958 10963 0
-10959 10963 0
-10945 -10959 10964 0
-10960 10964 0
-10945 -10960 0
-10946 10965 0
-10961 10965 0
-10946 -10961 10966 0
-10962 10966 0
-10946 -10962 10967 0
-10963 10967 0
-10946 -10963 10968 0
-10964 10968 0
-10946 -10964 0
-10947 10969 0
-10965 10969 0
-10947 -10965 10970 0
-10966 10970 0
-10947 -10966 10971 0
-10967 10971 0
-10947 -10967 10972 0
-10968 10972 0
-10947 -10968 0
-10948 -10972 0
-10977 43 44 45 46 47 0
-43 10977 0
-44 10977 0
-45 10977 0
-46 10977 0
-47 10977 0
10977 48 49 0
-10978 92 93 94 95 96 0
-92 10978 0
-93 10978 0
-94 10978 0
-95 10978 0
-96 10978 0
10978 97 98 0
-10979 141 142 143 144 145 0
-141 10979 0
-142 10979 0
-143 10979 0
-144 10979 0
-145 10979 0
10979 146 147 0
-10980 190 191 192 193 194 0
-190 10980 0
-191 10980 0
-192 10980 0
-193 10980 0
-194 10980 0
10980 195 196 0
-10981 239 240 241 242 243 0
-239 10981 0
-240 10981 0
-241 10981 0
-242 10981 0
-243 10981 0
10981 244 245 0
-10982 288 289 290 291 292 0
-288 10982 0
-289 10982 0
-290 10982 0
-291 10982 0
-292 10982 0
10982 293 294 0
-10983 337 338 339 340 341 0
-337 10983 0
-338 10983 0
-339 10983 0
-340 10983 0
-341 10983 0
10983 342 343 0
-10977 10984 0
-10985 0
-10986 0
-10987 0
-10988 0
-10978 10989 0
-10984 10989 0
-10978 -10984 10990 0
-10985 10990 0
-10978 -10985 10991 0
-10986 10991 0
-10978 -10986 10992 0
-10987 10992 0
-10978 -10987 10993 0
-10988 10993 0
-10978 -10988 0
-10979 10994 0
-10989 10994 0
-10979 -10989 10995 0
-10990 10995 0
-10979 -10990 10996 0
-10991 10996 0
-10979 -10991 10997 0
-10992 10997 0
-10979 -10992 10998 0
-10993 10998 0
-10979 -10993 0
-10980 10999 0
-10994 10999 0
-10980 -10994 11000 0
-10995 11000 0
-10980 -10995 11001 0
-10996 11001 0
-10980 -10996 11002 0
-10997 11002 0
-10980 -10997 11003 0
-10998 11003 0
-10980 -10998 0
-10981 11004 0
-10999 11004 0
-10981 -10999 11005 0
-11000 11005 0
-10981 -11000 11006 0
-11001 11006 0
-10981 -11001 11007 0
-11002 11007 0
-10981 -11002 11008 0
-11003 11008 0
-10981 -11003 0
-10982 11009 0
-11004 11009 0
-10982 -11004 11010 0
-11005 11010 0
-10982 -11005 11011 0
-11006 11011 0
-10982 -11006 11012 0
-11007 11012 0
-10982 -11007 11013 0
-11008 11013 0
-10982 -11008 0
-10983 -11013 0
-11019 43 44 45 46 47 48 0
-43 11019 0
-44 11019 0
-45 11019 0
-46 11019 0
-47 11019 0
-48 11019 0
11019 49 0
-11020 92 93 94 95 96 97 0
-92 11020 0
-93 11020 0
-94 11020 0
-95 11020 0
-96 11020 0
-97 11020 0
11020 98 0
-11021 141 142 143 144 145 146 0
-141 11021 0
-142 11021 0
-143 11021 0
-144 11021 0
-145 11021 0
-146 11021 0
11021 147 0
-11022 190 191 192 193 194 195 0
-190 11022 0
-191 11022 0
-192 11022 0
-193 11022 0
-194 11022 0
-195 11022 0
11022 196 0
-11023 239 240 241 242 243 244 0
-239 11023 0
-240 11023 0
-241 11023 0
-242 11023 0
-243 11023 0
-244 11023 0
11023 245 0
-11024 288 289 290 291 292 293 0
-288 11024 0
-289 11024 0
-290 11024 0
-291 11024 0
-292 11024 0
-293 11024 0
11024 294 0
-11025 337 338 339 340 341 342 0
-337 11025 0
-338 11025 0
-339 11025 0
-340 11025 0
-341 11025 0
-342 11025 0
11025 343 0
-11019 11026 0
-11027 0
-11028 0
-11029 0
-11030 0
-11031 0
-11020 11032 0
-11026 11032 0
-11020 -11026 11033 0
-11027 11033 0
-11020 -11027 11034 0
-11028 11034 0
-11020 -11028 11035 0
-11029 11035 0
-11020 -11029 11036 0
-11030 11036 0
-11020 -11030 11037 0
-11031 11037 0
-11020 -11031 0
-11021 11038 0
-11032 11038 0
-11021 -11032 11039 0
-11033 11039 0
-11021 -11033 11040 0
-11034 11040 0
-11021 -11034 11041 0
-11035 11041 0
-11021 -11035 11042 0
-11036 11042 0
-11021 -11036 11043 0
-11037 11043 0
-11021 -11037 0
-11022 11044 0
-11038 11044 0
-11022 -11038 11045 0
-11039 11045 0
-11022 -11039 11046 0
-11040 11046 0
-11022 -11040 11047 0
-11041 11047 0
-11022 -11041 11048 0
-11042 11048 0
-11022 -11042 11049 0
-11043 11049 0
-11022 -11043 0
-11023 11050 0
-11044 11050 0
-11023 -11044 11051 0
-11045 11051 0
-11023 -11045 11052 0
-11046 11052 0
-11023 -11046 11053 0
-11047 11053 0
-11023 -11047 11054 0
-11048 11054 0
-11023 -11048 11055 0
-11049 11055 0
-11023 -11049 0
-11024 11056 0
-11050 11056 0
-11024 -11050 11057 0
-11051 11057 0
-11024 -11051 11058 0
-11052 11058 0
-11024 -11052 11059 0
-11053 11059 0
-11024 -11053 11060 0
-11054 11060 0
-11024 -11054 11061 0
-11055 11061 0
-11024 -11055 0
-11025 -11061 0
-11068 43 44 45 46 47 48 49 0
-43 11068 0
-44 11068 0
-45 11068 0
-46 11068 0
-47 11068 0
-48 11068 0
-49 11068 0
11068 0
-11069 92 93 94 95 96 97 98 0
-92 11069 0
-93 11069 0
-94 11069 0
-95 11069 0
-96 11069 0
-97 11069 0
-98 11069 0
11069 0
-11070 141 142 143 144 145 146 147 0
-141 11070 0
-142 11070 0
-143 11070 0
-144 11070 0
-145 11070 0
-146 11070 0
-147 11070 0
11070 0
-11071 190 191 192 193 194 195 196 0
-190 11071 0
-191 11071 0
-192 11071 0
-193 11071 0
-194 11071 0
-195 11071 0
-196 11071 0
11071 0
-11072 239 240 241 242 243 244 245 0
-239 11072 0
-240 11072 0
-241 11072 0
-242 11072 0
-243 11072 0
-244 11072 0
-245 11072 0
11072 0
-11073 288 289 290 291 292 293 294 0
-288 11073 0
-289 11073 0
-290 11073 0
-291 11073 0
-292 11073 0
-293 11073 0
-294 11073 0
11073 0
-11074 337 338 339 340 341 342 343 0
-337 11074 0
-338 11074 0
-339 11074 0
-340 11074 0
-341 11074 0
-342 11074 0
-343 11074 0
11074 0
-11075 44 0
-44 11075 0
11075 43 45 46 47 48 49 0
-11076 93 0
-93 11076 0
11076 92 94 95 96 97 98 0
-11077 142 0
-142 11077 0
11077 141 143 144 145 146 147 0
-11078 191 0
-191 11078 0
11078 190 192 193 194 195 196 0
-11079 240 0
-240 11079 0
11079 239 241 242 243 244 245 0
-11080 289 0
-289 11080 0
11080 288 290 291 292 293 294 0
-11081 338 0
-338 11081 0
11081 337 339 340 341 342 343 0
-11075 11082 0
-11076 11083 0
-11082 11083 0
-11076 -11082 0
-11077 11084 0
-11083 11084 0
-11077 -11083 0
-11078 11085 0
-11084 11085 0
-11078 -11084 0
-11079 11086 0
-11085 11086 0
-11079 -11085 0
-11080 11087 0
-11086 11087 0
-11080 -11086 0
-11081 -11087 0
-11089 44 45 0
-44 11089 0
-45 11089 0
11089 43 46 47 48 49 0
-11090 93 94 0
-93 11090 0
-94 11090 0
11090 92 95 96 97 98 0
-11091 142 143 0
-142 11091 0
-143 11091 0
11091 141 144 145 146 147 0
-11092 191 192 0
-191 11092 0
-192 11092 0
11092 190 193 194 195 196 0
-11093 240 241 0
-240 11093 0
-241 11093 0
11093 239 242 243 244 245 0
-11094 289 290 0
-289 11094 0
-290 11094 0
11094 288 291 292 293 294 0
-11095 338 339 0
-338 11095 0
-339 11095 0
11095 337 340 341 342 343 0
-11089 11096 0
-11097 0
-11090 11098 0
-11096 11098 0
-11090 -11096 11099 0
-11097 11099 0
-11090 -11097 0
-11091 11100 0
-11098 11100 0
-11091 -11098 11101 0
-11099 11101 0
-11091 -11099 0
-11092 11102 0
-11100 11102 0
-11092 -11100 11103 0
-11101 11103 0
-11092 -11101 0
-11093 11104 0
-11102 11104 0
-11093 -11102 11105 0
-11103 11105 0
-11093 -11103 0
-11094 11106 0
-11104 11106 0
-11094 -11104 11107 0
-11105 11107 0
-11094 -11105 0
-11095 -11107 0
-11110 44 45 46 0
-44 11110 0
-45 11110 0
-46 11110 0
11110 43 47 48 49 0
-11111 93 94 95 0
-93 11111 0
-94 11111 0
-95 11111 0
11111 92 96 97 98 0
-11112 142 143 144 0
-142 11112 0
-143 11112 0
-144 11112 0
11112 141 145 146 147 0
-11113 191 192 193 0
-191 11113 0
-192 11113 0
-193 11113 0
11113 190 194 195 196 0
-11114 240 241 242 0
-240 11114 0
-241 11114 0
-242 11114 0
11114 239 243 244 245 0
-11115 289 290 291 0
-289 11115 0
-290 11115 0
-291 11115 0
11115 288 292 293 294 0
-11116 338 339 340 0
-338 11116 0
-339 11116 0
-340 11116 0
11116 337 341 342 343 0
-11110 11117 0
-11118 0
-11119 0
-11111 11120 0
-11117 11120 0
-11111 -11117 11121 0
-11118 11121 0
-11111 -11118 11122 0
-11119 11122 0
-11111 -11119 0
-11112 11123 0
-11120 11123 0
-11112 -11120 11124 0
-11121 11124 0
-11112 -11121 11125 0
-11122 11125 0
-11112 -11122 0
-11113 11126 0
-11123 11126 0
-11113 -11123 11127 0
-11124 11127 0
-11113 -11124 11128 0
-11125 11128 0
-11113 -11125 0
-11114 11129 0
-11126 11129 0
-11114 -11126 11130 0
-11127 11130 0
-11114 -11127 11131 0
-11128 11131 0
-11114 -11128 0
-11115 11132 0
-11129 11132 0
-11115 -11129 11133 0
-11130 11133 0
-11115 -11130 11134 0
-11131 11134 0
-11115 -11131 0
-11116 -11134 0
-11138 44 45 46 47 0
-44 11138 0
-45 11138 0
-46 11138 0
-47 11138 0
11138 43 48 49 0
-11139 93 94 95 96 0
-93 11139 0
-94 11139 0
-95 11139 0
-96 11139 0
11139 92 97 98 0
-11140 142 143 144 145 0
-142 11140 0
-143 11140 0
-144 11140 0
-145 11140 0
11140 141 146 147 0
-11141 191 192 193 194 0
-191 11141 0
-192 11141 0
-193 11141 0
-194 11141 0
11141 190 195 196 0
-11142 240 241 242 243 0
-240 11142 0
-241 11142 0
-242 11142 0
-243 11142 0
11142 239 244 245 0
-11143 289 290 291 292 0
-289 11143 0
-290 11143 0
-291 11143 0
-292 11143 0
11143 288 293 294 0
-11144 338 339 340 341 0
-338 11144 0
-339 11144 0
-340 11144 0
-341 11144 0
11144 337 342 343 0
-11138 11145 0
-11146 0
-11147 0
-11148 0
-11139 11149 0
-11145 11149 0
-11139 -11145 11150 0
-11146 11150 0
-11139 -11146 11151 0
-11147 11151 0
-11139 -11147 11152 0
-11148 11152 0
-11139 -11148 0
-11140 11153 0
-11149 11153 0
-11140 -11149 11154 0
-11150 11154 0
-11140 -11150 11155 0
-11151 11155 0
-11140 -11151 11156 0
-11152 11156 0
-11140 -11152 0
-11141 11157 0
-11153 11157 0
-11141 -11153 11158 0
-11154 11158 0
-11141 -11154 11159 0
-11155 11159 0
-11141 -11155 11160 0
-11156 11160 0
-11141 -11156 0
-11142 11161 0
-11157 11161 0
-11142 -11157 11162 0
-11158 11162 0
-11142 -11158 11163 0
-11159 11163 0
-11142 -11159 11164 0
-11160 11164 0
-11142 -11160 0
-11143 11165 0
-11161 11165 0
-11143 -11161 11166 0
-11162 11166 0
-11143 -11162 11167 0
-11163 11167 0
-11143 -11163 11168 0
-11164 11168 0
-11143 -11164 0
-11144 -11168 0
-11173 44 45 46 47 48 0
-44 11173 0
-45 11173 0
-46 11173 0
-47 11173 0
-48 11173 0
11173 43 49 0
-11174 93 94 95 96 97 0
-93 11174 0
-94 11174 0
-95 11174 0
-96 11174 0
-97 11174 0
11174 92 98 0
-11175 142 143 144 145 146 0
-142 11175 0
-143 11175 0
-144 11175 0
-145 11175 0
-146 11175 0
11175 141 147 0
-11176 191 192 193 194 195 0
-191 11176 0
-192 11176 0
-193 11176 0
-194 11176 0
-195 11176 0
11176 190 196 0
-11177 240 241 242 243 244 0
-240 11177 0
-241 11177 0
-242 11177 0
-243 11177 0
-244 11177 0
11177 239 245 0
-11178 289 290 291 292 293 0
-289 11178 0
-290 11178 0
-291 11178 0
-292 11178 0
-293 11178 0
11178 288 294 0
-11179 338 339 340 341 342 0
-338 11179 0
-339 11179 0
-340 11179 0
-341 11179 0
-342 11179 0
11179 337 343 0
-11173 11180 0
-11181 0
-11182 0
-11183 0
-11184 0
-11174 11185 0
-11180 11185 0
-11174 -11180 11186 0
-11181 11186 0
-11174 -11181 11187 0
-11182 11187 0
-11174 -11182 11188 0
-11183 11188 0
-11174 -11183 11189 0
-11184 11189 0
-11174 -11184 0
-11175 11190 0
-11185 11190 0
-11175 -11185 11191 0
-11186 11191 0
-11175 -11186 11192 0
-11187 11192 0
-11175 -11187 11193 0
-11188 11193 0
-11175 -11188 11194 0
-11189 11194 0
-11175 -11189 0
-11176 11195 0
-11190 11195 0
-11176 -11190 11196 0
-11191 11196 0
-11176 -11191 11197 0
-11192 11197 0
-11176 -11192 11198 0
-11193 11198 0
-11176 -11193 11199 0
-11194 11199 0
-11176 -11194 0
-11177 11200 0
-11195 11200 0
-11177 -11195 11201 0
-11196 11201 0
-11177 -11196 11202 0
-11197 11202 0
-11177 -11197 11203 0
-11198 11203 0
-11177 -11198 11204 0
-11199 11204 0
-11177 -11199 0
-11178 11205 0
-11200 11205 0
-11178 -11200 11206 0
-11201 11206 0
-11178 -11201 11207 0
-11202 11207 0
-11178 -11202 11208 0
-11203 11208 0
-11178 -11203 11209 0
-11204 11209 0
-11178 -11204 0
-11179 -11209 0
-11215 44 45 46 47 48 49 0
-44 11215 0
-45 11215 0
-46 11215 0
-47 11215 0
-48 11215 0
-49 11215 0
11215 43 0
-11216 93 94 95 96 97 98 0
-93 11216 0
-94 11216 0
-95 11216 0
-96 11216 0
-97 11216 0
-98 11216 0
11216 92 0
-11217 142 143 144 145 146 147 0
-142 11217 0
-143 11217 0
-144 11217 0
-145 11217 0
-146 11217 0
-147 11217 0
11217 141 0
-11218 191 192 193 194 195 196 0
-191 11218 0
-192 11218 0
-193 11218 0
-194 11218 0
-195 11218 0
-196 11218 0
11218 190 0
-11219 240 241 242 243 244 245 0
-240 11219 0
-241 11219 0
-242 11219 0
-243 11219 0
-244 11219 0
-245 11219 0
11219 239 0
-11220 289 290 291 292 293 294 0
-289 11220 0
-290 11220 0
-291 11220 0
-292 11220 0
-293 11220 0
-294 11220 0
11220 288 0
-11221 338 339 340 341 342 343 0
-338 11221 0
-339 11221 0
-340 11221 0
-341 11221 0
-342 11221 0
-343 11221 0
11221 337 0
-11215 11222 0
-11223 0
-11224 0
-11225 0
-11226 0
-11227 0
-11216 11228 0
-11222 11228 0
-11216 -11222 11229 0
-11223 11229 0
-11216 -11223 11230 0
-11224 11230 0
-11216 -11224 11231 0
-11225 11231 0
-11216 -11225 11232 0
-11226 11232 0
-11216 -11226 11233 0
-11227 11233 0
-11216 -11227 0
-11217 11234 0
-11228 11234 0
-11217 -11228 11235 0
-11229 11235 0
-11217 -11229 11236 0
-11230 11236 0
-11217 -11230 11237 0
-11231 11237 0
-11217 -11231 11238 0
-11232 11238 0
-11217 -11232 11239 0
-11233 11239 0
-11217 -11233 0
-11218 11240 0
-11234 11240 0
-11218 -11234 11241 0
-11235 11241 0
-11218 -11235 11242 0
-11236 11242 0
-11218 -11236 11243 0
-11237 11243 0
-11218 -11237 11244 0
-11238 11244 0
-11218 -11238 11245 0
-11239 11245 0
-11218 -11239 0
-11219 11246 0
-11240 11246 0
-11219 -11240 11247 0
-11241 11247 0
-11219 -11241 11248 0
-11242 11248 0
-11219 -11242 11249 0
-11243 11249 0
-11219 -11243 11250 0
-11244 11250 0
-11219 -11244 11251 0
-11245 11251 0
-11219 -11245 0
-11220 11252 0
-11246 11252 0
-11220 -11246 11253 0
-11247 11253 0
-11220 -11247 11254 0
-11248 11254 0
-11220 -11248 11255 0
-11249 11255 0
-11220 -11249 11256 0
-11250 11256 0
-11220 -11250 11257 0
-11251 11257 0
-11220 -11251 0
-11221 -11257 0
-11264 45 0
-45 11264 0
11264 43 44 46 47 48 49 0
-11265 94 0
-94 11265 0
11265 92 93 95 96 97 98 0
-11266 143 0
-143 11266 0
11266 141 142 144 145 146 147 0
-11267 192 0
-192 11267 0
11267 190 191 193 194 195 196 0
-11268 241 0
-241 11268 0
11268 239 240 242 243 244 245 0
-11269 290 0
-290 11269 0
11269 288 289 291 292 293 294 0
-11270 339 0
-339 11270 0
11270 337 338 340 341 342 343 0
-11264 11271 0
-11265 11272 0
-11271 11272 0
-11265 -11271 0
-11266 11273 0
-11272 11273 0
-11266 -11272 0
-11267 11274 0
-11273 11274 0
-11267 -11273 0
-11268 11275 0
-11274 11275 0
-11268 -11274 0
-11269 11276 0
-11275 11276 0
-11269 -11275 0
-11270 -11276 0
-11278 45 46 0
-45 11278 0
-46 11278 0
11278 43 44 47 48 49 0
-11279 94 95 0
-94 11279 0
-95 11279 0
11279 92 93 96 97 98 0
-11280 143 144 0
-143 11280 0
-144 11280 0
11280 141 142 145 146 147 0
-11281 192 193 0
-192 11281 0
-193 11281 0
11281 190 191 194 195 196 0
-11282 241 242 0
-241 11282 0
-242 11282 0
11282 239 240 243 244 245 0
-11283 290 291 0
-290 11283 0
-291 11283 0
11283 288 289 292 293 294 0
-11284 339 340 0
-339 11284 0
-340 11284 0
11284 337 338 341 342 343 0
-11278 11285 0
-11286 0
-11279 11287 0
-11285 11287 0
-11279 -11285 11288 0
-11286 11288 0
-11279 -11286 0
-11280 11289 0
-11287 11289 0
-11280 -11287 11290 0
-11288 11290 0
-11280 -11288 0
-11281 11291 0
-11289 11291 0
-11281 -11289 11292 0
-11290 11292 0
-11281 -11290 0
-11282 11293 0
-11291 11293 0
-11282 -11291 11294 0
-11292 11294 0
-11282 -11292 0
-11283 11295 0
-11293 11295 0
-11283 -11293 11296 0
-11294 11296 0
-11283 -11294 0
-11284 -11296 0
-11299 45 46 47 0
-45 11299 0
-46 11299 0
-47 11299 0
11299 43 44 48 49 0
-11300 94 95 96 0
-94 11300 0
-95 11300 0
-96 11300 0
11300 92 93 97 98 0
-11301 143 144 145 0
-143 11301 0
-144 11301 0
-145 11301 0
11301 141 142 146 147 0
-11302 192 193 194 0
-192 11302 0
-193 11302 0
-194 11302 0
11302 190 191 195 196 0
-11303 241 242 243 0
-241 11303 0
-242 11303 0
-243 11303 0
11303 239 240 244 245 0
-11304 290 291 292 0
-290 11304 0
-291 11304 0
-292 11304 0
11304 288 289 293 294 0
-11305 339 340 341 0
-339 11305 0
-340 11305 0
-341 11305 0
11305 337 338 342 343 0
-11299 11306 0
-11307 0
-11308 0
-11300 11309 0
-11306 11309 0
-11300 -11306 11310 0
-11307 11310 0
-11300 -11307 11311 0
-11308 11311 0
-11300 -11308 0
-11301 11312 0
-11309 11312 0
-11301 -11309 11313 0
-11310 11313 0
-11301 -11310 11314 0
-11311 11314 0
-11301 -11311 0
-11302 11315 0
-11312 11315 0
-11302 -11312 11316 0
-11313 11316 0
-11302 -11313 11317 0
-11314 11317 0
-11302 -11314 0
-11303 11318 0
-11315 11318 0
-11303 -11315 11319 0
-11316 11319 0
-11303 -11316 11320 0
-11317 11320 0
-11303 -11317 0
-11304 11321 0
-11318 11321 0
-11304 -11318 11322 0
-11319 11322 0
-11304 -11319 11323 0
-11320 11323 0
-11304 -11320 0
-11305 -11323 0
-11327 45 46 47 48 0
-45 11327 0
-46 11327 0
-47 11327 0
-48 11327 0
11327 43 44 49 0
-11328 94 95 96 97 0
-94 11328 0
-95 11328 0
-96 11328 0
-97 11328 0
11328 92 93 98 0
-11329 143 144 145 146 0
-143 11329 0
-144 11329 0
-145 11329 0
-146 11329 0
11329 141 142 147 0
-11330 192 193 194 195 0
-192 11330 0
-193 11330 0
-194 11330 0
-195 11330 0
11330 190 191 196 0
-11331 241 242 243 244 0
-241 11331 0
-242 11331 0
-243 11331 0
-244 11331 0
11331 239 240 245 0
-11332 290 291 292 293 0
-290 11332 0
-291 11332 0
-292 11332 0
-293 11332 0
11332 288 289 294 0
-11333 339 340 341 342 0
-339 11333 0
-340 11333 0
-341 11333 0
-342 11333 0
11333 337 338 343 0
-11327 11334 0
-11335 0
-11336 0
-11337 0
-11328 11338 0
-11334 11338 0
-11328 -11334 11339 0
-11335 11339 0
-11328 -11335 11340 0
-11336 11340 0
-11328 -11336 11341 0
-11337 11341 0
-11328 -11337 0
-11329 11342 0
-11338 11342 0
-11329 -11338 11343 0
-11339 11343 0
-11329 -11339 11344 0
-11340 11344 0
-11329 -11340 11345 0
-11341 11345 0
-11329 -11341 0
-11330 11346 0
-11342 11346 0
-11330 -11342 11347 0
-11343 11347 0
-11330 -11343 11348 0
-11344 11348 0
-11330 -11344 11349 0
-11345 11349 0
-11330 -11345 0
-11331 11350 0
-11346 11350 0
-11331 -11346 11351 0
-11347 11351 0
-11331 -11347 11352 0
-11348 11352 0
-11331 -11348 11353 0
-11349 11353 0
-11331 -11349 0
-11332 11354 0
-11350 11354 0
-11332 -11350 11355 0
-11351 11355 0
-11332 -11351 11356 0
-11352 11356 0
-11332 -11352 11357 0
-11353 11357 0
-11332 -11353 0
-11333 -11357 0
-11362 45 46 47 48 49 0
-45 11362 0
-46 11362 0
-47 11362 0
-48 11362 0
-49 11362 0
11362 43 44 0
-11363 94 95 96 97 98 0
-94 11363 0
-95 11363 0
-96 11363 0
-97 11363 0
-98 11363 0
11363 92 93 0
-11364 143 144 145 146 147 0
-143 11364 0
-144 11364 0
-145 11364 0
-146 11364 0
-147 11364 0
11364 141 142 0
-11365 192 193 194 195 196 0
-192 11365 0
-193 11365 0
-194 11365 0
-195 11365 0
-196 11365 0
11365 190 191 0
-11366 241 242 243 244 245 0
-241 11366 0
-242 11366 0
-243 11366 0
-244 11366 0
-245 11366 0
11366 239 240 0
-11367 290 291 292 293 294 0
-290 11367 0
-291 11367 0
-292 11367 0
-293 11367 0
-294 11367 0
11367 288 289 0
-11368 339 340 341 342 343 0
-339 11368 0
-340 11368 0
-341 11368 0
-342 11368 0
-343 11368 0
11368 337 338 0
-11362 11369 0
-11370 0
-11371 0
-11372 0
-11373 0
-11363 11374 0
-11369 11374 0
-11363 -11369 11375 0
-11370 11375 0
-11363 -11370 11376 0
-11371 11376 0
-11363 -11371 11377 0
-11372 11377 0
-11363 -11372 11378 0
-11373 11378 0
-11363 -11373 0
-11364 11379 0
-11374 11379 0
-11364 -11374 11380 0
-11375 11380 0
-11364 -11375 11381 0
-11376 11381 0
-11364 -11376 11382 0
-11377 11382 0
-11364 -11377 11383 0
-11378 11383 0
-11364 -11378 0
-11365 11384 0
-11379 11384 0
-11365 -11379 11385 0
-11380 11385 0
-11365 -11380 11386 0
-11381 11386 0
-11365 -11381 11387 0
-11382 11387 0
-11365 -11382 11388 0
-11383 11388 0
-11365 -11383 0
-11366 11389 0
-11384 11389 0
-11366 -11384 11390 0
-11385 11390 0
-11366 -11385 11391 0
-11386 11391 0
-11366 -11386 11392 0
-11387 11392 0
-11366 -11387 11393 0
-11388 11393 0
-11366 -11388 0
-11367 11394 0
-11389 11394 0
-11367 -11389 11395 0
-11390 11395 0
-11367 -11390 11396 0
-11391 11396 0
-11367 -11391 11397 0
-11392 11397 0
-11367 -11392 11398 0
-11393 11398 0
-11367 -11393 0
-11368 -11398 0
-11404 46 0
-46 11404 0
11404 43 44 45 47 48 49 0
-11405 95 0
-95 11405 0
11405 92 93 94 96 97 98 0
-11406 144 0
-144 11406 0
11406 141 142 143 145 146 147 0
-11407 193 0
-193 11407 0
11407 190 191 192 194 195 196 0
-11408 242 0
-242 11408 0
11408 239 240 241 243 244 245 0
-11409 291 0
-291 11409 0
11409 288 289 290 292 293 294 0
-11410 340 0
-340 11410 0
11410 337 338 339 341 342 343 0
-11404 11411 0
-11405 11412 0
-11411 11412 0
-11405 -11411 0
-11406 11413 0
-11412 11413 0
-11406 -11412 0
-11407 11414 0
-11413 11414 0
-11407 -11413 0
-11408 11415 0
-11414 11415 0
-11408 -11414 0
-11409 11416 0
-11415 11416 0
-11409 -11415 0
-11410 -11416 0
-11418 46 47 0
-46 11418 0
-47 11418 0
11418 43 44 45 48 49 0
-11419 95 96 0
-95 11419 0
-96 11419 0
11419 92 93 94 97 98 0
-11420 144 145 0
-144 11420 0
-145 11420 0
11420 141 142 143 146 147 0
-11421 193 194 0
-193 11421 0
-194 11421 0
11421 190 191 192 195 196 0
-11422 242 243 0
-242 11422 0
-243 11422 0
11422 239 240 241 244 245 0
-11423 291 292 0
-291 11423 0
-292 11423 0
11423 288 289 290 293 294 0
-11424 340 341 0
-340 11424 0
-341 11424 0
11424 337 338 339 342 343 0
-11418 11425 0
-11426 0
-11419 11427 0
-11425 11427 0
-11419 -11425 11428 0
-11426 11428 0
-11419 -11426 0
-11420 11429 0
-11427 11429 0
-11420 -11427 11430 0
-11428 11430 0
-11420 -11428 0
-11421 11431 0
-11429 11431 0
-11421 -11429 11432 0
-11430 11432 0
-11421 -11430 0
-11422 11433 0
-11431 11433 0
-11422 -11431 11434 0
-11432 11434 0
-11422 -11432 0
-11423 11435 0
-11433 11435 0
-11423 -11433 11436 0
-11434 11436 0
-11423 -11434 0
-11424 -11436 0
-11439 46 47 48 0
-46 11439 0
-47 11439 0
-48 11439 0
11439 43 44 45 49 0
-11440 95 96 97 0
-95 11440 0
-96 11440 0
-97 11440 0
11440 92 93 94 98 0
-11441 144 145 146 0
-144 11441 0
-145 11441 0
-146 11441 0
11441 141 142 143 147 0
-11442 193 194 195 0
-193 11442 0
-194 11442 0
-195 11442 0
11442 190 191 192 196 0
-11443 242 243 244 0
-242 11443 0
-243 11443 0
-244 11443 0
11443 239 240 241 245 0
-11444 291 292 293 0
-291 11444 0
-292 11444 0
-293 11444 0
11444 288 289 290 294 0
-11445 340 341 342 0
-340 11445 0
-341 11445 0
-342 11445 0
11445 337 338 339 343 0
-11439 11446 0
-11447 0
-11448 0
-11440 11449 0
-11446 11449 0
-11440 -11446 11450 0
-11447 11450 0
-11440 -11447 11451 0
-11448 11451 0
-11440 -11448 0
-11441 11452 0
-11449 11452 0
-11441 -11449 11453 0
-11450 11453 0
-11441 -11450 11454 0
-11451 11454 0
-11441 -11451 0
-11442 11455 0
-11452 11455 0
-11442 -11452 11456 0
-11453 11456 0
-11442 -11453 11457 0
-11454 11457 0
-11442 -11454 0
-11443 11458 0
-11455 11458 0
-11443 -11455 11459 0
-11456 11459 0
-11443 -11456 11460 0
-11457 11460 0
-11443 -11457 0
-11444 11461 0
-11458 11461 0
-11444 -11458 11462 0
-11459 11462 0
-11444 -11459 11463 0
-11460 11463 0
-11444 -11460 0
-11445 -11463 0
-11467 46 47 48 49 0
-46 11467 0
-47 11467 0
-48 11467 0
-49 11467 0
11467 43 44 45 0
-11468 95 96 97 98 0
-95 11468 0
-96 11468 0
-97 11468 0
-98 11468 0
11468 92 93 94 0
-11469 144 145 146 147 0
-144 11469 0
-145 11469 0
-146 11469 0
-147 11469 0
11469 141 142 143 0
-11470 193 194 195 196 0
-193 11470 0
-194 11470 0
-195 11470 0
-196 11470 0
11470 190 191 192 0
-11471 242 243 244 245 0
-242 11471 0
-243 11471 0
-244 11471 0
-245 11471 0
11471 239 240 241 0
-11472 291 292 293 294 0
-291 11472 0
-292 11472 0
-293 11472 0
-294 11472 0
11472 288 289 290 0
-11473 340 341 342 343 0
-340 11473 0
-341 11473 0
-342 11473 0
-343 11473 0
11473 337 338 339 0
-11467 11474 0
-11475 0
-11476 0
-11477 0
-11468 11478 0
-11474 11478 0
-11468 -11474 11479 0
-11475 11479 0
-11468 -11475 11480 0
-11476 11480 0
-11468 -11476 11481 0
-11477 11481 0
-11468 -11477 0
-11469 11482 0
-11478 11482 0
-11469 -11478 11483 0
-11479 11483 0
-11469 -11479 11484 0
-11480 11484 0
-11469 -11480 11485 0
-11481 11485 0
-11469 -11481 0
-11470 11486 0
-11482 11486 0
-11470 -11482 11487 0
-11483 11487 0
-11470 -11483 11488 0
-11484 11488 0
-11470 -11484 11489 0
-11485 11489 0
-11470 -11485 0
-11471 11490 0
-11486 11490 0
-11471 -11486 11491 0
-11487 11491 0
-11471 -11487 11492 0
-11488 11492 0
-11471 -11488 11493 0
-11489 11493 0
-11471 -11489 0
-11472 11494 0
-11490 11494 0
-11472 -11490 11495 0
-11491 11495 0
-11472 -11491 11496 0
-11492 11496 0
-11472 -11492 11497 0
-11493 11497 0
-11472 -11493 0
-11473 -11497 0
-11502 47 0
-47 11502 0
11502 43 44 45 46 48 49 0
-11503 96 0
-96 11503 0
11503 92 93 94 95 97 98 0
-11504 145 0
-145 11504 0
11504 141 142 143 144 146 147 0
-11505 194 0
-194 11505 0
11505 190 191 192 193 195 196 0
-11506 243 0
-243 11506 0
11506 239 240 241 242 244 245 0
-11507 292 0
-292 11507 0
11507 288 289 290 291 293 294 0
-11508 341 0
-341 11508 0
11508 337 338 339 340 342 343 0
-11502 11509 0
-11503 11510 0
-11509 11510 0
-11503 -11509 0
-11504 11511 0
-11510 11511 0
-11504 -11510 0
-11505 11512 0
-11511 11512 0
-11505 -11511 0
-11506 11513 0
-11512 11513 0
-11506 -11512 0
-11507 11514 0
-11513 11514 0
-11507 -11513 0
-11508 -11514 0
-11516 47 48 0
-47 11516 0
-48 11516 0
11516 43 44 45 46 49 0
-11517 96 97 0
-96 11517 0
-97 11517 0
11517 92 93 94 95 98 0
-11518 145 146 0
-145 11518 0
-146 11518 0
11518 141 142 143 144 147 0
-11519 194 195 0
-194 11519 0
-195 11519 0
11519 190 191 192 193 196 0
-11520 243 244 0
-243 11520 0
-244 11520 0
11520 239 240 241 242 245 0
-11521 292 293 0
-292 11521 0
-293 11521 0
11521 288 289 290 291 294 0
-11522 341 342 0
-341 11522 0
-342 11522 0
11522 337 338 339 340 343 0
-11516 11523 0
-11524 0
-11517 11525 0
-11523 11525 0
-11517 -11523 11526 0
-11524 11526 0
-11517 -11524 0
-11518 11527 0
-11525 11527 0
-11518 -11525 11528 0
-11526 11528 0
-11518 -11526 0
-11519 11529 0
-11527 11529 0
-11519 -11527 11530 0
-11528 11530 0
-11519 -11528 0
-11520 11531 0
-11529 11531 0
-11520 -11529 11532 0
-11530 11532 0
-11520 -11530 0
-11521 11533 0
-11531 11533 0
-11521 -11531 11534 0
-11532 11534 0
-11521 -11532 0
-11522 -11534 0
-11537 47 48 49 0
-47 11537 0
-48 11537 0
-49 11537 0
11537 43 44 45 46 0
-11538 96 97 98 0
-96 11538 0
-97 11538 0
-98 11538 0
11538 92 93 94 95 0
-11539 145 146 147 0
-145 11539 0
-146 11539 0
-147 11539 0
11539 141 142 143 144 0
-11540 194 195 196 0
-194 11540 0
-195 11540 0
-196 11540 0
11540 190 191 192 193 0
-11541 243 244 245 0
-243 11541 0
-244 11541 0
-245 11541 0
11541 239 240 241 242 0
-11542 292 293 294 0
-292 11542 0
-293 11542 0
-294 11542 0
11542 288 289 290 291 0
-11543 341 342 343 0
-341 11543 0
-342 11543 0
-343 11543 0
11543 337 338 339 340 0
-11537 11544 0
-11545 0
-11546 0
-11538 11547 0
-11544 11547 0
-11538 -11544 11548 0
-11545 11548 0
-11538 -11545 11549 0
-11546 11549 0
-11538 -11546 0
-11539 11550 0
-11547 11550 0
-11539 -11547 11551 0
-11548 11551 0
-11539 -11548 11552 0
-11549 11552 0
-11539 -11549 0
-11540 11553 0
-11550 11553 0
-11540 -11550 11554 0
-11551 11554 0
-11540 -11551 11555 0
-11552 11555 0
-11540 -11552 0
-11541 11556 0
-11553 11556 0
-11541 -11553 11557 0
-11554 11557 0
-11541 -11554 11558 0
-11555 11558 0
-11541 -11555 0
-11542 11559 0
-11556 11559 0
-11542 -11556 11560 0
-11557 11560 0
-11542 -11557 11561 0
-11558 11561 0
-11542 -11558 0
-11543 -11561 0
-11565 48 0
-48 11565 0
11565 43 44 45 46 47 49 0
-11566 97 0
-97 11566 0
11566 92 93 94 95 96 98 0
-11567 146 0
-146 11567 0
11567 141 142 143 144 145 147 0
-11568 195 0
-195 11568 0
11568 190 191 192 193 194 196 0
-11569 244 0
-244 11569 0
11569 239 240 241 242 243 245 0
-11570 293 0
-293 11570 0
11570 288 289 290 291 292 294 0
-11571 342 0
-342 11571 0
11571 337 338 339 340 341 343 0
-11565 11572 0
-11566 11573 0
-11572 11573 0
-11566 -11572 0
-11567 11574 0
-11573 11574 0
-11567 -11573 0
-11568 11575 0
-11574 11575 0
-11568 -11574 0
-11569 11576 0
-11575 11576 0
-11569 -11575 0
-11570 11577 0
-11576 11577 0
-11570 -11576 0
-11571 -11577 0
-11579 48 49 0
-48 11579 0
-49 11579 0
11579 43 44 45 46 47 0
-11580 97 98 0
-97 11580 0
-98 11580 0
11580 92 93 94 95 96 0
-11581 146 147 0
-146 11581 0
-147 11581 0
11581 141 142 143 144 145 0
-11582 195 196 0
-195 11582 0
-196 11582 0
11582 190 191 192 193 194 0
-11583 244 245 0
-244 11583 0
-245 11583 0
11583 239 240 241 242 243 0
-11584 293 294 0
-293 11584 0
-294 11584 0
11584 288 289 290 291 292 0
-11585 342 343 0
-342 11585 0
-343 11585 0
11585 337 338 339 340 341 0
-11579 11586 0
-11587 0
-11580 11588 0
-11586 11588 0
-11580 -11586 11589 0
-11587 11589 0
-11580 -11587 0
-11581 11590 0
-11588 11590 0
-11581 -11588 11591 0
-11589 11591 0
-11581 -11589 0
-11582 11592 0
-11590 11592 0
-11582 -11590 11593 0
-11591 11593 0
-11582 -11591 0
-11583 11594 0
-11592 11594 0
-11583 -11592 11595 0
-11593 11595 0
-11583 -11593 0
-11584 11596 0
-11594 11596 0
-11584 -11594 11597 0
-11595 11597 0
-11584 -11595 0
-11585 -11597 0
-11600 49 0
-49 11600 0
11600 43 44 45 46 47 48 0
-11601 98 0
-98 11601 0
11601 92 93 94 95 96 97 0
-11602 147 0
-147 11602 0
11602 141 142 143 144 145 146 0
-11603 196 0
-196 11603 0
11603 190 191 192 193 194 195 0
-11604 245 0
-245 11604 0
11604 239 240 241 242 243 244 0
-11605 294 0
-294 11605 0
11605 288 289 290 291 292 293 0
-11606 343 0
-343 11606 0
11606 337 338 339 340 341 342 0
-11600 11607 0
-11601 11608 0
-11607 11608 0
-11601 -11607 0
-11602 11609 0
-11608 11609 0
-11602 -11608 0
-11603 11610 0
-11609 11610 0
-11603 -11609 0
-11604 11611 0
-11610 11611 0
-11604 -11610 0
-11605 11612 0
-11611 11612 0
-11605 -11611 0
-11606 -11612 0
-43 11614 0
-92 11615 0
-11614 11615 0
-92 -11614 0
-141 11616 0
-11615 11616 0
-141 -11615 0
-190 11617 0
-11616 11617 0
-190 -11616 0
-239 11618 0
-11617 11618 0
-239 -11617 0
-288 11619 0
-11618 11619 0
-288 -11618 0
-337 -11619 0
43 92 141 190 239 288 337 0
-44 11621 0
-93 11622 0
-11621 11622 0
-93 -11621 0
-142 11623 0
-11622 11623 0
-142 -11622 0
-191 11624 0
-11623 11624 0
-191 -11623 0
-240 11625 0
-11624 11625 0
-240 -11624 0
-289 11626 0
-11625 11626 0
-289 -11625 0
-338 -11626 0
44 93 142 191 240 289 338 0
-45 11628 0
-94 11629 0
-11628 11629 0
-94 -11628 0
-143 11630 0
-11629 11630 0
-143 -11629 0
-192 11631 0
-11630 11631 0
-192 -11630 0
-241 11632 0
-11631 11632 0
-241 -11631 0
-290 11633 0
-11632 11633 0
-290 -11632 0
-339 -11633 0
45 94 143 192 241 290 339 0
-46 11635 0
-95 11636 0
-11635 11636 0
-95 -11635 0
-144 11637 0
-11636 11637 0
-144 -11636 0
-193 11638 0
-11637 11638 0
-193 -11637 0
-242 11639 0
-11638 11639 0
-242 -11638 0
-291 11640 0
-11639 11640 0
-291 -11639 0
-340 -11640 0
46 95 144 193 242 291 340 0
-47 11642 0
-96 11643 0
-11642 11643 0
-96 -11642 0
-145 11644 0
-11643 11644 0
-145 -11643 0
-194 11645 0
-11644 11645 0
-194 -11644 0
-243 11646 0
-11645 11646 0
-243 -11645 0
-292 11647 0
-11646 11647 0
-292 -11646 0
-341 -11647 0
47 96 145 194 243 292 341 0
-48 11649 0
-97 11650 0
-11649 11650 0
-97 -11649 0
-146 11651 0
-11650 11651 0
-146 -11650 0
-195 11652 0
-11651 11652 0
-195 -11651 0
-244 11653 0
-11652 11653 0
-244 -11652 0
-293 11654 0
-11653 11654 0
-293 -11653 0
-342 -11654 0
48 97 146 195 244 293 342 0
-49 11656 0
-98 11657 0
-11656 11657 0
-98 -11656 0
-147 11658 0
-11657 11658 0
-147 -11657 0
-196 11659 0
-11658 11659 0
-196 -11658 0
-245 11660 0
-11659 11660 0
-245 -11659 0
-294 11661 0
-11660 11661 0
-294 -11660 0
-343 -11661 0
49 98 147 196 245 294 343 0
-11663 1 0
-1 11663 0
11663 2 3 4 5 6 7 0
-11664 57 0
-57 11664 0
11664 58 59 60 61 62 63 0
-11665 113 0
-113 11665 0
11665 114 115 116 117 118 119 0
-11666 169 0
-169 11666 0
11666 170 171 172 173 174 175 0
-11667 225 0
-225 11667 0
11667 226 227 228 229 230 231 0
-11668 281 0
-281 11668 0
11668 282 283 284 285 286 287 0
-11669 337 0
-337 11669 0
11669 338 339 340 341 342 343 0
-11663 11670 0
-11664 11671 0
-11670 11671 0
-11664 -11670 0
-11665 11672 0
-11671 11672 0
-11665 -11671 0
-11666 11673 0
-11672 11673 0
-11666 -11672 0
-11667 11674 0
-11673 11674 0
-11667 -11673 0
-11668 11675 0
-11674 11675 0
-11668 -11674 0
-11669 -11675 0
-11677 1 2 0
-1 11677 0
-2 11677 0
11677 3 4 5 6 7 0
-11678 57 58 0
-57 11678 0
-58 11678 0
11678 59 60 61 62 63 0
-11679 113 114 0
-113 11679 0
-114 11679 0
11679 115 116 117 118 119 0
-11680 169 170 0
-169 11680 0
-170 11680 0
11680 171 172 173 174 175 0
-11681 225 226 0
-225 11681 0
-226 11681 0
11681 227 228 229 230 231 0
-11682 281 282 0
-281 11682 0
-282 11682 0
11682 283 284 285 286 287 0
-11683 337 338 0
-337 11683 0
-338 11683 0
11683 339 340 341 342 343 0
-11677 11684 0
-11685 0
-11678 11686 0
-11684 11686 0
-11678 -11684 11687 0
-11685 11687 0
-11678 -11685 0
-11679 11688 0
-11686 11688 0
-11679 -11686 11689 0
-11687 11689 0
-11679 -11687 0
-11680 11690 0
-11688 11690 0
-11680 -11688 11691 0
-11689 11691 0
-11680 -11689 0
-11681 11692 0
-11690 11692 0
-11681 -11690 11693 0
-11691 11693 0
-11681 -11691 0
-11682 11694 0
-11692 11694 0
-11682 -11692 11695 0
-11693 11695 0
-11682 -11693 0
-11683 -11695 0
-11698 1 2 3 0
-1 11698 0
-2 11698 0
-3 11698 0
11698 4 5 6 7 0
-11699 57 58 59 0
-57 11699 0
-58 11699 0
-59 11699 0
11699 60 61 62 63 0
-11700 113 114 115 0
-113 11700 0
-114 11700 0
-115 11700 0
11700 116 117 118 119 0
-11701 169 170 171 0
-169 11701 0
-170 11701 0
-171 11701 0
11701 172 173 174 175 0
-11702 225 226 227 0
-225 11702 0
-226 11702 0
-227 11702 0
11702 228 229 230 231 0
-11703 281 282 283 0
-281 11703 0
-282 11703 0
-283 11703 0
11703 284 285 286 287 0
-11704 337 338 339 0
-337 11704 0
-338 11704 0
-339 11704 0
11704 340 341 342 343 0
-11698 11705 0
-11706 0
-11707 0
-11699 11708 0
-11705 11708 0
-11699 -11705 11709 0
-11706 11709 0
-11699 -11706 11710 0
-11707 11710 0
-11699 -11707 0
-11700 11711 0
-11708 11711 0
-11700 -11708 11712 0
-11709 11712 0
-11700 -11709 11713 0
-11710 11713 0
-11700 -11710 0
-11701 11714 0
-11711 11714 0
-11701 -11711 11715 0
-11712 11715 0
-11701 -11712 11716 0
-11713 11716 0
-11701 -11713 0
-11702 11717 0
-11714 11717 0
-11702 -11714 11718 0
-11715 11718 0
-11702 -11715 11719 0
-11716 11719 0
-11702 -11716 0
-11703 11720 0
-11717 11720 0
-11703 -11717 11721 0
-11718 11721 0
-11703 -11718 11722 0
-11719 11722 0
-11703 -11719 0
-11704 -11722 0
-11726 1 2 3 4 0
-1 11726 0
-2 11726 0
-3 11726 0
-4 11726 0
11726 5 6 7 0
-11727 57 58 59 60 0
-57 11727 0
-58 11727 0
-59 11727 0
-60 11727 0
11727 61 62 63 0
-11728 113 114 115 116 0
-113 11728 0
-114 11728 0
-115 11728 0
-116 11728 0
11728 117 118 119 0
-11729 169 170 171 172 0
-169 11729 0
-170 11729 0
-171 11729 0
-172 11729 0
11729 173 174 175 0
-11730 225 226 227 228 0
-225 11730 0
-226 11730 0
-227 11730 0
-228 11730 0
11730 229 230 231 0
-11731 281 282 283 284 0
-281 11731 0
-282 11731 0
-283 11731 0
-284 11731 0
11731 285 286 287 0
-11732 337 338 339 340 0
-337 11732 0
-338 11732 0
-339 11732 0
-340 11732 0
11732 341 342 343 0
-11726 11733 0
-11734 0
-11735 0
-11736 0
-11727 11737 0
-11733 11737 0
-11727 -11733 11738 0
-11734 11738 0
-11727 -11734 11739 0
-11735 11739 0
-11727 -11735 11740 0
-11736 11740 0
-11727 -11736 0
-11728 11741 0
-11737 11741 0
-11728 -11737 11742 0
-11738 11742 0
-11728 -11738 11743 0
-11739 11743 0
-11728 -11739 11744 0
-11740 11744 0
-11728 -11740 0
-11729 11745 0
-11741 11745 0
-11729 -11741 11746 0
-11742 11746 0
-11729 -11742 11747 0
-11743 11747 0
-11729 -11743 11748 0
-11744 11748 0
-11729 -11744 0
-11730 11749 0
-11745 11749 0
-11730 -11745 11750 0
-11746 11750 0
-11730 -11746 11751 0
-11747 11751 0
-11730 -11747 11752 0
-11748 11752 0
-11730 -11748 0
-11731 11753 0
-11749 11753 0
-11731 -11749 11754 0
-11750 11754 0
-11731 -11750 11755 0
-11751 11755 0
-11731 -11751 11756 0
-11752 11756 0
-11731 -11752 0
-11732 -11756 0
-11761 1 2 3 4 5 0
-1 11761 0
-2 11761 0
-3 11761 0
-4 11761 0
-5 11761 0
11761 6 7 0
-11762 57 58 59 60 61 0
-57 11762 0
-58 11762 0
-59 11762 0
-60 11762 0
-61 11762 0
11762 62 63 0
-11763 113 114 115 116 117 0
-113 11763 0
-114 11763 0
-115 11763 0
-116 11763 0
-117 11763 0
11763 118 119 0
-11764 169 170 171 172 173 0
-169 11764 0
-170 11764 0
-171 11764 0
-172 11764 0
-173 11764 0
11764 174 175 0
-11765 225 226 227 228 229 0
-225 11765 0
-226 11765 0
-227 11765 0
-228 11765 0
-229 11765 0
11765 230 231 0
-11766 281 282 283 284 285 0
-281 11766 0
-282 11766 0
-283 11766 0
-284 11766 0
-285 11766 0
11766 286 287 0
-11767 337 338 339 340 341 0
-337 11767 0
-338 11767 0
-339 11767 0
-340 11767 0
-341 11767 0
11767 342 343 0
-11761 11768 0
-11769 0
-11770 0
-11771 0
-11772 0
-11762 11773 0
-11768 11773 0
-11762 -11768 11774 0
-11769 11774 0
-11762 -11769 11775 0
-11770 11775 0
-11762 -11770 11776 0
-11771 11776 0
-11762 -11771 11777 0
-11772 11777 0
-11762 -11772 0
-11763 11778 0
-11773 11778 0
-11763 -11773 11779 0
-11774 11779 0
-11763 -11774 11780 0
-11775 11780 0
-11763 -11775 11781 0
-11776 11781 0
-11763 -11776 11782 0
-11777 11782 0
-11763 -11777 0
-11764 11783 0
-11778 11783 0
-11764 -11778 11784 0
-11779 11784 0
-11764 -11779 11785 0
-11780 11785 0
-11764 -11780 11786 0
-11781 11786 0
-11764 -11781 11787 0
-11782 11787 0
-11764 -11782 0
-11765 11788 0
-11783 11788 0
-11765 -11783 11789 0
-11784 11789 0
-11765 -11784 11790 0
-11785 11790 0
-11765 -11785 11791 0
-11786 11791 0
-11765 -11786 11792 0
-11787 11792 0
-11765 -11787 0
-11766 11793 0
-11788 11793 0
-11766 -11788 11794 0
-11789 11794 0
-11766 -11789 11795 0
-11790 11795 0
-11766 -11790 11796 0
-11791 11796 0
-11766 -11791 11797 0
-11792 11797 0
-11766 -11792 0
-11767 -11797 0
-11803 1 2 3 4 5 6 0
-1 11803 0
-2 11803 0
-3 11803 0
-4 11803 0
-5 11803 0
-6 11803 0
11803 7 0
-11804 57 58 59 60 61 62 0
-57 11804 0
-58 11804 0
-59 11804 0
-60 11804 0
-61 11804 0
-62 11804 0
11804 63 0
-11805 113 114 115 116 117 118 0
-113 11805 0
-114 11805 0
-115 11805 0
-116 11805 0
-117 11805 0
-118 11805 0
11805 119 0
-11806 169 170 171 172 173 174 0
-169 11806 0
-170 11806 0
-171 11806 0
-172 11806 0
-173 11806 0
-174 11806 0
11806 175 0
-11807 225 226 227 228 229 230 0
-225 11807 0
-226 11807 0
-227 11807 0
-228 11807 0
-229 11807 0
-230 11807 0
11807 231 0
-11808 281 282 283 284 285 286 0
-281 11808 0
-282 11808 0
-283 11808 0
-284 11808 0
-285 11808 0
-286 11808 0
11808 287 0
-11809 337 338 339 340 341 342 0
-337 11809 0
-338 11809 0
-339 11809 0
-340 11809 0
-341 11809 0
-342 11809 0
11809 343 0
-11803 11810 0
-11811 0
-11812 0
-11813 0
-11814 0
-11815 0
-11804 11816 0
-11810 11816 0
-11804 -11810 11817 0
-11811 11817 0
-11804 -11811 11818 0
-11812 11818 0
-11804 -11812 11819 0
-11813 11819 0
-11804 -11813 11820 0
-11814 11820 0
-11804 -11814 11821 0
-11815 11821 0
-11804 -11815 0
-11805 11822 0
-11816 11822 0
-11805 -11816 11823 0
-11817 11823 0
-11805 -11817 11824 0
-11818 11824 0
-11805 -11818 11825 0
-11819 11825 0
-11805 -11819 11826 0
-11820 11826 0
-11805 -11820 11827 0
-11821 11827 0
-11805 -11821 0
-11806 11828 0
-11822 11828 0
-11806 -11822 11829 0
-11823 11829 0
-11806 -11823 11830 0
-11824 11830 0
-11806 -11824 11831 0
-11825 11831 0
-11806 -11825 11832 0
-11826 11832 0
-11806 -11826 11833 0
-11827 11833 0
-11806 -11827 0
-11807 11834 0
-11828 11834 0
-11807 -11828 11835 0
-11829 11835 0
-11807 -11829 11836 0
-11830 11836 0
-11807 -11830 11837 0
-11831 11837 0
-11807 -11831 11838 0
-11832 11838 0
-11807 -11832 11839 0
-11833 11839 0
-11807 -11833 0
-11808 11840 0
-11834 11840 0
-11808 -11834 11841 0
-11835 11841 0
-11808 -11835 11842 0
-11836 11842 0
-11808 -11836 11843 0
-11837 11843 0
-11808 -11837 11844 0
-11838 11844 0
-11808 -11838 11845 0
-11839 11845 0
-11808 -11839 0
-11809 -11845 0
-11852 1 2 3 4 5 6 7 0
-1 11852 0
-2 11852 0
-3 11852 0
-4 11852 0
-5 11852 0
-6 11852 0
-7 11852 0
11852 0
-11853 57 58 59 60 61 62 63 0
-57 11853 0
-58 11853 0
-59 11853 0
-60 11853 0
-61 11853 0
-62 11853 0
-63 11853 0
11853 0
-11854 113 114 115 116 117 118 119 0
-113 11854 0
-114 11854 0
-115 11854 0
-116 11854 0
-117 11854 0
-118 11854 0
-119 11854 0
11854 0
-11855 169 170 171 172 173 174 175 0
-169 11855 0
-170 11855 0
-171 11855 0
-172 11855 0
-173 11855 0
-174 11855 0
-175 11855 0
11855 0
-11856 225 226 227 228 229 230 231 0
-225 11856 0
-226 11856 0
-227 11856 0
-228 11856 0
-229 11856 0
-230 11856 0
-231 11856 0
11856 0
-11857 281 282 283 284 285 286 287 0
-281 11857 0
-282 11857 0
-283 11857 0
-284 11857 0
-285 11857 0
-286 11857 0
-287 11857 0
11857 0
-11858 337 338 339 340 341 342 343 0
-337 11858 0
-338 11858 0
-339 11858 0
-340 11858 0
-341 11858 0
-342 11858 0
-343 11858 0
11858 0
-11859 2 0
-2 11859 0
11859 1 3 4 5 6 7 0
-11860 58 0
-58 11860 0
11860 57 59 60 61 62 63 0
-11861 114 0
-114 11861 0
11861 113 115 116 117 118 119 0
-11862 170 0
-170 11862 0
11862 169 171 172 173 174 175 0
-11863 226 0
-226 11863 0
11863 225 227 228 229 230 231 0
-11864 282 0
-282 11864 0
11864 281 283 284 285 286 287 0
-11865 338 0
-338 11865 0
11865 337 339 340 341 342 343 0
-11859 11866 0
-11860 11867 0
-11866 11867 0
-11860 -11866 0
-11861 11868 0
-11867 11868 0
-11861 -11867 0
-11862 11869 0
-11868 11869 0
-11862 -11868 0
-11863 11870 0
-11869 11870 0
-11863 -11869 0
-11864 11871 0
-11870 11871 0
-11864 -11870 0
-11865 -11871 0
-11873 2 3 0
-2 11873 0
-3 11873 0
11873 1 4 5 6 7 0
-11874 58 59 0
-58 11874 0
-59 11874 0
11874 57 60 61 62 63 0
-11875 114 115 0
-114 11875 0
-115 11875 0
11875 113 116 117 118 119 0
-11876 170 171 0
-170 11876 0
-171 11876 0
11876 169 172 173 174 175 0
-11877 226 227 0
-226 11877 0
-227 11877 0
11877 225 228 229 230 231 0
-11878 282 283 0
-282 11878 0
-283 11878 0
11878 281 284 285 286 287 0
-11879 338 339 0
-338 11879 0
-339 11879 0
11879 337 340 341 342 343 0
-11873 11880 0
-11881 0
-11874 11882 0
-11880 11882 0
-11874 -11880 11883 0
-11881 11883 0
-11874 -11881 0
-11875 11884 0
-11882 11884 0
-11875 -11882 11885 0
-11883 11885 0
-11875 -11883 0
-11876 11886 0
-11884 11886 0
-11876 -11884 11887 0
-11885 11887 0
-11876 -11885 0
-11877 11888 0
-11886 11888 0
-11877 -11886 11889 0
-11887 11889 0
-11877 -11887 0
-11878 11890 0
-11888 11890 0
-11878 -11888 11891 0
-11889 11891 0
-11878 -11889 0
-11879 -11891 0
-11894 2 3 4 0
-2 11894 0
-3 11894 0
-4 11894 0
11894 1 5 6 7 0
-11895 58 59 60 0
-58 11895 0
-59 11895 0
-60 11895 0
11895 57 61 62 63 0
-11896 114 115 116 0
-114 11896 0
-115 11896 0
-116 11896 0
11896 113 117 118 119 0
-11897 170 171 172 0
-170 11897 0
-171 11897 0
-172 11897 0
11897 169 173 174 175 0
-11898 226 227 228 0
-226 11898 0
-227 11898 0
-228 11898 0
11898 225 229 230 231 0
-11899 282 283 284 0
-282 11899 0
-283 11899 0
-284 11899 0
11899 281 285 286 287 0
-11900 338 339 340 0
-338 11900 0
-339 11900 0
-340 11900 0
11900 337 341 342 343 0
-11894 11901 0
-11902 0
-11903 0
-11895 11904 0
-11901 11904 0
-11895 -11901 11905 0
-11902 11905 0
-11895 -11902 11906 0
-11903 11906 0
-11895 -11903 0
-11896 11907 0
-11904 11907 0
-11896 -11904 11908 0
-11905 11908 0
-11896 -11905 11909 0
-11906 11909 0
-11896 -11906 0
-11897 11910 0
-11907 11910 0
-11897 -11907 11911 0
-11908 11911 0
-11897 -11908 11912 0
-11909 11912 0
-11897 -11909 0
-11898 11913 0
-11910 11913 0
-11898 -11910 11914 0
-11911 11914 0
-11898 -11911 11915 0
-11912 11915 0
-11898 -11912 0
-11899 11916 0
-11913 11916 0
-11899 -11913 11917 0
-11914 11917 0
-11899 -11914 11918 0
-11915 11918 0
-11899 -11915 0
-11900 -11918 0
-11922 2 3 4 5 0
-2 11922 0
-3 11922 0
-4 11922 0
-5 11922 0
11922 1 6 7 0
-11923 58 59 60 61 0
-58 11923 0
-59 11923 0
-60 11923 0
-61 11923 0
11923 57 62 63 0
-11924 114 115 116 117 0
-114 11924 0
-115 11924 0
-116 11924 0
-117 11924 0
11924 113 118 119 0
-11925 170 171 172 173 0
-170 11925 0
-171 11925 0
-172 11925 0
-173 11925 0
11925 169 174 175 0
-11926 226 227 228 229 0
-226 11926 0
-227 11926 0
-228 11926 0
-229 11926 0
11926 225 230 231 0
-11927 282 283 284 285 0
-282 11927 0
-283 11927 0
-284 11927 0
-285 11927 0
11927 281 286 287 0
-11928 338 339 340 341 0
-338 11928 0
-339 11928 0
-340 11928 0
-341 11928 0
11928 337 342 343 0
-11922 11929 0
-11930 0
-11931 0
-11932 0
-11923 11933 0
-11929 11933 0
-11923 -11929 11934 0
-11930 11934 0
-11923 -11930 11935 0
-11931 11935 0
-11923 -11931 11936 0
-11932 11936 0
-11923 -11932 0
-11924 11937 0
-11933 11937 0
-11924 -11933 11938 0
-11934 11938 0
-11924 -11934 11939 0
-11935 11939 0
-11924 -11935 11940 0
-11936 11940 0
-11924 -11936 0
-11925 11941 0
-11937 11941 0
-11925 -11937 11942 0
-11938 11942 0
-11925 -11938 11943 0
-11939 11943 0
-11925 -11939 11944 0
-11940 11944 0
-11925 -11940 0
-11926 11945 0
-11941 11945 0
-11926 -11941 11946 0
-11942 11946 0
-11926 -11942 11947 0
-11943 11947 0
-11926 -11943 11948 0
-11944 11948 0
-11926 -11944 0
-11927 11949 0
-11945 11949 0
-11927 -11945 11950 0
-11946 11950 0
-11927 -11946 11951 0
-11947 11951 0
-11927 -11947 11952 0
-11948 11952 0
-11927 -11948 0
-11928 -11952 0
-11957 2 3 4 5 6 0
-2 11957 0
-3 11957 0
-4 11957 0
-5 11957 0
-6 11957 0
11957 1 7 0
-11958 58 59 60 61 62 0
-58 11958 0
-59 11958 0
-60 11958 0
-61 11958 0
-62 11958 0
11958 57 63 0
-11959 114 115 116 117 118 0
-114 11959 0
-115 11959 0
-116 11959 0
-117 11959 0
-118 11959 0
11959 113 119 0
-11960 170 171 172 173 174 0
-170 11960 0
-171 11960 0
-172 11960 0
-173 11960 0
-174 11960 0
11960 169 175 0
-11961 226 227 228 229 230 0
-226 11961 0
-227 11961 0
-228 11961 0
-229 11961 0
-230 11961 0
11961 225 231 0
-11962 282 283 284 285 286 0
-282 11962 0
-283 11962 0
-284 11962 0
-285 11962 0
-286 11962 0
11962 281 287 0
-11963 338 339 340 341 342 0
-338 11963 0
-339 11963 0
-340 11963 0
-341 11963 0
-342 11963 0
11963 337 343 0
-11957 11964 0
-11965 0
-11966 0
-11967 0
-11968 0
-11958 11969 0
-11964 11969 0
-11958 -11964 11970 0
-11965 11970 0
-11958 -11965 11971 0
-11966 11971 0
-11958 -11966 11972 0
-11967 11972 0
-11958 -11967 11973 0
-11968 11973 0
-11958 -11968 0
-11959 11974 0
-11969 11974 0
-11959 -11969 11975 0
-11970 11975 0
-11959 -11970 11976 0
-11971 11976 0
-11959 -11971 11977 0
-11972 11977 0
-11959 -11972 11978 0
-11973 11978 0
-11959 -11973 0
-11960 11979 0
-11974 11979 0
-11960 -11974 11980 0
-11975 11980 0
-11960 -11975 11981 0
-11976 11981 0
-11960 -11976 11982 0
-11977 11982 0
-11960 -11977 11983 0
-11978 11983 0
-11960 -11978 0
-11961 11984 0
-11979 11984 0
-11961 -11979 11985 0
-11980 11985 0
-11961 -11980 11986 0
-11981 11986 0
-11961 -11981 11987 0
-11982 11987 0
-11961 -11982 11988 0
-11983 11988 0
-11961 -11983 0
-11962 11989 0
-11984 11989 0
-11962 -11984 11990 0
-11985 11990 0
-11962 -11985 11991 0
-11986 11991 0
-11962 -11986 11992 0
-11987 11992 0
-11962 -11987 11993 0
-11988 11993 0
-11962 -11988 0
-11963 -11993 0
-11999 2 3 4 5 6 7 0
-2 11999 0
-3 11999 0
-4 11999 0
-5 11999 0
-6 11999 0
-7 11999 0
11999 1 0
-12000 58 59 60 61 62 63 0
-58 12000 0
-59 12000 0
-60 12000 0
-61 12000 0
-62 12000 0
-63 12000 0
12000 57 0
-12001 114 115 116 117 118 119 0
-114 12001 0
-115 12001 0
-116 12001 0
-117 12001 0
-118 12001 0
-119 12001 0
12001 113 0
-12002 170 171 172 173 174 175 0
-170 12002 0
-171 12002 0
-172 12002 0
-173 12002 0
-174 12002 0
-175 12002 0
12002 169 0
-12003 226 227 228 229 230 231 0
-226 12003 0
-227 12003 0
-228 12003 0
-229 12003 0
-230 12003 0
-231 12003 0
12003 225 0
-12004 282 283 284 285 286 287 0
-282 12004 0
-283 12004 0
-284 12004 0
-285 12004 0
-286 12004 0
-287 12004 0
12004 281 0
-12005 338 339 340 341 342 343 0
-338 12005 0
-339 12005 0
-340 12005 0
-341 12005 0
-342 12005 0
-343 12005 0
12005 337 0
-11999 12006 0
-12007 0
-12008 0
-12009 0
-12010 0
-12011 0
-12000 12012 0
-12006 12012 0
-12000 -12006 12013 0
-12007 12013 0
-12000 -12007 12014 0
-12008 12014 0
-12000 -12008 12015 0
-12009 12015 0
-12000 -12009 12016 0
-12010 12016 0
-12000 -12010 12017 0
-12011 12017 0
-12000 -12011 0
-12001 12018 0
-12012 12018 0
-12001 -12012 12019 0
-12013 12019 0
-12001 -12013 12020 0
-12014 12020 0
-12001 -12014 12021 0
-12015 12021 0
-12001 -12015 12022 0
-12016 12022 0
-12001 -12016 12023 0
-12017 12023 0
-12001 -12017 0
-12002 12024 0
-12018 12024 0
-12002 -12018 12025 0
-12019 12025 0
-12002 -12019 12026 0
-12020 12026 0
-12002 -12020 12027 0
-12021 12027 0
-12002 -12021 12028 0
-12022 12028 0
-12002 -12022 12029 0
-12023 12029 0
-12002 -12023 0
-12003 12030 0
-12024 12030 0
-12003 -12024 12031 0
-12025 12031 0
-12003 -12025 12032 0
-12026 12032 0
-12003 -12026 12033 0
-12027 12033 0
-12003 -12027 12034 0
-12028 12034 0
-12003 -12028 12035 0
-12029 12035 0
-12003 -12029 0
-12004 12036 0
-12030 12036 0
-12004 -12030 12037 0
-12031 12037 0
-12004 -12031 12038 0
-12032 12038 0
-12004 -12032 12039 0
-12033 12039 0
-12004 -12033 12040 0
-12034 12040 0
-12004 -12034 12041 0
-12035 12041 0
-12004 -12035 0
-12005 -12041 0
-12048 3 0
-3 12048 0
12048 1 2 4 5 6 7 0
-12049 59 0
-59 12049 0
12049 57 58 60 61 62 63 0
-12050 115 0
-115 12050 0
12050 113 114 116 117 118 119 0
-12051 171 0
-171 12051 0
12051 169 170 172 173 174 175 0
-12052 227 0
-227 12052 0
12052 225 226 228 229 230 231 0
-12053 283 0
-283 12053 0
12053 281 282 284 285 286 287 0
-12054 339 0
-339 12054 0
12054 337 338 340 341 342 343 0
-12048 12055 0
-12049 12056 0
-12055 12056 0
-12049 -12055 0
-12050 12057 0
-12056 12057 0
-12050 -12056 0
-12051 12058 0
-12057 12058 0
-12051 -12057 0
-12052 12059 0
-12058 12059 0
-12052 -12058 0
-12053 12060 0
-12059 12060 0
-12053 -12059 0
-12054 -12060 0
-12062 3 4 0
-3 12062 0
-4 12062 0
12062 1 2 5 6 7 0
-12063 59 60 0
-59 12063 0
-60 12063 0
12063 57 58 61 62 63 0
-12064 115 116 0
-115 12064 0
-116 12064 0
12064 113 114 117 118 119 0
-12065 171 172 0
-171 12065 0
-172 12065 0
12065 169 170 173 174 175 0
-12066 227 228 0
-227 12066 0
-228 12066 0
12066 225 226 229 230 231 0
-12067 283 284 0
-283 12067 0
-284 12067 0
12067 281 282 285 286 287 0
-12068 339 340 0
-339 12068 0
-340 12068 0
12068 337 338 341 342 343 0
-12062 12069 0
-12070 0
-12063 12071 0
-12069 12071 0
-12063 -12069 12072 0
-12070 12072 0
-12063 -12070 0
-12064 12073 0
-12071 12073 0
-12064 -12071 12074 0
-12072 12074 0
-12064 -12072 0
-12065 12075 0
-12073 12075 0
-12065 -12073 12076 0
-12074 12076 0
-12065 -12074 0
-12066 12077 0
-12075 12077 0
-12066 -12075 12078 0
-12076 12078 0
-12066 -12076 0
-12067 12079 0
-12077 12079 0
-12067 -12077 12080 0
-12078 12080 0
-12067 -12078 0
-12068 -12080 0
-12083 3 4 5 0
-3 12083 0
-4 12083 0
-5 12083 0
12083 1 2 6 7 0
-12084 59 60 61 0
-59 12084 0
-60 12084 0
-61 12084 0
12084 57 58 62 63 0
-12085 115 116 117 0
-115 12085 0
-116 12085 0
-117 12085 0
12085 113 114 118 119 0
-12086 171 172 173 0
-171 12086 0
-172 12086 0
-173 12086 0
12086 169 170 174 175 0
-12087 227 228 229 0
-227 12087 0
-228 12087 0
-229 12087 0
12087 225 226 230 231 0
-12088 283 284 285 0
-283 12088 0
-284 12088 0
-285 12088 0
12088 281 282 286 287 0
-12089 339 340 341 0
-339 12089 0
-340 12089 0
-341 12089 0
12089 337 338 342 343 0
-12083 12090 0
-12091 0
-12092 0
-12084 12093 0
-12090 12093 0
-12084 -12090 12094 0
-12091 12094 0
-12084 -12091 12095 0
-12092 12095 0
-12084 -12092 0
-12085 12096 0
-12093 12096 0
-12085 -12093 12097 0
-12094 12097 0
-12085 -12094 12098 0
-12095 12098 0
-12085 -12095 0
-12086 12099 0
-12096 12099 0
-12086 -12096 12100 0
-12097 12100 0
-12086 -12097 12101 0
-12098 12101 0
-12086 -12098 0
-12087 12102 0
-12099 12102 0
-12087 -12099 12103 0
-12100 12103 0
-12087 -12100 12104 0
-12101 12104 0
-12087 -12101 0
-12088 12105 0
-12102 12105 0
-12088 -12102 12106 0
-12103 12106 0
-12088 -12103 12107 0
-12104 12107 0
-12088 -12104 0
-12089 -12107 0
-12111 3 4 5 6 0
-3 12111 0
-4 12111 0
-5 12111 0
-6 12111 0
12111 1 2 7 0
-12112 59 60 61 62 0
-59 12112 0
-60 12112 0
-61 12112 0
-62 12112 0
12112 57 58 63 0
-12113 115 116 117 118 0
-115 12113 0
-116 12113 0
-117 12113 0
-118 12113 0
12113 113 114 119 0
-12114 171 172 173 174 0
-171 12114 0
-172 12114 0
-173 12114 0
-174 12114 0
12114 169 170 175 0
-12115 227 228 229 230 0
-227 12115 0
-228 12115 0
-229 12115 0
-230 12115 0
12115 225 226 231 0
-12116 283 284 285 286 0
-283 12116 0
-284 12116 0
-285 12116 0
-286 12116 0
12116 281 282 287 0
-12117 339 340 341 342 0
-339 12117 0
-340 12117 0
-341 12117 0
-342 12117 0
12117 337 338 343 0
-12111 12118 0
-12119 0
-12120 0
-12121 0
-12112 12122 0
-12118 12122 0
-12112 -12118 12123 0
-12119 12123 0
-12112 -12119 12124 0
-12120 12124 0
-12112 -12120 12125 0
-12121 12125 0
-12112 -12121 0
-12113 12126 0
-12122 12126 0
-12113 -12122 12127 0
-12123 12127 0
-12113 -12123 12128 0
-12124 12128 0
-12113 -12124 12129 0
-12125 12129 0
-12113 -12125 0
-12114 12130 0
-12126 12130 0
-12114 -12126 12131 0
-12127 12131 0
-12114 -12127 12132 0
-12128 12132 0
-12114 -12128 12133 0
-12129 12133 0
-12114 -12129 0
-12115 12134 0
-12130 12134 0
-12115 -12130 12135 0
-12131 12135 0
-12115 -12131 12136 0
-12132 12136 0
-12115 -12132 12137 0
-12133 12137 0
-12115 -12133 0
-12116 12138 0
-12134 12138 0
-12116 -12134 12139 0
-12135 12139 0
-12116 -12135 12140 0
-12136 12140 0
-12116 -12136 12141 0
-12137 12141 0
-12116 -12137 0
-12117 -12141 0
-12146 3 4 5 6 7 0
-3 12146 0
-4 12146 0
-5 12146 0
-6 12146 0
-7 12146 0
12146 1 2 0
-12147 59 60 61 62 63 0
-59 12147 0
-60 12147 0
-61 12147 0
-62 12147 0
-63 12147 0
12147 57 58 0
-12148 115 116 117 118 119 0
-115 12148 0
-116 12148 0
-117 12148 0
-118 12148 0
-119 12148 0
12148 113 114 0
-12149 171 172 173 174 175 0
-171 12149 0
-172 12149 0
-173 12149 0
-174 12149 0
-175 12149 0
12149 169 170 0
-12150 227 228 229 230 231 0
-227 12150 0
-228 12150 0
-229 12150 0
-230 12150 0
-231 12150 0
12150 225 226 0
-12151 283 284 285 286 287 0
-283 12151 0
-284 12151 0
-285 12151 0
-286 12151 0
-287 12151 0
12151 281 282 0
-12152 339 340 341 342 343 0
-339 12152 0
-340 12152 0
-341 12152 0
-342 12152 0
-343 12152 0
12152 337 338 0
-12146 12153 0
-12154 0
-12155 0
-12156 0
-12157 0
-12147 12158 0
-12153 12158 0
-12147 -12153 12159 0
-12154 12159 0
-12147 -12154 12160 0
-12155 12160 0
-12147 -12155 12161 0
-12156 12161 0
-12147 -12156 12162 0
-12157 12162 0
-12147 -12157 0
-12148 12163 0
-12158 12163 0
-12148 -12158 12164 0
-12159 12164 0
-12148 -12159 12165 0
-12160 12165 0
-12148 -12160 12166 0
-12161 12166 0
-12148 -12161 12167 0
-12162 12167 0
-12148 -12162 0
-12149 12168 0
-12163 12168 0
-12149 -12163 12169 0
-12164 12169 0
-12149 -12164 12170 0
-12165 12170 0
-12149 -12165 12171 0
-12166 12171 0
-12149 -12166 12172 0
-12167 12172 0
-12149 -12167 0
-12150 12173 0
-12168 12173 0
-12150 -12168 12174 0
-12169 12174 0
-12150 -12169 12175 0
-12170 12175 0
-12150 -12170 12176 0
-12171 12176 0
-12150 -12171 12177 0
-12172 12177 0
-12150 -12172 0
-12151 12178 0
-12173 12178 0
-12151 -12173 12179 0
-12174 12179 0
-12151 -12174 12180 0
-12175 12180 0
-12151 -12175 12181 0
-12176 12181 0
-12151 -12176 12182 0
-12177 12182 0
-12151 -12177 0
-12152 -12182 0
-12188 4 0
-4 12188 0
12188 1 2 3 5 6 7 0
-12189 60 0
-60 12189 0
12189 57 58 59 61 62 63 0
-12190 116 0
-116 12190 0
12190 113 114 115 117 118 119 0
-12191 172 0
-172 12191 0
12191 169 170 171 173 174 175 0
-12192 228 0
-228 12192 0
12192 225 226 227 229 230 231 0
-12193 284 0
-284 12193 0
12193 281 282 283 285 286 287 0
-12194 340 0
-340 12194 0
12194 337 338 339 341 342 343 0
-12188 12195 0
-12189 12196 0
-12195 12196 0
-12189 -12195 0
-12190 12197 0
-12196 12197 0
-12190 -12196 0
-12191 12198 0
-12197 12198 0
-12191 -12197 0
-12192 12199 0
-12198 12199 0
-12192 -12198 0
-12193 12200 0
-12199 12200 0
-12193 -12199 0
-12194 -12200 0
-12202 4 5 0
-4 12202 0
-5 12202 0
12202 1 2 3 6 7 0
-12203 60 61 0
-60 12203 0
-61 12203 0
12203 57 58 59 62 63 0
-12204 116 117 0
-116 12204 0
-117 12204 0
12204 113 114 115 118 119 0
-12205 172 173 0
-172 12205 0
-173 12205 0
12205 169 170 171 174 175 0
-12206 228 229 0
-228 12206 0
-229 12206 0
12206 225 226 227 230 231 0
-12207 284 285 0
-284 12207 0
-285 12207 0
12207 281 282 283 286 287 0
-12208 340 341 0
-340 12208 0
-341 12208 0
12208 337 338 339 342 343 0
-12202 12209 0
-12210 0
-12203 12211 0
-12209 12211 0
-12203 -12209 12212 0
-12210 12212 0
-12203 -12210 0
-12204 12213 0
-12211 12213 0
-12204 -12211 12214 0
-12212 12214 0
-12204 -12212 0
-12205 12215 0
-12213 12215 0
-12205 -12213 12216 0
-12214 12216 0
-12205 -12214 0
-12206 12217 0
-12215 12217 0
-12206 -12215 12218 0
-12216 12218 0
-12206 -12216 0
-12207 12219 0
-12217 12219 0
-12207 -12217 12220 0
-12218 12220 0
-12207 -12218 0
-12208 -12220 0
-12223 4 5 6 0
-4 12223 0
-5 12223 0
-6 12223 0
12223 1 2 3 7 0
-12224 60 61 62 0
-60 12224 0
-61 12224 0
-62 12224 0
12224 57 58 59 63 0
-12225 116 117 118 0
-116 12225 0
-117 12225 0
-118 12225 0
12225 113 114 115 119 0
-12226 172 173 174 0
-172 12226 0
-173 12226 0
-174 12226 0
12226 169 170 171 175 0
-12227 228 229 230 0
-228 12227 0
-229 12227 0
-230 12227 0
12227 225 226 227 231 0
-12228 284 285 286 0
-284 12228 0
-285 12228 0
-286 12228 0
12228 281 282 283 287 0
-12229 340 341 342 0
-340 12229 0
-341 12229 0
-342 12229 0
12229 337 338 339 343 0
-12223 12230 0
-12231 0
-12232 0
-12224 12233 0
-12230 12233 0
-12224 -12230 12234 0
-12231 12234 0
-12224 -12231 12235 0
-12232 12235 0
-12224 -12232 0
-12225 12236 0
-12233 12236 0
-12225 -12233 12237 0
-12234 12237 0
-12225 -12234 12238 0
-12235 12238 0
-12225 -12235 0
-12226 12239 0
-12236 12239 0
-12226 -12236 12240 0
-12237 12240 0
-12226 -12237 12241 0
-12238 12241 0
-12226 -12238 0
-12227 12242 0
-12239 12242 0
-12227 -12239 12243 0
-12240 12243 0
-12227 -12240 12244 0
-12241 12244 0
-12227 -12241 0
-12228 12245 0
-12242 12245 0
-12228 -12242 12246 0
-12243 12246 0
-12228 -12243 12247 0
-12244 12247 0
-12228 -12244 0
-12229 -12247 0
-12251 4 5 6 7 0
-4 12251 0
-5 12251 0
-6 12251 0
-7 12251 0
12251 1 2 3 0
-12252 60 61 62 63 0
-60 12252 0
-61 12252 0
-62 12252 0
-63 12252 0
12252 57 58 59 0
-12253 116 117 118 119 0
-116 12253 0
-117 12253 0
-118 12253 0
-119 12253 0
12253 113 114 115 0
-12254 172 173 174 175 0
-172 12254 0
-173 12254 0
-174 12254 0
-175 12254 0
12254 169 170 171 0
-12255 228 229 230 231 0
-228 12255 0
-229 12255 0
-230 12255 0
-231 12255 0
12255 225 226 227 0
-12256 284 285 286 287 0
-284 12256 0
-285 12256 0
-286 12256 0
-287 12256 0
12256 281 282 283 0
-12257 340 341 342 343 0
-340 12257 0
-341 12257 0
-342 12257 0
-343 12257 0
12257 337 338 339 0
-12251 12258 0
-12259 0
-12260 0
-12261 0
-12252 12262 0
-12258 12262 0
-12252 -12258 12263 0
-12259 12263 0
-12252 -12259 12264 0
-12260 12264 0
-12252 -12260 12265 0
-12261 12265 0
-12252 -12261 0
-12253 12266 0
-12262 12266 0
-12253 -12262 12267 0
-12263 12267 0
-12253 -12263 12268 0
-12264 12268 0
-12253 -12264 12269 0
-12265 12269 0
-12253 -12265 0
-12254 12270 0
-12266 12270 0
-12254 -12266 12271 0
-12267 12271 0
-12254 -12267 12272 0
-12268 12272 0
-12254 -12268 12273 0
-12269 12273 0
-12254 -12269 0
-12255 12274 0
-12270 12274 0
-12255 -12270 12275 0
-12271 12275 0
-12255 -12271 12276 0
-12272 12276 0
-12255 -12272 12277 0
-12273 12277 0
-12255 -12273 0
-12256 12278 0
-12274 12278 0
-12256 -12274 12279 0
-12275 12279 0
-12256 -12275 12280 0
-12276 12280 0
-12256 -12276 12281 0
-12277 12281 0
-12256 -12277 0
-12257 -12281 0
-12286 5 0
-5 12286 0
12286 1 2 3 4 6 7 0
-12287 61 0
-61 12287 0
12287 57 58 59 60 62 63 0
-12288 117 0
-117 12288 0
12288 113 114 115 116 118 119 0
-12289 173 0
-173 12289 0
12289 169 170 171 172 174 175 0
-12290 229 0
-229 12290 0
12290 225 226 227 228 230 231 0
-12291 285 0
-285 12291 0
12291 281 282 283 284 286 287 0
-12292 341 0
-341 12292 0
12292 337 338 339 340 342 343 0
-12286 12293 0
-12287 12294 0
-12293 12294 0
-12287 -12293 0
-12288 12295 0
-12294 12295 0
-12288 -12294 0
-12289 12296 0
-12295 12296 0
-12289 -12295 0
-12290 12297 0
-12296 12297 0
-12290 -12296 0
-12291 12298 0
-12297 12298 0
-12291 -12297 0
-12292 -12298 0
-12300 5 6 0
-5 12300 0
-6 12300 0
12300 1 2 3 4 7 0
-12301 61 62 0
-61 12301 0
-62 12301 0
12301 57 58 59 60 63 0
-12302 117 118 0
-117 12302 0
-118 12302 0
12302 113 114 115 116 119 0
-12303 173 174 0
-173 12303 0
-174 12303 0
12303 169 170 171 172 175 0
-12304 229 230 0
-229 12304 0
-230 12304 0
12304 225 226 227 228 231 0
-12305 285 286 0
-285 12305 0
-286 12305 0
12305 281 282 283 284 287 0
-12306 341 342 0
-341 12306 0
-342 12306 0
12306 337 338 339 340 343 0
-12300 12307 0
-12308 0
-12301 12309 0
-12307 12309 0
-12301 -12307 12310 0
-12308 12310 0
-12301 -12308 0
-12302 12311 0
-12309 12311 0
-12302 -12309 12312 0
-12310 12312 0
-12302 -12310 0
-12303 12313 0
-12311 12313 0
-12303 -12311 12314 0
-12312 12314 0
-12303 -12312 0
-12304 12315 0
-12313 12315 0
-12304 -12313 12316 0
-12314 12316 0
-12304 -12314 0
-12305 12317 0
-12315 12317 0
-12305 -12315 12318 0
-12316 12318 0
-12305 -12316 0
-12306 -12318 0
-12321 5 6 7 0
-5 12321 0
-6 12321 0
-7 12321 0
12321 1 2 3 4 0
-12322 61 62 63 0
-61 12322 0
-62 12322 0
-63 12322 0
12322 57 58 59 60 0
-12323 117 118 119 0
-117 12323 0
-118 12323 0
-119 12323 0
12323 113 114 115 116 0
-12324 173 174 175 0
-173 12324 0
-174 12324 0
-175 12324 0
12324 169 170 171 172 0
-12325 229 230 231 0
-229 12325 0
-230 12325 0
-231 12325 0
12325 225 226 227 228 0
-12326 285 286 287 0
-285 12326 0
-286 12326 0
-287 12326 0
12326 281 282 283 284 0
-12327 341 342 343 0
-341 12327 0
-342 12327 0
-343 12327 0
12327 337 338 339 340 0
-12321 12328 0
-12329 0
-12330 0
-12322 12331 0
-12328 12331 0
-12322 -12328 12332 0
-12329 12332 0
-12322 -12329 12333 0
-12330 12333 0
-12322 -12330 0
-12323 12334 0
-12331 12334 0
-12323 -12331 12335 0
-12332 12335 0
-12323 -12332 12336 0
-12333 12336 0
-12323 -12333 0
-12324 12337 0
-12334 12337 0
-12324 -12334 12338 0
-12335 12338 0
-12324 -12335 12339 0
-12336 12339 0
-12324 -12336 0
-12325 12340 0
-12337 12340 0
-12325 -12337 12341 0
-12338 12341 0
-12325 -12338 12342 0
-12339 12342 0
-12325 -12339 0
-12326 12343 0
-12340 12343 0
-12326 -12340 12344 0
-12341 12344 0
-12326 -12341 12345 0
-12342 12345 0
-12326 -12342 0
-12327 -12345 0
-12349 6 0
-6 12349 0
12349 1 2 3 4 5 7 0
-12350 62 0
-62 12350 0
12350 57 58 59 60 61 63 0
-12351 118 0
-118 12351 0
12351 113 114 115 116 117 119 0
-12352 174 0
-174 12352 0
12352 169 170 171 172 173 175 0
-12353 230 0
-230 12353 0
12353 225 226 227 228 229 231 0
-12354 286 0
-286 12354 0
12354 281 282 283 284 285 287 0
-12355 342 0
-342 12355 0
12355 337 338 339 340 341 343 0
-12349 12356 0
-12350 12357 0
-12356 12357 0
-12350 -12356 0
-12351 12358 0
-12357 12358 0
-12351 -12357 0
-12352 12359 0
-12358 12359 0
-12352 -12358 0
-12353 12360 0
-12359 12360 0
-12353 -12359 0
-12354 12361 0
-12360 12361 0
-12354 -12360 0
-12355 -12361 0
-12363 6 7 0
-6 12363 0
-7 12363 0
12363 1 2 3 4 5 0
-12364 62 63 0
-62 12364 0
-63 12364 0
12364 57 58 59 60 61 0
-12365 118 119 0
-118 12365 0
-119 12365 0
12365 113 114 115 116 117 0
-12366 174 175 0
-174 12366 0
-175 12366 0
12366 169 170 171 172 173 0
-12367 230 231 0
-230 12367 0
-231 12367 0
12367 225 226 227 228 229 0
-12368 286 287 0
-286 12368 0
-287 12368 0
12368 281 282 283 284 285 0
-12369 342 343 0
-342 12369 0
-343 12369 0
12369 337 338 339 340 341 0
-12363 12370 0
-12371 0
-12364 12372 0
-12370 12372 0
-12364 -12370 12373 0
-12371 12373 0
-12364 -12371 0
-12365 12374 0
-12372 12374 0
-12365 -12372 12375 0
-12373 12375 0
-12365 -12373 0
-12366 12376 0
-12374 12376 0
-12366 -12374 12377 0
-12375 12377 0
-12366 -12375 0
-12367 12378 0
-12376 12378 0
-12367 -12376 12379 0
-12377 12379 0
-12367 -12377 0
-12368 12380 0
-12378 12380 0
-12368 -12378 12381 0
-12379 12381 0
-12368 -12379 0
-12369 -12381 0
-12384 7 0
-7 12384 0
12384 1 2 3 4 5 6 0
-12385 63 0
-63 12385 0
12385 57 58 59 60 61 62 0
-12386 119 0
-119 12386 0
12386 113 114 115 116 117 118 0
-12387 175 0
-175 12387 0
12387 169 170 171 172 173 174 0
-12388 231 0
-231 12388 0
12388 225 226 227 228 229 230 0
-12389 287 0
-287 12389 0
12389 281 282 283 284 285 286 0
-12390 343 0
-343 12390 0
12390 337 338 339 340 341 342 0
-12384 12391 0
-12385 12392 0
-12391 12392 0
-12385 -12391 0
-12386 12393 0
-12392 12393 0
-12386 -12392 0
-12387 12394 0
-12393 12394 0
-12387 -12393 0
-12388 12395 0
-12394 12395 0
-12388 -12394 0
-12389 12396 0
-12395 12396 0
-12389 -12395 0
-12390 -12396 0
-1 12398 0
-57 12399 0
-12398 12399 0
-57 -12398 0
-113 12400 0
-12399 12400 0
-113 -12399 0
-169 12401 0
-12400 12401 0
-169 -12400 0
-225 12402 0
-12401 12402 0
-225 -12401 0
-281 12403 0
-12402 12403 0
-281 -12402 0
-337 -12403 0
1 57 113 169 225 281 337 0
-2 12405 0
-58 12406 0
-12405 12406 0
-58 -12405 0
-114 12407 0
-12406 12407 0
-114 -12406 0
-170 12408 0
-12407 12408 0
-170 -12407 0
-226 12409 0
-12408 12409 0
-226 -12408 0
-282 12410 0
-12409 12410 0
-282 -12409 0
-338 -12410 0
2 58 114 170 226 282 338 0
-3 12412 0
-59 12413 0
-12412 12413 0
-59 -12412 0
-115 12414 0
-12413 12414 0
-115 -12413 0
-171 12415 0
-12414 12415 0
-171 -12414 0
-227 12416 0
-12415 12416 0
-227 -12415 0
-283 12417 0
-12416 12417 0
-283 -12416 0
-339 -12417 0
3 59 115 171 227 283 339 0
-4 12419 0
-60 12420 0
-12419 12420 0
-60 -12419 0
-116 12421 0
-12420 12421 0
-116 -12420 0
-172 12422 0
-12421 12422 0
-172 -12421 0
-228 12423 0
-12422 12423 0
-228 -12422 0
-284 12424 0
-12423 12424 0
-284 -12423 0
-340 -12424 0
4 60 116 172 228 284 340 0
-5 12426 0
-61 12427 0
-12426 12427 0
-61 -12426 0
-117 12428 0
-12427 12428 0
-117 -12427 0
-173 12429 0
-12428 12429 0
-173 -12428 0
-229 12430 0
-12429 12430 0
-229 -12429 0
-285 12431 0
-12430 12431 0
-285 -12430 0
-341 -12431 0
5 61 117 173 229 285 341 0
-6 12433 0
-62 12434 0
-12433 12434 0
-62 -12433 0
-118 12435 0
-12434 12435 0
-118 -12434 0
-174 12436 0
-12435 12436 0
-174 -12435 0
-230 12437 0
-12436 12437 0
-230 -12436 0
-286 12438 0
-12437 12438 0
-286 -12437 0
-342 -12438 0
6 62 118 174 230 286 342 0
-7 12440 0
-63 12441 0
-12440 12441 0
-63 -12440 0
-119 12442 0
-12441 12442 0
-119 -12441 0
-175 12443 0
-12442 12443 0
-175 -12442 0
-231 12444 0
-12443 12444 0
-231 -12443 0
-287 12445 0
-12444 12445 0
-287 -12444 0
-343 -12445 0
7 63 119 175 231 287 343 0
-12447 8 0
-8 12447 0
12447 9 10 11 12 13 14 0
-12448 64 0
-64 12448 0
12448 65 66 67 68 69 70 0
-12449 120 0
-120 12449 0
12449 121 122 123 124 125 126 0
-12450 176 0
-176 12450 0
12450 177 178 179 180 181 182 0
-12451 232 0
-232 12451 0
12451 233 234 235 236 237 238 0
-12452 288 0
-288 12452 0
12452 289 290 291 292 293 294 0
-12453 295 0
-295 12453 0
12453 296 297 298 299 300 301 0
-12447 12454 0
-12448 12455 0
-12454 12455 0
-12448 -12454 0
-12449 12456 0
-12455 12456 0
-12449 -12455 0
-12450 12457 0
-12456 12457 0
-12450 -12456 0
-12451 12458 0
-12457 12458 0
-12451 -12457 0
-12452 12459 0
-12458 12459 0
-12452 -12458 0
-12453 -12459 0
-12461 8 9 0
-8 12461 0
-9 12461 0
12461 10 11 12 13 14 0
-12462 64 65 0
-64 12462 0
-65 12462 0
12462 66 67 68 69 70 0
-12463 120 121 0
-120 12463 0
-121 12463 0
12463 122 123 124 125 126 0
-12464 176 177 0
-176 12464 0
-177 12464 0
12464 178 179 180 181 182 0
-12465 232 233 0
-232 12465 0
-233 12465 0
12465 234 235 236 237 238 0
-12466 288 289 0
-288 12466 0
-289 12466 0
12466 290 291 292 293 294 0
-12467 295 296 0
-295 12467 0
-296 12467 0
12467 297 298 299 300 301 0
-12461 12468 0
-12469 0
-12462 12470 0
-12468 12470 0
-12462 -12468 12471 0
-12469 12471 0
-12462 -12469 0
-12463 12472 0
-12470 12472 0
-12463 -12470 12473 0
-12471 12473 0
-12463 -12471 0
-12464 12474 0
-12472 12474 0
-12464 -12472 12475 0
-12473 12475 0
-12464 -12473 0
-12465 12476 0
-12474 12476 0
-12465 -12474 12477 0
-12475 12477 0
-12465 -12475 0
-12466 12478 0
-12476 12478 0
-12466 -12476 12479 0
-12477 12479 0
-12466 -12477 0
-12467 -12479 0
-12482 8 9 10 0
-8 12482 0
-9 12482 0
-10 12482 0
12482 11 12 13 14 0
-12483 64 65 66 0
-64 12483 0
-65 12483 0
-66 12483 0
12483 67 68 69 70 0
-12484 120 121 122 0
-120 12484 0
-121 12484 0
-122 12484 0
12484 123 124 125 126 0
-12485 176 177 178 0
-176 12485 0
-177 12485 0
-178 12485 0
12485 179 180 181 182 0
-12486 232 233 234 0
-232 12486 0
-233 12486 0
-234 12486 0
12486 235 236 237 238 0
-12487 288 289 290 0
-288 12487 0
-289 12487 0
-290 12487 0
12487 291 292 293 294 0
-12488 295 296 297 0
-295 12488 0
-296 12488 0
-297 12488 0
12488 298 299 300 301 0
-12482 12489 0
-12490 0
-12491 0
-12483 12492 0
-12489 12492 0
-12483 -12489 12493 0
-12490 12493 0
-12483 -12490 12494 0
-12491 12494 0
-12483 -12491 0
-12484 12495 0
-12492 12495 0
-12484 -12492 12496 0
-12493 12496 0
-12484 -12493 12497 0
-12494 12497 0
-12484 -12494 0
-12485 12498 0
-12495 12498 0
-12485 -12495 12499 0
-12496 12499 0
-12485 -12496 12500 0
-12497 12500 0
-12485 -12497 0
-12486 12501 0
-12498 12501 0
-12486 -12498 12502 0
-12499 12502 0
-12486 -12499 12503 0
-12500 12503 0
-12486 -12500 0
-12487 12504 0
-12501 12504 0
-12487 -12501 12505 0
-12502 12505 0
-12487 -12502 12506 0
-12503 12506 0
-12487 -12503 0
-12488 -12506 0
-12510 8 9 10 11 0
-8 12510 0
-9 12510 0
-10 12510 0
-11 12510 0
12510 12 13 14 0
-12511 64 65 66 67 0
-64 12511 0
-65 12511 0
-66 12511 0
-67 12511 0
12511 68 69 70 0
-12512 120 121 122 123 0
-120 12512 0
-121 12512 0
-122 12512 0
-123 12512 0
12512 124 125 126 0
-12513 176 177 178 179 0
-176 12513 0
-177 12513 0
-178 12513 0
-179 12513 0
12513 180 181 182 0
-12514 232 233 234 235 0
-232 12514 0
-233 12514 0
-234 12514 0
-235 12514 0
12514 236 237 238 0
-12515 288 289 290 291 0
-288 12515 0
-289 12515 0
-290 12515 0
-291 12515 0
12515 292 293 294 0
-12516 295 296 297 298 0
-295 12516 0
-296 12516 0
-297 12516 0
-298 12516 0
12516 299 300 301 0
-12510 12517 0
-12518 0
-12519 0
-12520 0
-12511 12521 0
-12517 12521 0
-12511 -12517 12522 0
-12518 12522 0
-12511 -12518 12523 0
-12519 12523 0
-12511 -12519 12524 0
-12520 12524 0
-12511 -12520 0
-12512 12525 0
-12521 12525 0
-12512 -12521 12526 0
-12522 12526 0
-12512 -12522 12527 0
-12523 12527 0
-12512 -12523 12528 0
-12524 12528 0
-12512 -12524 0
-12513 12529 0
-12525 12529 0
-12513 -12525 12530 0
-12526 12530 0
-12513 -12526 12531 0
-12527 12531 0
-12513 -12527 12532 0
-12528 12532 0
-12513 -12528 0
-12514 12533 0
-12529 12533 0
-12514 -12529 12534 0
-12530 12534 0
-12514 -12530 12535 0
-12531 12535 0
-12514 -12531 12536 0
-12532 12536 0
-12514 -12532 0
-12515 12537 0
-12533 12537 0
-12515 -12533 12538 0
-12534 12538 0
-12515 -12534 12539 0
-12535 12539 0
-12515 -12535 12540 0
-12536 12540 0
-12515 -12536 0
-12516 -12540 0
-12545 8 9 10 11 12 0
-8 12545 0
-9 12545 0
-10 12545 0
-11 12545 0
-12 12545 0
12545 13 14 0
-12546 64 65 66 67 68 0
-64 12546 0
-65 12546 0
-66 12546 0
-67 12546 0
-68 12546 0
12546 69 70 0
-12547 120 121 122 123 124 0
-120 12547 0
-121 12547 0
-122 12547 0
-123 12547 0
-124 12547 0
12547 125 126 0
-12548 176 177 178 179 180 0
-176 12548 0
-177 12548 0
-178 12548 0
-179 12548 0
-180 12548 0
12548 181 182 0
-12549 232 233 234 235 236 0
-232 12549 0
-233 12549 0
-234 12549 0
-235 12549 0
-236 12549 0
12549 237 238 0
-12550 288 289 290 291 292 0
-288 12550 0
-289 12550 0
-290 12550 0
-291 12550 0
-292 12550 0
12550 293 294 0
-12551 295 296 297 298 299 0
-295 12551 0
-296 12551 0
-297 12551 0
-298 12551 0
-299 12551 0
12551 300 301 0
-12545 12552 0
-12553 0
-12554 0
-12555 0
-12556 0
-12546 12557 0
-12552 12557 0
-12546 -12552 12558 0
-12553 12558 0
-12546 -12553 12559 0
-12554 12559 0
-12546 -12554 12560 0
-12555 12560 0
-12546 -12555 12561 0
-12556 12561 0
-12546 -12556 0
-12547 12562 0
-12557 12562 0
-12547 -12557 12563 0
-12558 12563 0
-12547 -12558 12564 0
-12559 12564 0
-12547 -12559 12565 0
-12560 12565 0
-12547 -12560 12566 0
-12561 12566 0
-12547 -12561 0
-12548 12567 0
-12562 12567 0
-12548 -12562 12568 0
-12563 12568 0
-12548 -12563 12569 0
-12564 12569 0
-12548 -12564 12570 0
-12565 12570 0
-12548 -12565 12571 0
-12566 12571 0
-12548 -12566 0
-12549 12572 0
-12567 12572 0
-12549 -12567 12573 0
-12568 12573 0
-12549 -12568 12574 0
-12569 12574 0
-12549 -12569 12575 0
-12570 12575 0
-12549 -12570 12576 0
-12571 12576 0
-12549 -12571 0
-12550 12577 0
-12572 12577 0
-12550 -12572 12578 0
-12573 12578 0
-12550 -12573 12579 0
-12574 12579 0
-12550 -12574 12580 0
-12575 12580 0
-12550 -12575 12581 0
-12576 12581 0
-12550 -12576 0
-12551 -12581 0
-12587 8 9 10 11 12 13 0
-8 12587 0
-9 12587 0
-10 12587 0
-11 12587 0
-12 12587 0
-13 12587 0
12587 14 0
-12588 64 65 66 67 68 69 0
-64 12588 0
-65 12588 0
-66 12588 0
-67 12588 0
-68 12588 0
-69 12588 0
12588 70 0
-12589 120 121 122 123 124 125 0
-120 12589 0
-121 12589 0
-122 12589 0
-123 12589 0
-124 12589 0
-125 12589 0
12589 126 0
-12590 176 177 178 179 180 181 0
-176 12590 0
-177 12590 0
-178 12590 0
-179 12590 0
-180 12590 0
-181 12590 0
12590 182 0
-12591 232 233 234 235 236 237 0
-232 12591 0
-233 12591 0
-234 12591 0
-235 12591 0
-236 12591 0
-237 12591 0
12591 238 0
-12592 288 289 290 291 292 293 0
-288 12592 0
-289 12592 0
-290 12592 0
-291 12592 0
-292 12592 0
-293 12592 0
12592 294 0
-12593 295 296 297 298 299 300 0
-295 12593 0
-296 12593 0
-297 12593 0
-298 12593 0
-299 12593 0
-300 12593 0
12593 301 0
-12587 12594 0
-12595 0
-12596 0
-12597 0
-12598 0
-12599 0
-12588 12600 0
-12594 12600 0
-12588 -12594 12601 0
-12595 12601 0
-12588 -12595 12602 0
-12596 12602 0
-12588 -12596 12603 0
-12597 12603 0
-12588 -12597 12604 0
-12598 12604 0
-12588 -12598 12605 0
-12599 12605 0
-12588 -12599 0
-12589 12606 0
-12600 12606 0
-12589 -12600 12607 0
-12601 12607 0
-12589 -12601 12608 0
-12602 12608 0
-12589 -12602 12609 0
-12603 12609 0
-12589 -12603 12610 0
-12604 12610 0
-12589 -12604 12611 0
-12605 12611 0
-12589 -12605 0
-12590 12612 0
-12606 12612 0
-12590 -12606 12613 0
-12607 12613 0
-12590 -12607 12614 0
-12608 12614 0
-12590 -12608 12615 0
-12609 12615 0
-12590 -12609 12616 0
-12610 12616 0
-12590 -12610 12617 0
-12611 12617 0
-12590 -12611 0
-12591 12618 0
-12612 12618 0
-12591 -12612 12619 0
-12613 12619 0
-12591 -12613 12620 0
-12614 12620 0
-12591 -12614 12621 0
-12615 12621 0
-12591 -12615 12622 0
-12616 12622 0
-12591 -12616 12623 0
-12617 12623 0
-12591 -12617 0
-12592 12624 0
-12618 12624 0
-12592 -12618 12625 0
-12619 12625 0
-12592 -12619 12626 0
-12620 12626 0
-12592 -12620 12627 0
-12621 12627 0
-12592 -12621 12628 0
-12622 12628 0
-12592 -12622 12629 0
-12623 12629 0
-12592 -12623 0
-12593 -12629 0
-12636 8 9 10 11 12 13 14 0
-8 12636 0
-9 12636 0
-10 12636 0
-11 12636 0
-12 12636 0
-13 12636 0
-14 12636 0
12636 0
-12637 64 65 66 67 68 69 70 0
-64 12637 0
-65 12637 0
-66 12637 0
-67 12637 0
-68 12637 0
-69 12637 0
-70 12637 0
12637 0
-12638 120 121 122 123 124 125 126 0
-120 12638 0
-121 12638 0
-122 12638 0
-123 12638 0
-124 12638 0
-125 12638 0
-126 12638 0
12638 0
-12639 176 177 178 179 180 181 182 0
-176 12639 0
-177 12639 0
-178 12639 0
-179 12639 0
-180 12639 0
-181 12639 0
-182 12639 0
12639 0
-12640 232 233 234 235 236 237 238 0
-232 12640 0
-233 12640 0
-234 12640 0
-235 12640 0
-236 12640 0
-237 12640 0
-238 12640 0
12640 0
-12641 288 289 290 291 292 293 294 0
-288 12641 0
-289 12641 0
-290 12641 0
-291 12641 0
-292 12641 0
-293 12641 0
-294 12641 0
12641 0
-12642 295 296 297 298 299 300 301 0
-295 12642 0
-296 12642 0
-297 12642 0
-298 12642 0
-299 12642 0
-300 12642 0
-301 12642 0
12642 0
-12643 9 0
-9 12643 0
12643 8 10 11 12 13 14 0
-12644 65 0
-65 12644 0
12644 64 66 67 68 69 70 0
-12645 121 0
-121 12645 0
12645 120 122 123 124 125 126 0
-12646 177 0
-177 12646 0
12646 176 178 179 180 181 182 0
-12647 233 0
-233 12647 0
12647 232 234 235 236 237 238 0
-12648 289 0
-289 12648 0
12648 288 290 291 292 293 294 0
-12649 296 0
-296 12649 0
12649 295 297 298 299 300 301 0
-12643 12650 0
-12644 12651 0
-12650 12651 0
-12644 -12650 0
-12645 12652 0
-12651 12652 0
-12645 -12651 0
-12646 12653 0
-12652 12653 0
-12646 -12652 0
-12647 12654 0
-12653 12654 0
-12647 -12653 0
-12648 12655 0
-12654 12655 0
-12648 -12654 0
-12649 -12655 0
-12657 9 10 0
-9 12657 0
-10 12657 0
12657 8 11 12 13 14 0
-12658 65 66 0
-65 12658 0
-66 12658 0
12658 64 67 68 69 70 0
-12659 121 122 0
-121 12659 0
-122 12659 0
12659 120 123 124 125 126 0
-12660 177 178 0
-177 12660 0
-178 12660 0
12660 176 179 180 181 182 0
-12661 233 234 0
-233 12661 0
-234 12661 0
12661 232 235 236 237 238 0
-12662 289 290 0
-289 12662 0
-290 12662 0
12662 288 291 292 293 294 0
-12663 296 297 0
-296 12663 0
-297 12663 0
12663 295 298 299 300 301 0
-12657 12664 0
-12665 0
-12658 12666 0
-12664 12666 0
-12658 -12664 12667 0
-12665 12667 0
-12658 -12665 0
-12659 12668 0
-12666 12668 0
-12659 -12666 12669 0
-12667 12669 0
-12659 -12667 0
-12660 12670 0
-12668 12670 0
-12660 -12668 12671 0
-12669 12671 0
-12660 -12669 0
-12661 12672 0
-12670 12672 0
-12661 -12670 12673 0
-12671 12673 0
-12661 -12671 0
-12662 12674 0
-12672 12674 0
-12662 -12672 12675 0
-12673 12675 0
-12662 -12673 0
-12663 -12675 0
-12678 9 10 11 0
-9 12678 0
-10 12678 0
-11 12678 0
12678 8 12 13 14 0
-12679 65 66 67 0
-65 12679 0
-66 12679 0
-67 12679 0
12679 64 68 69 70 0
-12680 121 122 123 0
-121 12680 0
-122 12680 0
-123 12680 0
12680 120 124 125 126 0
-12681 177 178 179 0
-177 12681 0
-178 12681 0
-179 12681 0
12681 176 180 181 182 0
-12682 233 234 235 0
-233 12682 0
-234 12682 0
-235 12682 0
12682 232 236 237 238 0
-12683 289 290 291 0
-289 12683 0
-290 12683 0
-291 12683 0
12683 288 292 293 294 0
-12684 296 297 298 0
-296 12684 0
-297 12684 0
-298 12684 0
12684 295 299 300 301 0
-12678 12685 0
-12686 0
-12687 0
-12679 12688 0
-12685 12688 0
-12679 -12685 12689 0
-12686 12689 0
-12679 -12686 12690 0
-12687 12690 0
-12679 -12687 0
-12680 12691 0
-12688 12691 0
-12680 -12688 12692 0
-12689 12692 0
-12680 -12689 12693 0
-12690 12693 0
-12680 -12690 0
-12681 12694 0
-12691 12694 0
-12681 -12691 12695 0
-12692 12695 0
-12681 -12692 12696 0
-12693 12696 0
-12681 -12693 0
-12682 12697 0
-12694 12697 0
-12682 -12694 12698 0
-12695 12698 0
-12682 -12695 12699 0
-12696 12699 0
-12682 -12696 0
-12683 12700 0
-12697 12700 0
-12683 -12697 12701 0
-12698 12701 0
-12683 -12698 12702 0
-12699 12702 0
-12683 -12699 0
-12684 -12702 0
-12706 9 10 11 12 0
-9 12706 0
-10 12706 0
-11 12706 0
-12 12706 0
12706 8 13 14 0
-12707 65 66 67 68 0
-65 12707 0
-66 12707 0
-67 12707 0
-68 12707 0
12707 64 69 70 0
-12708 121 122 123 124 0
-121 12708 0
-122 12708 0
-123 12708 0
-124 12708 0
12708 120 125 126 0
-12709 177 178 179 180 0
-177 12709 0
-178 12709 0
-179 12709 0
-180 12709 0
12709 176 181 182 0
-12710 233 234 235 236 0
-233 12710 0
-234 12710 0
-235 12710 0
-236 12710 0
12710 232 237 238 0
-12711 289 290 291 292 0
-289 12711 0
-290 12711 0
-291 12711 0
-292 12711 0
12711 288 293 294 0
-12712 296 297 298 299 0
-296 12712 0
-297 12712 0
-298 12712 0
-299 12712 0
12712 295 300 301 0
-12706 12713 0
-12714 0
-12715 0
-12716 0
-12707 12717 0
-12713 12717 0
-12707 -12713 12718 0
-12714 12718 0
-12707 -12714 12719 0
-12715 12719 0
-12707 -12715 12720 0
-12716 12720 0
-12707 -12716 0
-12708 12721 0
-12717 12721 0
-12708 -12717 12722 0
-12718 12722 0
-12708 -12718 12723 0
-12719 12723 0
-12708 -12719 12724 0
-12720 12724 0
-12708 -12720 0
-12709 12725 0
-12721 12725 0
-12709 -12721 12726 0
-12722 12726 0
-12709 -12722 12727 0
-12723 12727 0
-12709 -12723 12728 0
-12724 12728 0
-12709 -12724 0
-12710 12729 0
-12725 12729 0
-12710 -12725 12730 0
-12726 12730 0
-12710 -12726 12731 0
-12727 12731 0
-12710 -12727 12732 0
-12728 12732 0
-12710 -12728 0
-12711 12733 0
-12729 12733 0
-12711 -12729 12734 0
-12730 12734 0
-12711 -12730 12735 0
-12731 12735 0
-12711 -12731 12736 0
-12732 12736 0
-12711 -12732 0
-12712 -12736 0
-12741 9 10 11 12 13 0
-9 12741 0
-10 12741 0
-11 12741 0
-12 12741 0
-13 12741 0
12741 8 14 0
-12742 65 66 67 68 69 0
-65 12742 0
-66 12742 0
-67 12742 0
-68 12742 0
-69 12742 0
12742 64 70 0
-12743 121 122 123 124 125 0
-121 12743 0
-122 12743 0
-123 12743 0
-124 12743 0
-125 12743 0
12743 120 126 0
-12744 177 178 179 180 181 0
-177 12744 0
-178 12744 0
-179 12744 0
-180 12744 0
-181 12744 0
12744 176 182 0
-12745 233 234 235 236 237 0
-233 12745 0
-234 12745 0
-235 12745 0
-236 12745 0
-237 12745 0
12745 232 238 0
-12746 289 290 291 292 293 0
-289 12746 0
-290 12746 0
-291 12746 0
-292 12746 0
-293 12746 0
12746 288 294 0
-12747 296 297 298 299 300 0
-296 12747 0
-297 12747 0
-298 12747 0
-299 12747 0
-300 12747 0
12747 295 301 0
-12741 12748 0
-12749 0
-12750 0
-12751 0
-12752 0
-12742 12753 0
-12748 12753 0
-12742 -12748 12754 0
-12749 12754 0
-12742 -12749 12755 0
-12750 12755 0
-12742 -12750 12756 0
-12751 12756 0
-12742 -12751 12757 0
-12752 12757 0
-12742 -12752 0
-12743 12758 0
-12753 12758 0
-12743 -12753 12759 0
-12754 12759 0
-12743 -12754 12760 0
-12755 12760 0
-12743 -12755 12761 0
-12756 12761 0
-12743 -12756 12762 0
-12757 12762 0
-12743 -12757 0
-12744 12763 0
-12758 12763 0
-12744 -12758 12764 0
-12759 12764 0
-12744 -12759 12765 0
-12760 12765 0
-12744 -12760 12766 0
-12761 12766 0
-12744 -12761 12767 0
-12762 12767 0
-12744 -12762 0
-12745 12768 0
-12763 12768 0
-12745 -12763 12769 0
-12764 12769 0
-12745 -12764 12770 0
-12765 12770 0
-12745 -12765 12771 0
-12766 12771 0
-12745 -12766 12772 0
-12767 12772 0
-12745 -12767 0
-12746 12773 0
-12768 12773 0
-12746 -12768 12774 0
-12769 12774 0
-12746 -12769 12775 0
-12770 12775 0
-12746 -12770 12776 0
-12771 12776 0
-12746 -12771 12777 0
-12772 12777 0
-12746 -12772 0
-12747 -12777 0
-12783 9 10 11 12 13 14 0
-9 12783 0
-10 12783 0
-11 12783 0
-12 12783 0
-13 12783 0
-14 12783 0
12783 8 0
-12784 65 66 67 68 69 70 0
-65 12784 0
-66 12784 0
-67 12784 0
-68 12784 0
-69 12784 0
-70 12784 0
12784 64 0
-12785 121 122 123 124 125 126 0
-121 12785 0
-122 12785 0
-123 12785 0
-124 12785 0
-125 12785 0
-126 12785 0
12785 120 0
-12786 177 178 179 180 181 182 0
-177 12786 0
-178 12786 0
-179 12786 0
-180 12786 0
-181 12786 0
-182 12786 0
12786 176 0
-12787 233 234 235 236 237 238 0
-233 12787 0
-234 12787 0
-235 12787 0
-236 12787 0
-237 12787 0
-238 12787 0
12787 232 0
-12788 289 290 291 292 293 294 0
-289 12788 0
-290 12788 0
-291 12788 0
-292 12788 0
-293 12788 0
-294 12788 0
12788 288 0
-12789 296 297 298 299 300 301 0
-296 12789 0
-297 12789 0
-298 12789 0
-299 12789 0
-300 12789 0
-301 12789 0
12789 295 0
-12783 12790 0
-12791 0
-12792 0
-12793 0
-12794 0
-12795 0
-12784 12796 0
-12790 12796 0
-12784 -12790 12797 0
-12791 12797 0
-12784 -12791 12798 0
-12792 12798 0
-12784 -12792 12799 0
-12793 12799 0
-12784 -12793 12800 0
-12794 12800 0
-12784 -12794 12801 0
-12795 12801 0
-12784 -12795 0
-12785 12802 0
-12796 12802 0
-12785 -12796 12803 0
-12797 12803 0
-12785 -12797 12804 0
-12798 12804 0
-12785 -12798 12805 0
-12799 12805 0
-12785 -12799 12806 0
-12800 12806 0
-12785 -12800 12807 0
-12801 12807 0
-12785 -12801 0
-12786 12808 0
-12802 12808 0
-12786 -12802 12809 0
-12803 12809 0
-12786 -12803 12810 0
-12804 12810 0
-12786 -12804 12811 0
-12805 12811 0
-12786 -12805 12812 0
-12806 12812 0
-12786 -12806 12813 0
-12807 12813 0
-12786 -12807 0
-12787 12814 0
-12808 12814 0
-12787 -12808 12815 0
-12809 12815 0
-12787 -12809 12816 0
-12810 12816 0
-12787 -12810 12817 0
-12811 12817 0
-12787 -12811 12818 0
-12812 12818 0
-12787 -12812 12819 0
-12813 12819 0
-12787 -12813 0
-12788 12820 0
-12814 12820 0
-12788 -12814 12821 0
-12815 12821 0
-12788 -12815 12822 0
-12816 12822 0
-12788 -12816 12823 0
-12817 12823 0
-12788 -12817 12824 0
-12818 12824 0
-12788 -12818 12825 0
-12819 12825 0
-12788 -12819 0
-12789 -12825 0
-12832 10 0
-10 12832 0
12832 8 9 11 12 13 14 0
-12833 66 0
-66 12833 0
12833 64 65 67 68 69 70 0
-12834 122 0
-122 12834 0
12834 120 121 123 124 125 126 0
-12835 178 0
-178 12835 0
12835 176 177 179 180 181 182 0
-12836 234 0
-234 12836 0
12836 232 233 235 236 237 238 0
-12837 290 0
-290 12837 0
12837 288 289 291 292 293 294 0
-12838 297 0
-297 12838 0
12838 295 296 298 299 300 301 0
-12832 12839 0
-12833 12840 0
-12839 12840 0
-12833 -12839 0
-12834 12841 0
-12840 12841 0
-12834 -12840 0
-12835 12842 0
-12841 12842 0
-12835 -12841 0
-12836 12843 0
-12842 12843 0
-12836 -12842 0
-12837 12844 0
-12843 12844 0
-12837 -12843 0
-12838 -12844 0
-12846 10 11 0
-10 12846 0
-11 12846 0
12846 8 9 12 13 14 0
-12847 66 67 0
-66 12847 0
-67 12847 0
12847 64 65 68 69 70 0
-12848 122 123 0
-122 12848 0
-123 12848 0
12848 120 121 124 125 126 0
-12849 178 179 0
-178 12849 0
-179 12849 0
12849 176 177 180 181 182 0
-12850 234 235 0
-234 12850 0
-235 12850 0
12850 232 233 236 237 238 0
-12851 290 291 0
-290 12851 0
-291 12851 0
12851 288 289 292 293 294 0
-12852 297 298 0
-297 12852 0
-298 12852 0
12852 295 296 299 300 301 0
-12846 12853 0
-12854 0
-12847 12855 0
-12853 12855 0
-12847 -12853 12856 0
-12854 12856 0
-12847 -12854 0
-12848 12857 0
-12855 12857 0
-12848 -12855 12858 0
-12856 12858 0
-12848 -12856 0
-12849 12859 0
-12857 12859 0
-12849 -12857 12860 0
-12858 12860 0
-12849 -12858 0
-12850 12861 0
-12859 12861 0
-12850 -12859 12862 0
-12860 12862 0
-12850 -12860 0
-12851 12863 0
-12861 12863 0
-12851 -12861 12864 0
-12862 12864 0
-12851 -12862 0
-12852 -12864 0
-12867 10 11 12 0
-10 12867 0
-11 12867 0
-12 12867 0
12867 8 9 13 14 0
-12868 66 67 68 0
-66 12868 0
-67 12868 0
-68 12868 0
12868 64 65 69 70 0
-12869 122 123 124 0
-122 12869 0
-123 12869 0
-124 12869 0
12869 120 121 125 126 0
-12870 178 179 180 0
-178 12870 0
-179 12870 0
-180 12870 0
12870 176 177 181 182 0
-12871 234 235 236 0
-234 12871 0
-235 12871 0
-236 12871 0
12871 232 233 237 238 0
-12872 290 291 292 0
-290 12872 0
-291 12872 0
-292 12872 0
12872 288 289 293 294 0
-12873 297 298 299 0
-297 12873 0
-298 12873 0
-299 12873 0
12873 295 296 300 301 0
-12867 12874 0
-12875 0
-12876 0
-12868 12877 0
-12874 12877 0
-12868 -12874 12878 0
-12875 12878 0
-12868 -12875 12879 0
-12876 12879 0
-12868 -12876 0
-12869 12880 0
-12877 12880 0
-12869 -12877 12881 0
-12878 12881 0
-12869 -12878 12882 0
-12879 12882 0
-12869 -12879 0
-12870 12883 0
-12880 12883 0
-12870 -12880 12884 0
-12881 12884 0
-12870 -12881 12885 0
-12882 12885 0
-12870 -12882 0
-12871 12886 0
-12883 12886 0
-12871 -12883 12887 0
-12884 12887 0
-12871 -12884 12888 0
-12885 12888 0
-12871 -12885 0
-12872 12889 0
-12886 12889 0
-12872 -12886 12890 0
-12887 12890 0
-12872 -12887 12891 0
-12888 12891 0
-12872 -12888 0
-12873 -12891 0
-12895 10 11 12 13 0
-10 12895 0
-11 12895 0
-12 12895 0
-13 12895 0
12895 8 9 14 0
-12896 66 67 68 69 0
-66 12896 0
-67 12896 0
-68 12896 0
-69 12896 0
12896 64 65 70 0
-12897 122 123 124 125 0
-122 12897 0
-123 12897 0
-124 12897 0
-125 12897 0
12897 120 121 126 0
-12898 178 179 180 181 0
-178 12898 0
-179 12898 0
-180 12898 0
-181 12898 0
12898 176 177 182 0
-12899 234 235 236 237 0
-234 12899 0
-235 12899 0
-236 12899 0
-237 12899 0
12899 232 233 238 0
-12900 290 291 292 293 0
-290 12900 0
-291 12900 0
-292 12900 0
-293 12900 0
12900 288 289 294 0
-12901 297 298 299 300 0
-297 12901 0
-298 12901 0
-299 12901 0
-300 12901 0
12901 295 296 301 0
-12895 12902 0
-12903 0
-12904 0
-12905 0
-12896 12906 0
-12902 12906 0
-12896 -12902 12907 0
-12903 12907 0
-12896 -12903 12908 0
-12904 12908 0
-12896 -12904 12909 0
-12905 12909 0
-12896 -12905 0
-12897 12910 0
-12906 12910 0
-12897 -12906 12911 0
-12907 12911 0
-12897 -12907 12912 0
-12908 12912 0
-12897 -12908 12913 0
-12909 12913 0
-12897 -12909 0
-12898 12914 0
-12910 12914 0
-12898 -12910 12915 0
-12911 12915 0
-12898 -12911 12916 0
-12912 12916 0
-12898 -12912 12917 0
-12913 12917 0
-12898 -12913 0
-12899 12918 0
-12914 12918 0
-12899 -12914 12919 0
-12915 12919 0
-12899 -12915 12920 0
-12916 12920 0
-12899 -12916 12921 0
-12917 12921 0
-12899 -12917 0
-12900 12922 0
-12918 12922 0
-12900 -12918 12923 0
-12919 12923 0
-12900 -12919 12924 0
-12920 12924 0
-12900 -12920 12925 0
-12921 12925 0
-12900 -12921 0
-12901 -12925 0
-12930 10 11 12 13 14 0
-10 12930 0
-11 12930 0
-12 12930 0
-13 12930 0
-14 12930 0
12930 8 9 0
-12931 66 67 68 69 70 0
-66 12931 0
-67 12931 0
-68 12931 0
-69 12931 0
-70 12931 0
12931 64 65 0
-12932 122 123 124 125 126 0
-122 12932 0
-123 12932 0
-124 12932 0
-125 12932 0
-126 12932 0
12932 120 121 0
-12933 178 179 180 181 182 0
-178 12933 0
-179 12933 0
-180 12933 0
-181 12933 0
-182 12933 0
12933 176 177 0
-12934 234 235 236 237 238 0
-234 12934 0
-235 12934 0
-236 12934 0
-237 12934 0
-238 12934 0
12934 232 233 0
-12935 290 291 292 293 294 0
-290 12935 0
-291 12935 0
-292 12935 0
-293 12935 0
-294 12935 0
12935 288 289 0
-12936 297 298 299 300 301 0
-297 12936 0
-298 12936 0
-299 12936 0
-300 12936 0
-301 12936 0
12936 295 296 0
-12930 12937 0
-12938 0
-12939 0
-12940 0
-12941 0
-12931 12942 0
-12937 12942 0
-12931 -12937 12943 0
-12938 12943 0
-12931 -12938 12944 0
-12939 12944 0
-12931 -12939 12945 0
-12940 12945 0
-12931 -12940 12946 0
-12941 12946 0
-12931 -12941 0
-12932 12947 0
-12942 12947 0
-12932 -12942 12948 0
-12943 12948 0
-12932 -12943 12949 0
-12944 12949 0
-12932 -12944 12950 0
-12945 12950 0
-12932 -12945 12951 0
-12946 12951 0
-12932 -12946 0
-12933 12952 0
-12947 12952 0
-12933 -12947 12953 0
-12948 12953 0
-12933 -12948 12954 0
-12949 12954 0
-12933 -12949 12955 0
-12950 12955 0
-12933 -12950 12956 0
-12951 12956 0
-12933 -12951 0
-12934 12957 0
-12952 12957 0
-12934 -12952 12958 0
-12953 12958 0
-12934 -12953 12959 0
-12954 12959 0
-12934 -12954 12960 0
-12955 12960 0
-12934 -12955 12961 0
-12956 12961 0
-12934 -12956 0
-12935 12962 0
-12957 12962 0
-12935 -12957 12963 0
-12958 12963 0
-12935 -12958 12964 0
-12959 12964 0
-12935 -12959 12965 0
-12960 12965 0
-12935 -12960 12966 0
-12961 12966 0
-12935 -12961 0
-12936 -12966 0
-12972 11 0
-11 12972 0
12972 8 9 10 12 13 14 0
-12973 67 0
-67 12973 0
12973 64 65 66 68 69 70 0
-12974 123 0
-123 12974 0
12974 120 121 122 124 125 126 0
-12975 179 0
-179 12975 0
12975 176 177 178 180 181 182 0
-12976 235 0
-235 12976 0
12976 232 233 234 236 237 238 0
-12977 291 0
-291 12977 0
12977 288 289 290 292 293 294 0
-12978 298 0
-298 12978 0
12978 295 296 297 299 300 301 0
-12972 12979 0
-12973 12980 0
-12979 12980 0
-12973 -12979 0
-12974 12981 0
-12980 12981 0
-12974 -12980 0
-12975 12982 0
-12981 12982 0
-12975 -12981 0
-12976 12983 0
-12982 12983 0
-12976 -12982 0
-12977 12984 0
-12983 12984 0
-12977 -12983 0
-12978 -12984 0
-12986 11 12 0
-11 12986 0
-12 12986 0
12986 8 9 10 13 14 0
-12987 67 68 0
-67 12987 0
-68 12987 0
12987 64 65 66 69 70 0
-12988 123 124 0
-123 12988 0
-124 12988 0
12988 120 121 122 125 126 0
-12989 179 180 0
-179 12989 0
-180 12989 0
12989 176 177 178 181 182 0
-12990 235 236 0
-235 12990 0
-236 12990 0
12990 232 233 234 237 238 0
-12991 291 292 0
-291 12991 0
-292 12991 0
12991 288 289 290 293 294 0
-12992 298 299 0
-298 12992 0
-299 12992 0
12992 295 296 297 300 301 0
-12986 12993 0
-12994 0
-12987 12995 0
-12993 12995 0
-12987 -12993 12996 0
-12994 12996 0
-12987 -12994 0
-12988 12997 0
-12995 12997 0
-12988 -12995 12998 0
-12996 12998 0
-12988 -12996 0
-12989 12999 0
-12997 12999 0
-12989 -12997 13000 0
-12998 13000 0
-12989 -12998 0
-12990 13001 0
-12999 13001 0
-12990 -12999 13002 0
-13000 13002 0
-12990 -13000 0
-12991 13003 0
-13001 13003 0
-12991 -13001 13004 0
-13002 13004 0
-12991 -13002 0
-12992 -13004 0
-13007 11 12 13 0
-11 13007 0
-12 13007 0
-13 13007 0
13007 8 9 10 14 0
-13008 67 68 69 0
-67 13008 0
-68 13008 0
-69 13008 0
13008 64 65 66 70 0
-13009 123 124 125 0
-123 13009 0
-124 13009 0
-125 13009 0
13009 120 121 122 126 0
-13010 179 180 181 0
-179 13010 0
-180 13010 0
-181 13010 0
13010 176 177 178 182 0
-13011 235 236 237 0
-235 13011 0
-236 13011 0
-237 13011 0
13011 232 233 234 238 0
-13012 291 292 293 0
-291 13012 0
-292 13012 0
-293 13012 0
13012 288 289 290 294 0
-13013 298 299 300 0
-298 13013 0
-299 13013 0
-300 13013 0
13013 295 296 297 301 0
-13007 13014 0
-13015 0
-13016 0
-13008 13017 0
-13014 13017 0
-13008 -13014 13018 0
-13015 13018 0
-13008 -13015 13019 0
-13016 13019 0
-13008 -13016 0
-13009 13020 0
-13017 13020 0
-13009 -13017 13021 0
-13018 13021 0
-13009 -13018 13022 0
-13019 13022 0
-13009 -13019 0
-13010 13023 0
-13020 13023 0
-13010 -13020 13024 0
-13021 13024 0
-13010 -13021 13025 0
-13022 13025 0
-13010 -13022 0
-13011 13026 0
-13023 13026 0
-13011 -13023 13027 0
-13024 13027 0
-13011 -13024 13028 0
-13025 13028 0
-13011 -13025 0
-13012 13029 0
-13026 13029 0
-13012 -13026 13030 0
-13027 13030 0
-13012 -13027 13031 0
-13028 13031 0
-13012 -13028 0
-13013 -13031 0
-13035 11 12 13 14 0
-11 13035 0
-12 13035 0
-13 13035 0
-14 13035 0
13035 8 9 10 0
-13036 67 68 69 70 0
-67 13036 0
-68 13036 0
-69 13036 0
-70 13036 0
13036 64 65 66 0
-13037 123 124 125 126 0
-123 13037 0
-124 13037 0
-125 13037 0
-126 13037 0
13037 120 121 122 0
-13038 179 180 181 182 0
-179 13038 0
-180 13038 0
-181 13038 0
-182 13038 0
13038 176 177 178 0
-13039 235 236 237 238 0
-235 13039 0
-236 13039 0
-237 13039 0
-238 13039 0
13039 232 233 234 0
-13040 291 292 293 294 0
-291 13040 0
-292 13040 0
-293 13040 0
-294 13040 0
13040 288 289 290 0
-13041 298 299 300 301 0
-298 13041 0
-299 13041 0
-300 13041 0
-301 13041 0
13041 295 296 297 0
-13035 13042 0
-13043 0
-13044 0
-13045 0
-13036 13046 0
-13042 13046 0
-13036 -13042 13047 0
-13043 13047 0
-13036 -13043 13048 0
-13044 13048 0
-13036 -13044 13049 0
-13045 13049 0
-13036 -13045 0
-13037 13050 0
-13046 13050 0
-13037 -13046 13051 0
-13047 13051 0
-13037 -13047 13052 0
-13048 13052 0
-13037 -13048 13053 0
-13049 13053 0
-13037 -13049 0
-13038 13054 0
-13050 13054 0
-13038 -13050 13055 0
-13051 13055 0
-13038 -13051 13056 0
-13052 13056 0
-13038 -13052 13057 0
-13053 13057 0
-13038 -13053 0
-13039 13058 0
-13054 13058 0
-13039 -13054 13059 0
-13055 13059 0
-13039 -13055 13060 0
-13056 13060 0
-13039 -13056 13061 0
-13057 13061 0
-13039 -13057 0
-13040 13062 0
-13058 13062 0
-13040 -13058 13063 0
-13059 13063 0
-13040 -13059 13064 0
-13060 13064 0
-13040 -13060 13065 0
-13061 13065 0
-13040 -13061 0
-13041 -13065 0
-13070 12 0
-12 13070 0
13070 8 9 10 11 13 14 0
-13071 68 0
-68 13071 0
13071 64 65 66 67 69 70 0
-13072 124 0
-124 13072 0
13072 120 121 122 123 125 126 0
-13073 180 0
-180 13073 0
13073 176 177 178 179 181 182 0
-13074 236 0
-236 13074 0
13074 232 233 234 235 237 238 0
-13075 292 0
-292 13075 0
13075 288 289 290 291 293 294 0
-13076 299 0
-299 13076 0
13076 295 296 297 298 300 301 0
-13070 13077 0
-13071 13078 0
-13077 13078 0
-13071 -13077 0
-13072 13079 0
-13078 13079 0
-13072 -13078 0
-13073 13080 0
-13079 13080 0
-13073 -13079 0
-13074 13081 0
-13080 13081 0
-13074 -13080 0
-13075 13082 0
-13081 13082 0
-13075 -13081 0
-13076 -13082 0
-13084 12 13 0
-12 13084 0
-13 13084 0
13084 8 9 10 11 14 0
-13085 68 69 0
-68 13085 0
-69 13085 0
13085 64 65 66 67 70 0
-13086 124 125 0
-124 13086 0
-125 13086 0
13086 120 121 122 123 126 0
-13087 180 181 0
-180 13087 0
-181 13087 0
13087 176 177 178 179 182 0
-13088 236 237 0
-236 13088 0
-237 13088 0
13088 232 233 234 235 238 0
-13089 292 293 0
-292 13089 0
-293 13089 0
13089 288 289 290 291 294 0
-13090 299 300 0
-299 13090 0
-300 13090 0
13090 295 296 297 298 301 0
-13084 13091 0
-13092 0
-13085 13093 0
-13091 13093 0
-13085 -13091 13094 0
-13092 13094 0
-13085 -13092 0
-13086 13095 0
-13093 13095 0
-13086 -13093 13096 0
-13094 13096 0
-13086 -13094 0
-13087 13097 0
-13095 13097 0
-13087 -13095 13098 0
-13096 13098 0
-13087 -13096 0
-13088 13099 0
-13097 13099 0
-13088 -13097 13100 0
-13098 13100 0
-13088 -13098 0
-13089 13101 0
-13099 13101 0
-13089 -13099 13102 0
-13100 13102 0
-13089 -13100 0
-13090 -13102 0
-13105 12 13 14 0
-12 13105 0
-13 13105 0
-14 13105 0
13105 8 9 10 11 0
-13106 68 69 70 0
-68 13106 0
-69 13106 0
-70 13106 0
13106 64 65 66 67 0
-13107 124 125 126 0
-124 13107 0
-125 13107 0
-126 13107 0
13107 120 121 122 123 0
-13108 180 181 182 0
-180 13108 0
-181 13108 0
-182 13108 0
13108 176 177 178 179 0
-13109 236 237 238 0
-236 13109 0
-237 13109 0
-238 13109 0
13109 232 233 234 235 0
-13110 292 293 294 0
-292 13110 0
-293 13110 0
-294 13110 0
13110 288 289 290 291 0
-13111 299 300 301 0
-299 13111 0
-300 13111 0
-301 13111 0
13111 295 296 297 298 0
-13105 13112 0
-13113 0
-13114 0
-13106 13115 0
-13112 13115 0
-13106 -13112 13116 0
-13113 13116 0
-13106 -13113 13117 0
-13114 13117 0
-13106 -13114 0
-13107 13118 0
-13115 13118 0
-13107 -13115 13119 0
-13116 13119 0
-13107 -13116 13120 0
-13117 13120 0
-13107 -13117 0
-13108 13121 0
-13118 13121 0
-13108 -13118 13122 0
-13119 13122 0
-13108 -13119 13123 0
-13120 13123 0
-13108 -13120 0
-13109 13124 0
-13121 13124 0
-13109 -13121 13125 0
-13122 13125 0
-13109 -13122 13126 0
-13123 13126 0
-13109 -13123 0
-13110 13127 0
-13124 13127 0
-13110 -13124 13128 0
-13125 13128 0
-13110 -13125 13129 0
-13126 13129 0
-13110 -13126 0
-13111 -13129 0
-13133 13 0
-13 13133 0
13133 8 9 10 11 12 14 0
-13134 69 0
-69 13134 0
13134 64 65 66 67 68 70 0
-13135 125 0
-125 13135 0
13135 120 121 122 123 124 126 0
-13136 181 0
-181 13136 0
13136 176 177 178 179 180 182 0
-13137 237 0
-237 13137 0
13137 232 233 234 235 236 238 0
-13138 293 0
-293 13138 0
13138 288 289 290 291 292 294 0
-13139 300 0
-300 13139 0
13139 295 296 297 298 299 301 0
-13133 13140 0
-13134 13141 0
-13140 13141 0
-13134 -13140 0
-13135 13142 0
-13141 13142 0
-13135 -13141 0
-13136 13143 0
-13142 13143 0
-13136 -13142 0
-13137 13144 0
-13143 13144 0
-13137 -13143 0
-13138 13145 0
-13144 13145 0
-13138 -13144 0
-13139 -13145 0
-13147 13 14 0
-13 13147 0
-14 13147 0
13147 8 9 10 11 12 0
-13148 69 70 0
-69 13148 0
-70 13148 0
13148 64 65 66 67 68 0
-13149 125 126 0
-125 13149 0
-126 13149 0
13149 120 121 122 123 124 0
-13150 181 182 0
-181 13150 0
-182 13150 0
13150 176 177 178 179 180 0
-13151 237 238 0
-237 13151 0
-238 13151 0
13151 232 233 234 235 236 0
-13152 293 294 0
-293 13152 0
-294 13152 0
13152 288 289 290 291 292 0
-13153 300 301 0
-300 13153 0
-301 13153 0
13153 295 296 297 298 299 0
-13147 13154 0
-13155 0
-13148 13156 0
-13154 13156 0
-13148 -13154 13157 0
-13155 13157 0
-13148 -13155 0
-13149 13158 0
-13156 13158 0
-13149 -13156 13159 0
-13157 13159 0
-13149 -13157 0
-13150 13160 0
-13158 13160 0
-13150 -13158 13161 0
-13159 13161 0
-13150 -13159 0
-13151 13162 0
-13160 13162 0
-13151 -13160 13163 0
-13161 13163 0
-13151 -13161 0
-13152 13164 0
-13162 13164 0
-13152 -13162 13165 0
-13163 13165 0
-13152 -13163 0
-13153 -13165 0
-13168 14 0
-14 13168 0
13168 8 9 10 11 12 13 0
-13169 70 0
-70 13169 0
13169 64 65 66 67 68 69 0
-13170 126 0
-126 13170 0
13170 120 121 122 123 124 125 0
-13171 182 0
-182 13171 0
13171 176 177 178 179 180 181 0
-13172 238 0
-238 13172 0
13172 232 233 234 235 236 237 0
-13173 294 0
-294 13173 0
13173 288 289 290 291 292 293 0
-13174 301 0
-301 13174 0
13174 295 296 297 298 299 300 0
-13168 13175 0
-13169 13176 0
-13175 13176 0
-13169 -13175 0
-13170 13177 0
-13176 13177 0
-13170 -13176 0
-13171 13178 0
-13177 13178 0
-13171 -13177 0
-13172 13179 0
-13178 13179 0
-13172 -13178 0
-13173 13180 0
-13179 13180 0
-13173 -13179 0
-13174 -13180 0
-8 13182 0
-64 13183 0
-13182 13183 0
-64 -13182 0
-120 13184 0
-13183 13184 0
-120 -13183 0
-176 13185 0
-13184 13185 0
-176 -13184 0
-232 13186 0
-13185 13186 0
-232 -13185 0
-288 13187 0
-13186 13187 0
-288 -13186 0
-295 -13187 0
8 64 120 176 232 288 295 0
-9 13189 0
-65 13190 0
-13189 13190 0
-65 -13189 0
-121 13191 0
-13190 13191 0
-121 -13190 0
-177 13192 0
-13191 13192 0
-177 -13191 0
-233 13193 0
-13192 13193 0
-233 -13192 0
-289 13194 0
-13193 13194 0
-289 -13193 0
-296 -13194 0
9 65 121 177 233 289 296 0
-10 13196 0
-66 13197 0
-13196 13197 0
-66 -13196 0
-122 13198 0
-13197 13198 0
-122 -13197 0
-178 13199 0
-13198 13199 0
-178 -13198 0
-234 13200 0
-13199 13200 0
-234 -13199 0
-290 13201 0
-13200 13201 0
-290 -13200 0
-297 -13201 0
10 66 122 178 234 290 297 0
-11 13203 0
-67 13204 0
-13203 13204 0
-67 -13203 0
-123 13205 0
-13204 13205 0
-123 -13204 0
-179 13206 0
-13205 13206 0
-179 -13205 0
-235 13207 0
-13206 13207 0
-235 -13206 0
-291 13208 0
-13207 13208 0
-291 -13207 0
-298 -13208 0
11 67 123 179 235 291 298 0
-12 13210 0
-68 13211 0
-13210 13211 0
-68 -13210 0
-124 13212 0
-13211 13212 0
-124 -13211 0
-180 13213 0
-13212 13213 0
-180 -13212 0
-236 13214 0
-13213 13214 0
-236 -13213 0
-292 13215 0
-13214 13215 0
-292 -13214 0
-299 -13215 0
12 68 124 180 236 292 299 0
-13 13217 0
-69 13218 0
-13217 13218 0
-69 -13217 0
-125 13219 0
-13218 13219 0
-125 -13218 0
-181 13220 0
-13219 13220 0
-181 -13219 0
-237 13221 0
-13220 13221 0
-237 -13220 0
-293 13222 0
-13221 13222 0
-293 -13221 0
-300 -13222 0
13 69 125 181 237 293 300 0
-14 13224 0
-70 13225 0
-13224 13225 0
-70 -13224 0
-126 13226 0
-13225 13226 0
-126 -13225 0
-182 13227 0
-13226 13227 0
-182 -13226 0
-238 13228 0
-13227 13228 0
-238 -13227 0
-294 13229 0
-13228 13229 0
-294 -13228 0
-301 -13229 0
14 70 126 182 238 294 301 0
-13231 15 0
-15 13231 0
13231 16 17 18 19 20 21 0
-13232 71 0
-71 13232 0
13232 72 73 74 75 76 77 0
-13233 127 0
-127 13233 0
13233 128 129 130 131 132 133 0
-13234 183 0
-183 13234 0
13234 184 185 186 187 188 189 0
-13235 239 0
-239 13235 0
13235 240 241 242 243 244 245 0
-13236 246 0
-246 13236 0
13236 247 248 249 250 251 252 0
-13237 302 0
-302 13237 0
13237 303 304 305 306 307 308 0
-13231 13238 0
-13232 13239 0
-13238 13239 0
-13232 -13238 0
-13233 13240 0
-13239 13240 0
-13233 -13239 0
-13234 13241 0
-13240 13241 0
-13234 -13240 0
-13235 13242 0
-13241 13242 0
-13235 -13241 0
-13236 13243 0
-13242 13243 0
-13236 -13242 0
-13237 -13243 0
-13245 15 16 0
-15 13245 0
-16 13245 0
13245 17 18 19 20 21 0
-13246 71 72 0
-71 13246 0
-72 13246 0
13246 73 74 75 76 77 0
-13247 127 128 0
-127 13247 0
-128 13247 0
13247 129 130 131 132 133 0
-13248 183 184 0
-183 13248 0
-184 13248 0
13248 185 186 187 188 189 0
-13249 239 240 0
-239 13249 0
-240 13249 0
13249 241 242 243 244 245 0
-13250 246 247 0
-246 13250 0
-247 13250 0
13250 248 249 250 251 252 0
-13251 302 303 0
-302 13251 0
-303 13251 0
13251 304 305 306 307 308 0
-13245 13252 0
-13253 0
-13246 13254 0
-13252 13254 0
-13246 -13252 13255 0
-13253 13255 0
-13246 -13253 0
-13247 13256 0
-13254 13256 0
-13247 -13254 13257 0
-13255 13257 0
-13247 -13255 0
-13248 13258 0
-13256 13258 0
-13248 -13256 13259 0
-13257 13259 0
-13248 -13257 0
-13249 13260 0
-13258 13260 0
-13249 -13258 13261 0
-13259 13261 0
-13249 -13259 0
-13250 13262 0
-13260 13262 0
-13250 -13260 13263 0
-13261 13263 0
-13250 -13261 0
-13251 -13263 0
-13266 15 16 17 0
-15 13266 0
-16 13266 0
-17 13266 0
13266 18 19 20 21 0
-13267 71 72 73 0
-71 13267 0
-72 13267 0
-73 13267 0
13267 74 75 76 77 0
-13268 127 128 129 0
-127 13268 0
-128 13268 0
-129 13268 0
13268 130 131 132 133 0
-13269 183 184 185 0
-183 13269 0
-184 13269 0
-185 13269 0
13269 186 187 188 189 0
-13270 239 240 241 0
-239 13270 0
-240 13270 0
-241 13270 0
13270 242 243 244 245 0
-13271 246 247 248 0
-246 13271 0
-247 13271 0
-248 13271 0
13271 249 250 251 252 0
-13272 302 303 304 0
-302 13272 0
-303 13272 0
-304 13272 0
13272 305 306 307 308 0
-13266 13273 0
-13274 0
-13275 0
-13267 13276 0
-13273 13276 0
-13267 -13273 13277 0
-13274 13277 0
-13267 -13274 13278 0
-13275 13278 0
-13267 -13275 0
-13268 13279 0
-13276 13279 0
-13268 -13276 13280 0
-13277 13280 0
-13268 -13277 13281 0
-13278 13281 0
-13268 -13278 0
-13269 13282 0
-13279 13282 0
-13269 -13279 13283 0
-13280 13283 0
-13269 -13280 13284 0
-13281 13284 0
-13269 -13281 0
-13270 13285 0
-13282 13285 0
-13270 -13282 13286 0
-13283 13286 0
-13270 -13283 13287 0
-13284 13287 0
-13270 -13284 0
-13271 13288 0
-13285 13288 0
-13271 -13285 13289 0
-13286 13289 0
-13271 -13286 13290 0
-13287 13290 0
-13271 -13287 0
-13272 -13290 0
-13294 15 16 17 18 0
-15 13294 0
-16 13294 0
-17 13294 0
-18 13294 0
13294 19 20 21 0
-13295 71 72 73 74 0
-71 13295 0
-72 13295 0
-73 13295 0
-74 13295 0
13295 75 76 77 0
-13296 127 128 129 130 0
-127 13296 0
-128 13296 0
-129 13296 0
-130 13296 0
13296 131 132 133 0
-13297 183 184 185 186 0
-183 13297 0
-184 13297 0
-185 13297 0
-186 13297 0
13297 187 188 189 0
-13298 239 240 241 242 0
-239 13298 0
-240 13298 0
-241 13298 0
-242 13298 0
13298 243 244 245 0
-13299 246 247 248 249 0
-246 13299 0
-247 13299 0
-248 13299 0
-249 13299 0
13299 250 251 252 0
-13300 302 303 304 305 0
-302 13300 0
-303 13300 0
-304 13300 0
-305 13300 0
13300 306 307 308 0
-13294 13301 0
-13302 0
-13303 0
-13304 0
-13295 13305 0
-13301 13305 0
-13295 -13301 13306 0
-13302 13306 0
-13295 -13302 13307 0
-13303 13307 0
-13295 -13303 13308 0
-13304 13308 0
-13295 -13304 0
-13296 13309 0
-13305 13309 0
-13296 -13305 13310 0
-13306 13310 0
-13296 -13306 13311 0
-13307 13311 0
-13296 -13307 13312 0
-13308 13312 0
-13296 -13308 0
-13297 13313 0
-13309 13313 0
-13297 -13309 13314 0
-13310 13314 0
-13297 -13310 13315 0
-13311 13315 0
-13297 -13311 13316 0
-13312 13316 0
-13297 -13312 0
-13298 13317 0
-13313 13317 0
-13298 -13313 13318 0
-13314 13318 0
-13298 -13314 13319 0
-13315 13319 0
-13298 -13315 13320 0
-13316 13320 0
-13298 -13316 0
-13299 13321 0
-13317 13321 0
-13299 -13317 13322 0
-13318 13322 0
-13299 -13318 13323 0
-13319 13323 0
-13299 -13319 13324 0
-13320 13324 0
-13299 -13320 0
-13300 -13324 0
-13329 15 16 17 18 19 0
-15 13329 0
-16 13329 0
-17 13329 0
-18 13329 0
-19 13329 0
13329 20 21 0
-13330 71 72 73 74 75 0
-71 13330 0
-72 13330 0
-73 13330 0
-74 13330 0
-75 13330 0
13330 76 77 0
-13331 127 128 129 130 131 0
-127 13331 0
-128 13331 0
-129 13331 0
-130 13331 0
-131 13331 0
13331 132 133 0
-13332 183 184 185 186 187 0
-183 13332 0
-184 13332 0
-185 13332 0
-186 13332 0
-187 13332 0
13332 188 189 0
-13333 239 240 241 242 243 0
-239 13333 0
-240 13333 0
-241 13333 0
-242 13333 0
-243 13333 0
13333 244 245 0
-13334 246 247 248 249 250 0
-246 13334 0
-247 13334 0
-248 13334 0
-249 13334 0
-250 13334 0
13334 251 252 0
-13335 302 303 304 305 306 0
-302 13335 0
-303 13335 0
-304 13335 0
-305 13335 0
-306 13335 0
13335 307 308 0
-13329 13336 0
-13337 0
-13338 0
-13339 0
-13340 0
-13330 13341 0
-13336 13341 0
-13330 -13336 13342 0
-13337 13342 0
-13330 -13337 13343 0
-13338 13343 0
-13330 -13338 13344 0
-13339 13344 0
-13330 -13339 13345 0
-13340 13345 0
-13330 -13340 0
-13331 13346 0
-13341 13346 0
-13331 -13341 13347 0
-13342 13347 0
-13331 -13342 13348 0
-13343 13348 0
-13331 -13343 13349 0
-13344 13349 0
-13331 -13344 13350 0
-13345 13350 0
-13331 -13345 0
-13332 13351 0
-13346 13351 0
-13332 -13346 13352 0
-13347 13352 0
-13332 -13347 13353 0
-13348 13353 0
-13332 -13348 13354 0
-13349 13354 0
-13332 -13349 13355 0
-13350 13355 0
-13332 -13350 0
-13333 13356 0
-13351 13356 0
-13333 -13351 13357 0
-13352 13357 0
-13333 -13352 13358 0
-13353 13358 0
-13333 -13353 13359 0
-13354 13359 0
-13333 -13354 13360 0
-13355 13360 0
-13333 -13355 0
-13334 13361 0
-13356 13361 0
-13334 -13356 13362 0
-13357 13362 0
-13334 -13357 13363 0
-13358 13363 0
-13334 -13358 13364 0
-13359 13364 0
-13334 -13359 13365 0
-13360 13365 0
-13334 -13360 0
-13335 -13365 0
-13371 15 16 17 18 19 20 0
-15 13371 0
-16 13371 0
-17 13371 0
-18 13371 0
-19 13371 0
-20 13371 0
13371 21 0
-13372 71 72 73 74 75 76 0
-71 13372 0
-72 13372 0
-73 13372 0
-74 13372 0
-75 13372 0
-76 13372 0
13372 77 0
-13373 127 128 129 130 131 132 0
-127 13373 0
-128 13373 0
-129 13373 0
-130 13373 0
-131 13373 0
-132 13373 0
13373 133 0
-13374 183 184 185 186 187 188 0
-183 13374 0
-184 13374 0
-185 13374 0
-186 13374 0
-187 13374 0
-188 13374 0
13374 189 0
-13375 239 240 241 242 243 244 0
-239 13375 0
-240 13375 0
-241 13375 0
-242 13375 0
-243 13375 0
-244 13375 0
13375 245 0
-13376 246 247 248 249 250 251 0
-246 13376 0
-247 13376 0
-248 13376 0
-249 13376 0
-250 13376 0
-251 13376 0
13376 252 0
-13377 302 303 304 305 306 307 0
-302 13377 0
-303 13377 0
-304 13377 0
-305 13377 0
-306 13377 0
-307 13377 0
13377 308 0
-13371 13378 0
-13379 0
-13380 0
-13381 0
-13382 0
-13383 0
-13372 13384 0
-13378 13384 0
-13372 -13378 13385 0
-13379 13385 0
-13372 -13379 13386 0
-13380 13386 0
-13372 -13380 13387 0
-13381 13387 0
-13372 -13381 13388 0
-13382 13388 0
-13372 -13382 13389 0
-13383 13389 0
-13372 -13383 0
-13373 13390 0
-13384 13390 0
-13373 -13384 13391 0
-13385 13391 0
-13373 -13385 13392 0
-13386 13392 0
-13373 -13386 13393 0
-13387 13393 0
-13373 -13387 13394 0
-13388 13394 0
-13373 -13388 13395 0
-13389 13395 0
-13373 -13389 0
-13374 13396 0
-13390 13396 0
-13374 -13390 13397 0
-13391 13397 0
-13374 -13391 13398 0
-13392 13398 0
-13374 -13392 13399 0
-13393 13399 0
-13374 -13393 13400 0
-13394 13400 0
-13374 -13394 13401 0
-13395 13401 0
-13374 -13395 0
-13375 13402 0
-13396 13402 0
-13375 -13396 13403 0
-13397 13403 0
-13375 -13397 13404 0
-13398 13404 0
-13375 -13398 13405 0
-13399 13405 0
-13375 -13399 13406 0
-13400 13406 0
-13375 -13400 13407 0
-13401 13407 0
-13375 -13401 0
-13376 13408 0
-13402 13408 0
-13376 -13402 13409 0
-13403 13409 0
-13376 -13403 13410 0
-13404 13410 0
-13376 -13404 13411 0
-13405 13411 0
-13376 -13405 13412 0
-13406 13412 0
-13376 -13406 13413 0
-13407 13413 0
-13376 -13407 0
-13377 -13413 0
-13420 15 16 17 18 19 20 21 0
-15 13420 0
-16 13420 0
-17 13420 0
-18 13420 0
-19 13420 0
-20 13420 0
-21 13420 0
13420 0
-13421 71 72 73 74 75 76 77 0
-71 13421 0
-72 13421 0
-73 13421 0
-74 13421 0
-75 13421 0
-76 13421 0
-77 13421 0
13421 0
-13422 127 128 129 130 131 132 133 0
-127 13422 0
-128 13422 0
-129 13422 0
-130 13422 0
-131 13422 0
-132 13422 0
-133 13422 0
13422 0
-13423 183 184 185 186 187 188 189 0
-183 13423 0
-184 13423 0
-185 13423 0
-186 13423 0
-187 13423 0
-188 13423 0
-189 13423 0
13423 0
-13424 239 240 241 242 243 244 245 0
-239 13424 0
-240 13424 0
-241 13424 0
-242 13424 0
-243 13424 0
-244 13424 0
-245 13424 0
13424 0
-13425 246 247 248 249 250 251 252 0
-246 13425 0
-247 13425 0
-248 13425 0
-249 13425 0
-250 13425 0
-251 13425 0
-252 13425 0
13425 0
-13426 302 303 304 305 306 307 308 0
-302 13426 0
-303 13426 0
-304 13426 0
-305 13426 0
-306 13426 0
-307 13426 0
-308 13426 0
13426 0
-13427 16 0
-16 13427 0
13427 15 17 18 19 20 21 0
-13428 72 0
-72 13428 0
13428 71 73 74 75 76 77 0
-13429 128 0
-128 13429 0
13429 127 129 130 131 132 133 0
-13430 184 0
-184 13430 0
13430 183 185 186 187 188 189 0
-13431 240 0
-240 13431 0
13431 239 241 242 243 244 245 0
-13432 247 0
-247 13432 0
13432 246 248 249 250 251 252 0
-13433 303 0
-303 13433 0
13433 302 304 305 306 307 308 0
-13427 13434 0
-13428 13435 0
-13434 13435 0
-13428 -13434 0
-13429 13436 0
-13435 13436 0
-13429 -13435 0
-13430 13437 0
-13436 13437 0
-13430 -13436 0
-13431 13438 0
-13437 13438 0
-13431 -13437 0
-13432 13439 0
-13438 13439 0
-13432 -13438 0
-13433 -13439 0
-13441 16 17 0
-16 13441 0
-17 13441 0
13441 15 18 19 20 21 0
-13442 72 73 0
-72 13442 0
-73 13442 0
13442 71 74 75 76 77 0
-13443 128 129 0
-128 13443 0
-129 13443 0
13443 127 130 131 132 133 0
-13444 184 185 0
-184 13444 0
-185 13444 0
13444 183 186 187 188 189 0
-13445 240 241 0
-240 13445 0
-241 13445 0
13445 239 242 243 244 245 0
-13446 247 248 0
-247 13446 0
-248 13446 0
13446 246 249 250 251 252 0
-13447 303 304 0
-303 13447 0
-304 13447 0
13447 302 305 306 307 308 0
-13441 13448 0
-13449 0
-13442 13450 0
-13448 13450 0
-13442 -13448 13451 0
-13449 13451 0
-13442 -13449 0
-13443 13452 0
-13450 13452 0
-13443 -13450 13453 0
-13451 13453 0
-13443 -13451 0
-13444 13454 0
-13452 13454 0
-13444 -13452 13455 0
-13453 13455 0
-13444 -13453 0
-13445 13456 0
-13454 13456 0
-13445 -13454 13457 0
-13455 13457 0
-13445 -13455 0
-13446 13458 0
-13456 13458 0
-13446 -13456 13459 0
-13457 13459 0
-13446 -13457 0
-13447 -13459 0
-13462 16 17 18 0
-16 13462 0
-17 13462 0
-18 13462 0
13462 15 19 20 21 0
-13463 72 73 74 0
-72 13463 0
-73 13463 0
-74 13463 0
13463 71 75 76 77 0
-13464 128 129 130 0
-128 13464 0
-129 13464 0
-130 13464 0
13464 127 131 132 133 0
-13465 184 185 186 0
-184 13465 0
-185 13465 0
-186 13465 0
13465 183 187 188 189 0
-13466 240 241 242 0
-240 13466 0
-241 13466 0
-242 13466 0
13466 239 243 244 245 0
-13467 247 248 249 0
-247 13467 0
-248 13467 0
-249 13467 0
13467 246 250 251 252 0
-13468 303 304 305 0
-303 13468 0
-304 13468 0
-305 13468 0
13468 302 306 307 308 0
-13462 13469 0
-13470 0
-13471 0
-13463 13472 0
-13469 13472 0
-13463 -13469 13473 0
-13470 13473 0
-13463 -13470 13474 0
-13471 13474 0
-13463 -13471 0
-13464 13475 0
-13472 13475 0
-13464 -13472 13476 0
-13473 13476 0
-13464 -13473 13477 0
-13474 13477 0
-13464 -13474 0
-13465 13478 0
-13475 13478 0
-13465 -13475 13479 0
-13476 13479 0
-13465 -13476 13480 0
-13477 13480 0
-13465 -13477 0
-13466 13481 0
-13478 13481 0
-13466 -13478 13482 0
-13479 13482 0
-13466 -13479 13483 0
-13480 13483 0
-13466 -13480 0
-13467 13484 0
-13481 13484 0
-13467 -13481 13485 0
-13482 13485 0
-13467 -13482 13486 0
-13483 13486 0
-13467 -13483 0
-13468 -13486 0
-13490 16 17 18 19 0
-16 13490 0
-17 13490 0
-18 13490 0
-19 13490 0
13490 15 20 21 0
-13491 72 73 74 75 0
-72 13491 0
-73 13491 0
-74 13491 0
-75 13491 0
13491 71 76 77 0
-13492 128 129 130 131 0
-128 13492 0
-129 13492 0
-130 13492 0
-131 13492 0
13492 127 132 133 0
-13493 184 185 186 187 0
-184 13493 0
-185 13493 0
-186 13493 0
-187 13493 0
13493 183 188 189 0
-13494 240 241 242 243 0
-240 13494 0
-241 13494 0
-242 13494 0
-243 13494 0
13494 239 244 245 0
-13495 247 248 249 250 0
-247 13495 0
-248 13495 0
-249 13495 0
-250 13495 0
13495 246 251 252 0
-13496 303 304 305 306 0
-303 13496 0
-304 13496 0
-305 13496 0
-306 13496 0
13496 302 307 308 0
-13490 13497 0
-13498 0
-13499 0
-13500 0
-13491 13501 0
-13497 13501 0
-13491 -13497 13502 0
-13498 13502 0
-13491 -13498 13503 0
-13499 13503 0
-13491 -13499 13504 0
-13500 13504 0
-13491 -13500 0
-13492 13505 0
-13501 13505 0
-13492 -13501 13506 0
-13502 13506 0
-13492 -13502 13507 0
-13503 13507 0
-13492 -13503 13508 0
-13504 13508 0
-13492 -13504 0
-13493 13509 0
-13505 13509 0
-13493 -13505 13510 0
-13506 13510 0
-13493 -13506 13511 0
-13507 13511 0
-13493 -13507 13512 0
-13508 13512 0
-13493 -13508 0
-13494 13513 0
-13509 13513 0
-13494 -13509 13514 0
-13510 13514 0
-13494 -13510 13515 0
-13511 13515 0
-13494 -13511 13516 0
-13512 13516 0
-13494 -13512 0
-13495 13517 0
-13513 13517 0
-13495 -13513 13518 0
-13514 13518 0
-13495 -13514 13519 0
-13515 13519 0
-13495 -13515 13520 0
-13516 13520 0
-13495 -13516 0
-13496 -13520 0
-13525 16 17 18 19 20 0
-16 13525 0
-17 13525 0
-18 13525 0
-19 13525 0
-20 13525 0
13525 15 21 0
-13526 72 73 74 75 76 0
-72 13526 0
-73 13526 0
-74 13526 0
-75 13526 0
-76 13526 0
13526 71 77 0
-13527 128 129 130 131 132 0
-128 13527 0
-129 13527 0
-130 13527 0
-131 13527 0
-132 13527 0
13527 127 133 0
-13528 184 185 186 187 188 0
-184 13528 0
-185 13528 0
-186 13528 0
-187 13528 0
-188 13528 0
13528 183 189 0
-13529 240 241 242 243 244 0
-240 13529 0
-241 13529 0
-242 13529 0
-243 13529 0
-244 13529 0
13529 239 245 0
-13530 247 248 249 250 251 0
-247 13530 0
-248 13530 0
-249 13530 0
-250 13530 0
-251 13530 0
13530 246 252 0
-13531 303 304 305 306 307 0
-303 13531 0
-304 13531 0
-305 13531 0
-306 13531 0
-307 13531 0
13531 302 308 0
-13525 13532 0
-13533 0
-13534 0
-13535 0
-13536 0
-13526 13537 0
-13532 13537 0
-13526 -13532 13538 0
-13533 13538 0
-13526 -13533 13539 0
-13534 13539 0
-13526 -13534 13540 0
-13535 13540 0
-13526 -13535 13541 0
-13536 13541 0
-13526 -13536 0
-13527 13542 0
-13537 13542 0
-13527 -13537 13543 0
-13538 13543 0
-13527 -13538 13544 0
-13539 13544 0
-13527 -13539 13545 0
-13540 13545 0
-13527 -13540 13546 0
-13541 13546 0
-13527 -13541 0
-13528 13547 0
-13542 13547 0
-13528 -13542 13548 0
-13543 13548 0
-13528 -13543 13549 0
-13544 13549 0
-13528 -13544 13550 0
-13545 13550 0
-13528 -13545 13551 0
-13546 13551 0
-13528 -13546 0
-13529 13552 0
-13547 13552 0
-13529 -13547 13553 0
-13548 13553 0
-13529 -13548 13554 0
-13549 13554 0
-13529 -13549 13555 0
-13550 13555 0
-13529 -13550 13556 0
-13551 13556 0
-13529 -13551 0
-13530 13557 0
-13552 13557 0
-13530 -13552 13558 0
-13553 13558 0
-13530 -13553 13559 0
-13554 13559 0
-13530 -13554 13560 0
-13555 13560 0
-13530 -13555 13561 0
-13556 13561 0
-13530 -13556 0
-13531 -13561 0
-13567 16 17 18 19 20 21 0
-16 13567 0
-17 13567 0
-18 13567 0
-19 13567 0
-20 13567 0
-21 13567 0
13567 15 0
-13568 72 73 74 75 76 77 0
-72 13568 0
-73 13568 0
-74 13568 0
-75 13568 0
-76 13568 0
-77 13568 0
13568 71 0
-13569 128 129 130 131 132 133 0
-128 13569 0
-129 13569 0
-130 13569 0
-131 13569 0
-132 13569 0
-133 13569 0
13569 127 0
-13570 184 185 186 187 188 189 0
-184 13570 0
-185 13570 0
-186 13570 0
-187 13570 0
-188 13570 0
-189 13570 0
13570 183 0
-13571 240 241 242 243 244 245 0
-240 13571 0
-241 13571 0
-242 13571 0
-243 13571 0
-244 13571 0
-245 13571 0
13571 239 0
-13572 247 248 249 250 251 252 0
-247 13572 0
-248 13572 0
-249 13572 0
-250 13572 0
-251 13572 0
-252 13572 0
13572 246 0
-13573 303 304 305 306 307 308 0
-303 13573 0
-304 13573 0
-305 13573 0
-306 13573 0
-307 13573 0
-308 13573 0
13573 302 0
-13567 13574 0
-13575 0
-13576 0
-13577 0
-13578 0
-13579 0
-13568 13580 0
-13574 13580 0
-13568 -13574 13581 0
-13575 13581 0
-13568 -13575 13582 0
-13576 13582 0
-13568 -13576 13583 0
-13577 13583 0
-13568 -13577 13584 0
-13578 13584 0
-13568 -13578 13585 0
-13579 13585 0
-13568 -13579 0
-13569 13586 0
-13580 13586 0
-13569 -13580 13587 0
-13581 13587 0
-13569 -13581 13588 0
-13582 13588 0
-13569 -13582 13589 0
-13583 13589 0
-13569 -13583 13590 0
-13584 13590 0
-13569 -13584 13591 0
-13585 13591 0
-13569 -13585 0
-13570 13592 0
-13586 13592 0
-13570 -13586 13593 0
-13587 13593 0
-13570 -13587 13594 0
-13588 13594 0
-13570 -13588 13595 0
-13589 13595 0
-13570 -13589 13596 0
-13590 13596 0
-13570 -13590 13597 0
-13591 13597 0
-13570 -13591 0
-13571 13598 0
-13592 13598 0
-13571 -13592 13599 0
-13593 13599 0
-13571 -13593 13600 0
-13594 13600 0
-13571 -13594 13601 0
-13595 13601 0
-13571 -13595 13602 0
-13596 13602 0
-13571 -13596 13603 0
-13597 13603 0
-13571 -13597 0
-13572 13604 0
-13598 13604 0
-13572 -13598 13605 0
-13599 13605 0
-13572 -13599 13606 0
-13600 13606 0
-13572 -13600 13607 0
-13601 13607 0
-13572 -13601 13608 0
-13602 13608 0
-13572 -13602 13609 0
-13603 13609 0
-13572 -13603 0
-13573 -13609 0
-13616 17 0
-17 13616 0
13616 15 16 18 19 20 21 0
-13617 73 0
-73 13617 0
13617 71 72 74 75 76 77 0
-13618 129 0
-129 13618 0
13618 127 128 130 131 132 133 0
-13619 185 0
-185 13619 0
13619 183 184 186 187 188 189 0
-13620 241 0
-241 13620 0
13620 239 240 242 243 244 245 0
-13621 248 0
-248 13621 0
13621 246 247 249 250 251 252 0
-13622 304 0
-304 13622 0
13622 302 303 305 306 307 308 0
-13616 13623 0
-13617 13624 0
-13623 13624 0
-13617 -13623 0
-13618 13625 0
-13624 13625 0
-13618 -13624 0
-13619 13626 0
-13625 13626 0
-13619 -13625 0
-13620 13627 0
-13626 13627 0
-13620 -13626 0
-13621 13628 0
-13627 13628 0
-13621 -13627 0
-13622 -13628 0
-13630 17 18 0
-17 13630 0
-18 13630 0
13630 15 16 19 20 21 0
-13631 73 74 0
-73 13631 0
-74 13631 0
13631 71 72 75 76 77 0
-13632 129 130 0
-129 13632 0
-130 13632 0
13632 127 128 131 132 133 0
-13633 185 186 0
-185 13633 0
-186 13633 0
13633 183 184 187 188 189 0
-13634 241 242 0
-241 13634 0
-242 13634 0
13634 239 240 243 244 245 0
-13635 248 249 0
-248 13635 0
-249 13635 0
13635 246 247 250 251 252 0
-13636 304 305 0
-304 13636 0
-305 13636 0
13636 302 303 306 307 308 0
-13630 13637 0
-13638 0
-13631 13639 0
-13637 13639 0
-13631 -13637 13640 0
-13638 13640 0
-13631 -13638 0
-13632 13641 0
-13639 13641 0
-13632 -13639 13642 0
-13640 13642 0
-13632 -13640 0
-13633 13643 0
-13641 13643 0
-13633 -13641 13644 0
-13642 13644 0
-13633 -13642 0
-13634 13645 0
-13643 13645 0
-13634 -13643 13646 0
-13644 13646 0
-13634 -13644 0
-13635 13647 0
-13645 13647 0
-13635 -13645 13648 0
-13646 13648 0
-13635 -13646 0
-13636 -13648 0
-13651 17 18 19 0
-17 13651 0
-18 13651 0
-19 13651 0
13651 15 16 20 21 0
-13652 73 74 75 0
-73 13652 0
-74 13652 0
-75 13652 0
13652 71 72 76 77 0
-13653 129 130 131 0
-129 13653 0
-130 13653 0
-131 13653 0
13653 127 128 132 133 0
-13654 185 186 187 0
-185 13654 0
-186 13654 0
-187 13654 0
13654 183 184 188 189 0
-13655 241 242 243 0
-241 13655 0
-242 13655 0
-243 13655 0
13655 239 240 244 245 0
-13656 248 249 250 0
-248 13656 0
-249 13656 0
-250 13656 0
13656 246 247 251 252 0
-13657 304 305 306 0
-304 13657 0
-305 13657 0
-306 13657 0
13657 302 303 307 308 0
-13651 13658 0
-13659 0
-13660 0
-13652 13661 0
-13658 13661 0
-13652 -13658 13662 0
-13659 13662 0
-13652 -13659 13663 0
-13660 13663 0
-13652 -13660 0
-13653 13664 0
-13661 13664 0
-13653 -13661 13665 0
-13662 13665 0
-13653 -13662 13666 0
-13663 13666 0
-13653 -13663 0
-13654 13667 0
-13664 13667 0
-13654 -13664 13668 0
-13665 13668 0
-13654 -13665 13669 0
-13666 13669 0
-13654 -13666 0
-13655 13670 0
-13667 13670 0
-13655 -13667 13671 0
-13668 13671 0
-13655 -13668 13672 0
-13669 13672 0
-13655 -13669 0
-13656 13673 0
-13670 13673 0
-13656 -13670 13674 0
-13671 13674 0
-13656 -13671 13675 0
-13672 13675 0
-13656 -13672 0
-13657 -13675 0
-13679 17 18 19 20 0
-17 13679 0
-18 13679 0
-19 13679 0
-20 13679 0
13679 15 16 21 0
-13680 73 74 75 76 0
-73 13680 0
-74 13680 0
-75 13680 0
-76 13680 0
13680 71 72 77 0
-13681 129 130 131 132 0
-129 13681 0
-130 13681 0
-131 13681 0
-132 13681 0
13681 127 128 133 0
-13682 185 186 187 188 0
-185 13682 0
-186 13682 0
-187 13682 0
-188 13682 0
13682 183 184 189 0
-13683 241 242 243 244 0
-241 13683 0
-242 13683 0
-243 13683 0
-244 13683 0
13683 239 240 245 0
-13684 248 249 250 251 0
-248 13684 0
-249 13684 0
-250 13684 0
-251 13684 0
13684 246 247 252 0
-13685 304 305 306 307 0
-304 13685 0
-305 13685 0
-306 13685 0
-307 13685 0
13685 302 303 308 0
-13679 13686 0
-13687 0
-13688 0
-13689 0
-13680 13690 0
-13686 13690 0
-13680 -13686 13691 0
-13687 13691 0
-13680 -13687 13692 0
-13688 13692 0
-13680 -13688 13693 0
-13689 13693 0
-13680 -13689 0
-13681 13694 0
-13690 13694 0
-13681 -13690 13695 0
-13691 13695 0
-13681 -13691 13696 0
-13692 13696 0
-13681 -13692 13697 0
-13693 13697 0
-13681 -13693 0
-13682 13698 0
-13694 13698 0
-13682 -13694 13699 0
-13695 13699 0
-13682 -13695 13700 0
-13696 13700 0
-13682 -13696 13701 0
-13697 13701 0
-13682 -13697 0
-13683 13702 0
-13698 13702 0
-13683 -13698 13703 0
-13699 13703 0
-13683 -13699 13704 0
-13700 13704 0
-13683 -13700 13705 0
-13701 13705 0
-13683 -13701 0
-13684 13706 0
-13702 13706 0
-13684 -13702 13707 0
-13703 13707 0
-13684 -13703 13708 0
-13704 13708 0
-13684 -13704 13709 0
-13705 13709 0
-13684 -13705 0
-13685 -13709 0
-13714 17 18 19 20 21 0
-17 13714 0
-18 13714 0
-19 13714 0
-20 13714 0
-21 13714 0
13714 15 16 0
-13715 73 74 75 76 77 0
-73 13715 0
-74 13715 0
-75 13715 0
-76 13715 0
-77 13715 0
13715 71 72 0
-13716 129 130 131 132 133 0
-129 13716 0
-130 13716 0
-131 13716 0
-132 13716 0
-133 13716 0
13716 127 128 0
-13717 185 186 187 188 189 0
-185 13717 0
-186 13717 0
-187 13717 0
-188 13717 0
-189 13717 0
13717 183 184 0
-13718 241 242 243 244 245 0
-241 13718 0
-242 13718 0
-243 13718 0
-244 13718 0
-245 13718 0
13718 239 240 0
-13719 248 249 250 251 252 0
-248 13719 0
-249 13719 0
-250 13719 0
-251 13719 0
-252 13719 0
13719 246 247 0
-13720 304 305 306 307 308 0
-304 13720 0
-305 13720 0
-306 13720 0
-307 13720 0
-308 13720 0
13720 302 303 0
-13714 13721 0
-13722 0
-13723 0
-13724 0
-13725 0
-13715 13726 0
-13721 13726 0
-13715 -13721 13727 0
-13722 13727 0
-13715 -13722 13728 0
-13723 13728 0
-13715 -13723 13729 0
-13724 13729 0
-13715 -13724 13730 0
-13725 13730 0
-13715 -13725 0
-13716 13731 0
-13726 13731 0
-13716 -13726 13732 0
-13727 13732 0
-13716 -13727 13733 0
-13728 13733 0
-13716 -13728 13734 0
-13729 13734 0
-13716 -13729 13735 0
-13730 13735 0
-13716 -13730 0
-13717 13736 0
-13731 13736 0
-13717 -13731 13737 0
-13732 13737 0
-13717 -13732 13738 0
-13733 13738 0
-13717 -13733 13739 0
-13734 13739 0
-13717 -13734 13740 0
-13735 13740 0
-13717 -13735 0
-13718 13741 0
-13736 13741 0
-13718 -13736 13742 0
-13737 13742 0
-13718 -13737 13743 0
-13738 13743 0
-13718 -13738 13744 0
-13739 13744 0
-13718 -13739 13745 0
-13740 13745 0
-13718 -13740 0
-13719 13746 0
-13741 13746 0
-13719 -13741 13747 0
-13742 13747 0
-13719 -13742 13748 0
-13743 13748 0
-13719 -13743 13749 0
-13744 13749 0
-13719 -13744 13750 0
-13745 13750 0
-13719 -13745 0
-13720 -13750 0
-13756 18 0
-18 13756 0
13756 15 16 17 19 20 21 0
-13757 74 0
-74 13757 0
13757 71 72 73 75 76 77 0
-13758 130 0
-130 13758 0
13758 127 128 129 131 132 133 0
-13759 186 0
-186 13759 0
13759 183 184 185 187 188 189 0
-13760 242 0
-242 13760 0
13760 239 240 241 243 244 245 0
-13761 249 0
-249 13761 0
13761 246 247 248 250 251 252 0
-13762 305 0
-305 13762 0
13762 302 303 304 306 307 308 0
-13756 13763 0
-13757 13764 0
-13763 13764 0
-13757 -13763 0
-13758 13765 0
-13764 13765 0
-13758 -13764 0
-13759 13766 0
-13765 13766 0
-13759 -13765 0
-13760 13767 0
-13766 13767 0
-13760 -13766 0
-13761 13768 0
-13767 13768 0
-13761 -13767 0
-13762 -13768 0
-13770 18 19 0
-18 13770 0
-19 13770 0
13770 15 16 17 20 21 0
-13771 74 75 0
-74 13771 0
-75 13771 0
13771 71 72 73 76 77 0
-13772 130 131 0
-130 13772 0
-131 13772 0
13772 127 128 129 132 133 0
-13773 186 187 0
-186 13773 0
-187 13773 0
13773 183 184 185 188 189 0
-13774 242 243 0
-242 13774 0
-243 13774 0
13774 239 240 241 244 245 0
-13775 249 250 0
-249 13775 0
-250 13775 0
13775 246 247 248 251 252 0
-13776 305 306 0
-305 13776 0
-306 13776 0
13776 302 303 304 307 308 0
-13770 13777 0
-13778 0
-13771 13779 0
-13777 13779 0
-13771 -13777 13780 0
-13778 13780 0
-13771 -13778 0
-13772 13781 0
-13779 13781 0
-13772 -13779 13782 0
-13780 13782 0
-13772 -13780 0
-13773 13783 0
-13781 13783 0
-13773 -13781 13784 0
-13782 13784 0
-13773 -13782 0
-13774 13785 0
-13783 13785 0
-13774 -13783 13786 0
-13784 13786 0
-13774 -13784 0
-13775 13787 0
-13785 13787 0
-13775 -13785 13788 0
-13786 13788 0
-13775 -13786 0
-13776 -13788 0
-13791 18 19 20 0
-18 13791 0
-19 13791 0
-20 13791 0
13791 15 16 17 21 0
-13792 74 75 76 0
-74 13792 0
-75 13792 0
-76 13792 0
13792 71 72 73 77 0
-13793 130 131 132 0
-130 13793 0
-131 13793 0
-132 13793 0
13793 127 128 129 133 0
-13794 186 187 188 0
-186 13794 0
-187 13794 0
-188 13794 0
13794 183 184 185 189 0
-13795 242 243 244 0
-242 13795 0
-243 13795 0
-244 13795 0
13795 239 240 241 245 0
-13796 249 250 251 0
-249 13796 0
-250 13796 0
-251 13796 0
13796 246 247 248 252 0
-13797 305 306 307 0
-305 13797 0
-306 13797 0
-307 13797 0
13797 302 303 304 308 0
-13791 13798 0
-13799 0
-13800 0
-13792 13801 0
-13798 13801 0
-13792 -13798 13802 0
-13799 13802 0
-13792 -13799 13803 0
-13800 13803 0
-13792 -13800 0
-13793 13804 0
-13801 13804 0
-13793 -13801 13805 0
-13802 13805 0
-13793 -13802 13806 0
-13803 13806 0
-13793 -13803 0
-13794 13807 0
-13804 13807 0
-13794 -13804 13808 0
-13805 13808 0
-13794 -13805 13809 0
-13806 13809 0
-13794 -13806 0
-13795 13810 0
-13807 13810 0
-13795 -13807 13811 0
-13808 13811 0
-13795 -13808 13812 0
-13809 13812 0
-13795 -13809 0
-13796 13813 0
-13810 13813 0
-13796 -13810 13814 0
-13811 13814 0
-13796 -13811 13815 0
-13812 13815 0
-13796 -13812 0
-13797 -13815 0
-13819 18 19 20 21 0
-18 13819 0
-19 13819 0
-20 13819 0
-21 13819 0
13819 15 16 17 0
-13820 74 75 76 77 0
-74 13820 0
-75 13820 0
-76 13820 0
-77 13820 0
13820 71 72 73 0
-13821 130 131 132 133 0
-130 13821 0
-131 13821 0
-132 13821 0
-133 13821 0
13821 127 128 129 0
-13822 186 187 188 189 0
-186 13822 0
-187 13822 0
-188 13822 0
-189 13822 0
13822 183 184 185 0
-13823 242 243 244 245 0
-242 13823 0
-243 13823 0
-244 13823 0
-245 13823 0
13823 239 240 241 0
-13824 249 250 251 252 0
-249 13824 0
-250 13824 0
-251 13824 0
-252 13824 0
13824 246 247 248 0
-13825 305 306 307 308 0
-305 13825 0
-306 13825 0
-307 13825 0
-308 13825 0
13825 302 303 304 0
-13819 13826 0
-13827 0
-13828 0
-13829 0
-13820 13830 0
-13826 13830 0
-13820 -13826 13831 0
-13827 13831 0
-13820 -13827 13832 0
-13828 13832 0
-13820 -13828 13833 0
-13829 13833 0
-13820 -13829 0
-13821 13834 0
-13830 13834 0
-13821 -13830 13835 0
-13831 13835 0
-13821 -13831 13836 0
-13832 13836 0
-13821 -13832 13837 0
-13833 13837 0
-13821 -13833 0
-13822 13838 0
-13834 13838 0
-13822 -13834 13839 0
-13835 13839 0
-13822 -13835 13840 0
-13836 13840 0
-13822 -13836 13841 0
-13837 13841 0
-13822 -13837 0
-13823 13842 0
-13838 13842 0
-13823 -13838 13843 0
-13839 13843 0
-13823 -13839 13844 0
-13840 13844 0
-13823 -13840 13845 0
-13841 13845 0
-13823 -13841 0
-13824 13846 0
-13842 13846 0
-13824 -13842 13847 0
-13843 13847 0
-13824 -13843 13848 0
-13844 13848 0
-13824 -13844 13849 0
-13845 13849 0
-13824 -13845 0
-13825 -13849 0
-13854 19 0
-19 13854 0
13854 15 16 17 18 20 21 0
-13855 75 0
-75 13855 0
13855 71 72 73 74 76 77 0
-13856 131 0
-131 13856 0
13856 127 128 129 130 132 133 0
-13857 187 0
-187 13857 0
13857 183 184 185 186 188 189 0
-13858 243 0
-243 13858 0
13858 239 240 241 242 244 245 0
-13859 250 0
-250 13859 0
13859 246 247 248 249 251 252 0
-13860 306 0
-306 13860 0
13860 302 303 304 305 307 308 0
-13854 13861 0
-13855 13862 0
-13861 13862 0
-13855 -13861 0
-13856 13863 0
-13862 13863 0
-13856 -13862 0
-13857 13864 0
-13863 13864 0
-13857 -13863 0
-13858 13865 0
-13864 13865 0
-13858 -13864 0
-13859 13866 0
-13865 13866 0
-13859 -13865 0
-13860 -13866 0
-13868 19 20 0
-19 13868 0
-20 13868 0
13868 15 16 17 18 21 0
-13869 75 76 0
-75 13869 0
-76 13869 0
13869 71 72 73 74 77 0
-13870 131 132 0
-131 13870 0
-132 13870 0
13870 127 128 129 130 133 0
-13871 187 188 0
-187 13871 0
-188 13871 0
13871 183 184 185 186 189 0
-13872 243 244 0
-243 13872 0
-244 13872 0
13872 239 240 241 242 245 0
-13873 250 251 0
-250 13873 0
-251 13873 0
13873 246 247 248 249 252 0
-13874 306 307 0
-306 13874 0
-307 13874 0
13874 302 303 304 305 308 0
-13868 13875 0
-13876 0
-13869 13877 0
-13875 13877 0
-13869 -13875 13878 0
-13876 13878 0
-13869 -13876 0
-13870 13879 0
-13877 13879 0
-13870 -13877 13880 0
-13878 13880 0
-13870 -13878 0
-13871 13881 0
-13879 13881 0
-13871 -13879 13882 0
-13880 13882 0
-13871 -13880 0
-13872 13883 0
-13881 13883 0
-13872 -13881 13884 0
-13882 13884 0
-13872 -13882 0
-13873 13885 0
-13883 13885 0
-13873 -13883 13886 0
-13884 13886 0
-13873 -13884 0
-13874 -13886 0
-13889 19 20 21 0
-19 13889 0
-20 13889 0
-21 13889 0
13889 15 16 17 18 0
-13890 75 76 77 0
-75 13890 0
-76 13890 0
-77 13890 0
13890 71 72 73 74 0
-13891 131 132 133 0
-131 13891 0
-132 13891 0
-133 13891 0
13891 127 128 129 130 0
-13892 187 188 189 0
-187 13892 0
-188 13892 0
-189 13892 0
13892 183 184 185 186 0
-13893 243 244 245 0
-243 13893 0
-244 13893 0
-245 13893 0
13893 239 240 241 242 0
-13894 250 251 252 0
-250 13894 0
-251 13894 0
-252 13894 0
13894 246 247 248 249 0
-13895 306 307 308 0
-306 13895 0
-307 13895 0
-308 13895 0
13895 302 303 304 305 0
-13889 13896 0
-13897 0
-13898 0
-13890 13899 0
-13896 13899 0
-13890 -13896 13900 0
-13897 13900 0
-13890 -13897 13901 0
-13898 13901 0
-13890 -13898 0
-13891 13902 0
-13899 13902 0
-13891 -13899 13903 0
-13900 13903 0
-13891 -13900 13904 0
-13901 13904 0
-13891 -13901 0
-13892 13905 0
-13902 13905 0
-13892 -13902 13906 0
-13903 13906 0
-13892 -13903 13907 0
-13904 13907 0
-13892 -13904 0
-13893 13908 0
-13905 13908 0
-13893 -13905 13909 0
-13906 13909 0
-13893 -13906 13910 0
-13907 13910 0
-13893 -13907 0
-13894 13911 0
-13908 13911 0
-13894 -13908 13912 0
-13909 13912 0
-13894 -13909 13913 0
-13910 13913 0
-13894 -13910 0
-13895 -13913 0
-13917 20 0
-20 13917 0
13917 15 16 17 18 19 21 0
-13918 76 0
-76 13918 0
13918 71 72 73 74 75 77 0
-13919 132 0
-132 13919 0
13919 127 128 129 130 131 133 0
-13920 188 0
-188 13920 0
13920 183 184 185 186 187 189 0
-13921 244 0
-244 13921 0
13921 239 240 241 242 243 245 0
-13922 251 0
-251 13922 0
13922 246 247 248 249 250 252 0
-13923 307 0
-307 13923 0
13923 302 303 304 305 306 308 0
-13917 13924 0
-13918 13925 0
-13924 13925 0
-13918 -13924 0
-13919 13926 0
-13925 13926 0
-13919 -13925 0
-13920 13927 0
-13926 13927 0
-13920 -13926 0
-13921 13928 0
-13927 13928 0
-13921 -13927 0
-13922 13929 0
-13928 13929 0
-13922 -13928 0
-13923 -13929 0
-13931 20 21 0
-20 13931 0
-21 13931 0
13931 15 16 17 18 19 0
-13932 76 77 0
-76 13932 0
-77 13932 0
13932 71 72 73 74 75 0
-13933 132 133 0
-132 13933 0
-133 13933 0
13933 127 128 129 130 131 0
-13934 188 189 0
-188 13934 0
-189 13934 0
13934 183 184 185 186 187 0
-13935 244 245 0
-244 13935 0
-245 13935 0
13935 239 240 241 242 243 0
-13936 251 252 0
-251 13936 0
-252 13936 0
13936 246 247 248 249 250 0
-13937 307 308 0
-307 13937 0
-308 13937 0
13937 302 303 304 305 306 0
-13931 13938 0
-13939 0
-13932 13940 0
-13938 13940 0
-13932 -13938 13941 0
-13939 13941 0
-13932 -13939 0
-13933 13942 0
-13940 13942 0
-13933 -13940 13943 0
-13941 13943 0
-13933 -13941 0
-13934 13944 0
-13942 13944 0
-13934 -13942 13945 0
-13943 13945 0
-13934 -13943 0
-13935 13946 0
-13944 13946 0
-13935 -13944 13947 0
-13945 13947 0
-13935 -13945 0
-13936 13948 0
-13946 13948 0
-13936 -13946 13949 0
-13947 13949 0
-13936 -13947 0
-13937 -13949 0
-13952 21 0
-21 13952 0
13952 15 16 17 18 19 20 0
-13953 77 0
-77 13953 0
13953 71 72 73 74 75 76 0
-13954 133 0
-133 13954 0
13954 127 128 129 130 131 132 0
-13955 189 0
-189 13955 0
13955 183 184 185 186 187 188 0
-13956 245 0
-245 13956 0
13956 239 240 241 242 243 244 0
-13957 252 0
-252 13957 0
13957 246 247 248 249 250 251 0
-13958 308 0
-308 13958 0
13958 302 303 304 305 306 307 0
-13952 13959 0
-13953 13960 0
-13959 13960 0
-13953 -13959 0
-13954 13961 0
-13960 13961 0
-13954 -13960 0
-13955 13962 0
-13961 13962 0
-13955 -13961 0
-13956 13963 0
-13962 13963 0
-13956 -13962 0
-13957 13964 0
-13963 13964 0
-13957 -13963 0
-13958 -13964 0
-15 13966 0
-71 13967 0
-13966 13967 0
-71 -13966 0
-127 13968 0
-13967 13968 0
-127 -13967 0
-183 13969 0
-13968 13969 0
-183 -13968 0
-239 13970 0
-13969 13970 0
-239 -13969 0
-246 13971 0
-13970 13971 0
-246 -13970 0
-302 -13971 0
15 71 127 183 239 246 302 0
-16 13973 0
-72 13974 0
-13973 13974 0
-72 -13973 0
-128 13975 0
-13974 13975 0
-128 -13974 0
-184 13976 0
-13975 13976 0
-184 -13975 0
-240 13977 0
-13976 13977 0
-240 -13976 0
-247 13978 0
-13977 13978 0
-247 -13977 0
-303 -13978 0
16 72 128 184 240 247 303 0
-17 13980 0
-73 13981 0
-13980 13981 0
-73 -13980 0
-129 13982 0
-13981 13982 0
-129 -13981 0
-185 13983 0
-13982 13983 0
-185 -13982 0
-241 13984 0
-13983 13984 0
-241 -13983 0
-248 13985 0
-13984 13985 0
-248 -13984 0
-304 -13985 0
17 73 129 185 241 248 304 0
-18 13987 0
-74 13988 0
-13987 13988 0
-74 -13987 0
-130 13989 0
-13988 13989 0
-130 -13988 0
-186 13990 0
-13989 13990 0
-186 -13989 0
-242 13991 0
-13990 13991 0
-242 -13990 0
-249 13992 0
-13991 13992 0
-249 -13991 0
-305 -13992 0
18 74 130 186 242 249 305 0
-19 13994 0
-75 13995 0
-13994 13995 0
-75 -13994 0
-131 13996 0
-13995 13996 0
-131 -13995 0
-187 13997 0
-13996 13997 0
-187 -13996 0
-243 13998 0
-13997 13998 0
-243 -13997 0
-250 13999 0
-13998 13999 0
-250 -13998 0
-306 -13999 0
19 75 131 187 243 250 306 0
-20 14001 0
-76 14002 0
-14001 14002 0
-76 -14001 0
-132 14003 0
-14002 14003 0
-132 -14002 0
-188 14004 0
-14003 14004 0
-188 -14003 0
-244 14005 0
-14004 14005 0
-244 -14004 0
-251 14006 0
-14005 14006 0
-251 -14005 0
-307 -14006 0
20 76 132 188 244 251 307 0
-21 14008 0
-77 14009 0
-14008 14009 0
-77 -14008 0
-133 14010 0
-14009 14010 0
-133 -14009 0
-189 14011 0
-14010 14011 0
-189 -14010 0
-245 14012 0
-14011 14012 0
-245 -14011 0
-252 14013 0
-14012 14013 0
-252 -14012 0
-308 -14013 0
21 77 133 189 245 252 308 0
-14015 22 0
-22 14015 0
14015 23 24 25 26 27 28 0
-14016 78 0
-78 14016 0
14016 79 80 81 82 83 84 0
-14017 134 0
-134 14017 0
14017 135 136 137 138 139 140 0
-14018 190 0
-190 14018 0
14018 191 192 193 194 195 196 0
-14019 197 0
-197 14019 0
14019 198 199 200 201 202 203 0
-14020 253 0
-253 14020 0
14020 254 255 256 257 258 259 0
-14021 309 0
-309 14021 0
14021 310 311 312 313 314 315 0
-14015 14022 0
-14016 14023 0
-14022 14023 0
-14016 -14022 0
-14017 14024 0
-14023 14024 0
-14017 -14023 0
-14018 14025 0
-14024 14025 0
-14018 -14024 0
-14019 14026 0
-14025 14026 0
-14019 -14025 0
-14020 14027 0
-14026 14027 0
-14020 -14026 0
-14021 -14027 0
-14029 22 23 0
-22 14029 0
-23 14029 0
14029 24 25 26 27 28 0
-14030 78 79 0
-78 14030 0
-79 14030 0
14030 80 81 82 83 84 0
-14031 134 135 0
-134 14031 0
-135 14031 0
14031 136 137 138 139 140 0
-14032 190 191 0
-190 14032 0
-191 14032 0
14032 192 193 194 195 196 0
-14033 197 198 0
-197 14033 0
-198 14033 0
14033 199 200 201 202 203 0
-14034 253 254 0
-253 14034 0
-254 14034 0
14034 255 256 257 258 259 0
-14035 309 310 0
-309 14035 0
-310 14035 0
14035 311 312 313 314 315 0
-14029 14036 0
-14037 0
-14030 14038 0
-14036 14038 0
-14030 -14036 14039 0
-14037 14039 0
-14030 -14037 0
-14031 14040 0
-14038 14040 0
-14031 -14038 14041 0
-14039 14041 0
-14031 -14039 0
-14032 14042 0
-14040 14042 0
-14032 -14040 14043 0
-14041 14043 0
-14032 -14041 0
-14033 14044 0
-14042 14044 0
-14033 -14042 14045 0
-14043 14045 0
-14033 -14043 0
-14034 14046 0
-14044 14046 0
-14034 -14044 14047 0
-14045 14047 0
-14034 -14045 0
-14035 -14047 0
-14050 22 23 24 0
-22 14050 0
-23 14050 0
-24 14050 0
14050 25 26 27 28 0
-14051 78 79 80 0
-78 14051 0
-79 14051 0
-80 14051 0
14051 81 82 83 84 0
-14052 134 135 136 0
-134 14052 0
-135 14052 0
-136 14052 0
14052 137 138 139 140 0
-14053 190 191 192 0
-190 14053 0
-191 14053 0
-192 14053 0
14053 193 194 195 196 0
-14054 197 198 199 0
-197 14054 0
-198 14054 0
-199 14054 0
14054 200 201 202 203 0
-14055 253 254 255 0
-253 14055 0
-254 14055 0
-255 14055 0
14055 256 257 258 259 0
-14056 309 310 311 0
-309 14056 0
-310 14056 0
-311 14056 0
14056 312 313 314 315 0
-14050 14057 0
-14058 0
-14059 0
-14051 14060 0
-14057 14060 0
-14051 -14057 14061 0
-14058 14061 0
-14051 -14058 14062 0
-14059 14062 0
-14051 -14059 0
-14052 14063 0
-14060 14063 0
-14052 -14060 14064 0
-14061 14064 0
-14052 -14061 14065 0
-14062 14065 0
-14052 -14062 0
-14053 14066 0
-14063 14066 0
-14053 -14063 14067 0
-14064 14067 0
-14053 -14064 14068 0
-14065 14068 0
-14053 -14065 0
-14054 14069 0
-14066 14069 0
-14054 -14066 14070 0
-14067 14070 0
-14054 -14067 14071 0
-14068 14071 0
-14054 -14068 0
-14055 14072 0
-14069 14072 0
-14055 -14069 14073 0
-14070 14073 0
-14055 -14070 14074 0
-14071 14074 0
-14055 -14071 0
-14056 -14074 0
-14078 22 23 24 25 0
-22 14078 0
-23 14078 0
-24 14078 0
-25 14078 0
14078 26 27 28 0
-14079 78 79 80 81 0
-78 14079 0
-79 14079 0
-80 14079 0
-81 14079 0
14079 82 83 84 0
-14080 134 135 136 137 0
-134 14080 0
-135 14080 0
-136 14080 0
-137 14080 0
14080 138 139 140 0
-14081 190 191 192 193 0
-190 14081 0
-191 14081 0
-192 14081 0
-193 14081 0
14081 194 195 196 0
-14082 197 198 199 200 0
-197 14082 0
-198 14082 0
-199 14082 0
-200 14082 0
14082 201 202 203 0
-14083 253 254 255 256 0
-253 14083 0
-254 14083 0
-255 14083 0
-256 14083 0
14083 257 258 259 0
-14084 309 310 311 312 0
-309 14084 0
-310 14084 0
-311 14084 0
-312 14084 0
14084 313 314 315 0
-14078 14085 0
-14086 0
-14087 0
-14088 0
-14079 14089 0
-14085 14089 0
-14079 -14085 14090 0
-14086 14090 0
-14079 -14086 14091 0
-14087 14091 0
-14079 -14087 14092 0
-14088 14092 0
-14079 -14088 0
-14080 14093 0
-14089 14093 0
-14080 -14089 14094 0
-14090 14094 0
-14080 -14090 14095 0
-14091 14095 0
-14080 -14091 14096 0
-14092 14096 0
-14080 -14092 0
-14081 14097 0
-14093 14097 0
-14081 -14093 14098 0
-14094 14098 0
-14081 -14094 14099 0
-14095 14099 0
-14081 -14095 14100 0
-14096 14100 0
-14081 -14096 0
-14082 14101 0
-14097 14101 0
-14082 -14097 14102 0
-14098 14102 0
-14082 -14098 14103 0
-14099 14103 0
-14082 -14099 14104 0
-14100 14104 0
-14082 -14100 0
-14083 14105 0
-14101 14105 0
-14083 -14101 14106 0
-14102 14106 0
-14083 -14102 14107 0
-14103 14107 0
-14083 -14103 14108 0
-14104 14108 0
-14083 -14104 0
-14084 -14108 0
-14113 22 23 24 25 26 0
-22 14113 0
-23 14113 0
-24 14113 0
-25 14113 0
-26 14113 0
14113 27 28 0
-14114 78 79 80 81 82 0
-78 14114 0
-79 14114 0
-80 14114 0
-81 14114 0
-82 14114 0
14114 83 84 0
-14115 134 135 136 137 138 0
-134 14115 0
-135 14115 0
-136 14115 0
-137 14115 0
-138 14115 0
14115 139 140 0
-14116 190 191 192 193 194 0
-190 14116 0
-191 14116 0
-192 14116 0
-193 14116 0
-194 14116 0
14116 195 196 0
-14117 197 198 199 200 201 0
-197 14117 0
-198 14117 0
-199 14117 0
-200 14117 0
-201 14117 0
14117 202 203 0
-14118 253 254 255 256 257 0
-253 14118 0
-254 14118 0
-255 14118 0
-256 14118 0
-257 14118 0
14118 258 259 0
-14119 309 310 311 312 313 0
-309 14119 0
-310 14119 0
-311 14119 0
-312 14119 0
-313 14119 0
14119 314 315 0
-14113 14120 0
-14121 0
-14122 0
-14123 0
-14124 0
-14114 14125 0
-14120 14125 0
-14114 -14120 14126 0
-14121 14126 0
-14114 -14121 14127 0
-14122 14127 0
-14114 -14122 14128 0
-14123 14128 0
-14114 -14123 14129 0
-14124 14129 0
-14114 -14124 0
-14115 14130 0
-14125 14130 0
-14115 -14125 14131 0
-14126 14131 0
-14115 -14126 14132 0
-14127 14132 0
-14115 -14127 14133 0
-14128 14133 0
-14115 -14128 14134 0
-14129 14134 0
-14115 -14129 0
-14116 14135 0
-14130 14135 0
-14116 -14130 14136 0
-14131 14136 0
-14116 -14131 14137 0
-14132 14137 0
-14116 -14132 14138 0
-14133 14138 0
-14116 -14133 14139 0
-14134 14139 0
-14116 -14134 0
-14117 14140 0
-14135 14140 0
-14117 -14135 14141 0
-14136 14141 0
-14117 -14136 14142 0
-14137 14142 0
-14117 -14137 14143 0
-14138 14143 0
-14117 -14138 14144 0
-14139 14144 0
-14117 -14139 0
-14118 14145 0
-14140 14145 0
-14118 -14140 14146 0
-14141 14146 0
-14118 -14141 14147 0
-14142 14147 0
-14118 -14142 14148 0
-14143 14148 0
-14118 -14143 14149 0
-14144 14149 0
-14118 -14144 0
-14119 -14149 0
-14155 22 23 24 25 26 27 0
-22 14155 0
-23 14155 0
-24 14155 0
-25 14155 0
-26 14155 0
-27 14155 0
14155 28 0
-14156 78 79 80 81 82 83 0
-78 14156 0
-79 14156 0
-80 14156 0
-81 14156 0
-82 14156 0
-83 14156 0
14156 84 0
-14157 134 135 136 137 138 139 0
-134 14157 0
-135 14157 0
-136 14157 0
-137 14157 0
-138 14157 0
-139 14157 0
14157 140 0
-14158 190 191 192 193 194 195 0
-190 14158 0
-191 14158 0
-192 14158 0
-193 14158 0
-194 14158 0
-195 14158 0
14158 196 0
-14159 197 198 199 200 201 202 0
-197 14159 0
-198 14159 0
-199 14159 0
-200 14159 0
-201 14159 0
-202 14159 0
14159 203 0
-14160 253 254 255 256 257 258 0
-253 14160 0
-254 14160 0
-255 14160 0
-256 14160 0
-257 14160 0
-258 14160 0
14160 259 0
-14161 309 310 311 312 313 314 0
-309 14161 0
-310 14161 0
-311 14161 0
-312 14161 0
-313 14161 0
-314 14161 0
14161 315 0
-14155 14162 0
-14163 0
-14164 0
-14165 0
-14166 0
-14167 0
-14156 14168 0
-14162 14168 0
-14156 -14162 14169 0
-14163 14169 0
-14156 -14163 14170 0
-14164 14170 0
-14156 -14164 14171 0
-14165 14171 0
-14156 -14165 14172 0
-14166 14172 0
-14156 -14166 14173 0
-14167 14173 0
-14156 -14167 0
-14157 14174 0
-14168 14174 0
-14157 -14168 14175 0
-14169 14175 0
-14157 -14169 14176 0
-14170 14176 0
-14157 -14170 14177 0
-14171 14177 0
-14157 -14171 14178 0
-14172 14178 0
-14157 -14172 14179 0
-14173 14179 0
-14157 -14173 0
-14158 14180 0
-14174 14180 0
-14158 -14174 14181 0
-14175 14181 0
-14158 -14175 14182 0
-14176 14182 0
-14158 -14176 14183 0
-14177 14183 0
-14158 -14177 14184 0
-14178 14184 0
-14158 -14178 14185 0
-14179 14185 0
-14158 -14179 0
-14159 14186 0
-14180 14186 0
-14159 -14180 14187 0
-14181 14187 0
-14159 -14181 14188 0
-14182 14188 0
-14159 -14182 14189 0
-14183 14189 0
-14159 -14183 14190 0
-14184 14190 0
-14159 -14184 14191 0
-14185 14191 0
-14159 -14185 0
-14160 14192 0
-14186 14192 0
-14160 -14186 14193 0
-14187 14193 0
-14160 -14187 14194 0
-14188 14194 0
-14160 -14188 14195 0
-14189 14195 0
-14160 -14189 14196 0
-14190 14196 0
-14160 -14190 14197 0
-14191 14197 0
-14160 -14191 0
-14161 -14197 0
-14204 22 23 24 25 26 27 28 0
-22 14204 0
-23 14204 0
-24 14204 0
-25 14204 0
-26 14204 0
-27 14204 0
-28 14204 0
14204 0
-14205 78 79 80 81 82 83 84 0
-78 14205 0
-79 14205 0
-80 14205 0
-81 14205 0
-82 14205 0
-83 14205 0
-84 14205 0
14205 0
-14206 134 135 136 137 138 139 140 0
-134 14206 0
-135 14206 0
-136 14206 0
-137 14206 0
-138 14206 0
-139 14206 0
-140 14206 0
14206 0
-14207 190 191 192 193 194 195 196 0
-190 14207 0
-191 14207 0
-192 14207 0
-193 14207 0
-194 14207 0
-195 14207 0
-196 14207 0
14207 0
-14208 197 198 199 200 201 202 203 0
-197 14208 0
-198 14208 0
-199 14208 0
-200 14208 0
-201 14208 0
-202 14208 0
-203 14208 0
14208 0
-14209 253 254 255 256 257 258 259 0
-253 14209 0
-254 14209 0
-255 14209 0
-256 14209 0
-257 14209 0
-258 14209 0
-259 14209 0
14209 0
-14210 309 310 311 312 313 314 315 0
-309 14210 0
-310 14210 0
-311 14210 0
-312 14210 0
-313 14210 0
-314 14210 0
-315 14210 0
14210 0
-14211 23 0
-23 14211 0
14211 22 24 25 26 27 28 0
-14212 79 0
-79 14212 0
14212 78 80 81 82 83 84 0
-14213 135 0
-135 14213 0
14213 134 136 137 138 139 140 0
-14214 191 0
-191 14214 0
14214 190 192 193 194 195 196 0
-14215 198 0
-198 14215 0
14215 197 199 200 201 202 203 0
-14216 254 0
-254 14216 0
14216 253 255 256 257 258 259 0
-14217 310 0
-310 14217 0
14217 309 311 312 313 314 315 0
-14211 14218 0
-14212 14219 0
-14218 14219 0
-14212 -14218 0
-14213 14220 0
-14219 14220 0
-14213 -14219 0
-14214 14221 0
-14220 14221 0
-14214 -14220 0
-14215 14222 0
-14221 14222 0
-14215 -14221 0
-14216 14223 0
-14222 14223 0
-14216 -14222 0
-14217 -14223 0
-14225 23 24 0
-23 14225 0
-24 14225 0
14225 22 25 26 27 28 0
-14226 79 80 0
-79 14226 0
-80 14226 0
14226 78 81 82 83 84 0
-14227 135 136 0
-135 14227 0
-136 14227 0
14227 134 137 138 139 140 0
-14228 191 192 0
-191 14228 0
-192 14228 0
14228 190 193 194 195 196 0
-14229 198 199 0
-198 14229 0
-199 14229 0
14229 197 200 201 202 203 0
-14230 254 255 0
-254 14230 0
-255 14230 0
14230 253 256 257 258 259 0
-14231 310 311 0
-310 14231 0
-311 14231 0
14231 309 312 313 314 315 0
-14225 14232 0
-14233 0
-14226 14234 0
-14232 14234 0
-14226 -14232 14235 0
-14233 14235 0
-14226 -14233 0
-14227 14236 0
-14234 14236 0
-14227 -14234 14237 0
-14235 14237 0
-14227 -14235 0
-14228 14238 0
-14236 14238 0
-14228 -14236 14239 0
-14237 14239 0
-14228 -14237 0
-14229 14240 0
-14238 14240 0
-14229 -14238 14241 0
-14239 14241 0
-14229 -14239 0
-14230 14242 0
-14240 14242 0
-14230 -14240 14243 0
-14241 14243 0
-14230 -14241 0
-14231 -14243 0
-14246 23 24 25 0
-23 14246 0
-24 14246 0
-25 14246 0
14246 22 26 27 28 0
-14247 79 80 81 0
-79 14247 0
-80 14247 0
-81 14247 0
14247 78 82 83 84 0
-14248 135 136 137 0
-135 14248 0
-136 14248 0
-137 14248 0
14248 134 138 139 140 0
-14249 191 192 193 0
-191 14249 0
-192 14249 0
-193 14249 0
14249 190 194 195 196 0
-14250 198 199 200 0
-198 14250 0
-199 14250 0
-200 14250 0
14250 197 201 202 203 0
-14251 254 255 256 0
-254 14251 0
-255 14251 0
-256 14251 0
14251 253 257 258 259 0
-14252 310 311 312 0
-310 14252 0
-311 14252 0
-312 14252 0
14252 309 313 314 315 0
-14246 14253 0
-14254 0
-14255 0
-14247 14256 0
-14253 14256 0
-14247 -14253 14257 0
-14254 14257 0
-14247 -14254 14258 0
-14255 14258 0
-14247 -14255 0
-14248 14259 0
-14256 14259 0
-14248 -14256 14260 0
-14257 14260 0
-14248 -14257 14261 0
-14258 14261 0
-14248 -14258 0
-14249 14262 0
-14259 14262 0
-14249 -14259 14263 0
-14260 14263 0
-14249 -14260 14264 0
-14261 14264 0
-14249 -14261 0
-14250 14265 0
-14262 14265 0
-14250 -14262 14266 0
-14263 14266 0
-14250 -14263 14267 0
-14264 14267 0
-14250 -14264 0
-14251 14268 0
-14265 14268 0
-14251 -14265 14269 0
-14266 14269 0
-14251 -14266 14270 0
-14267 14270 0
-14251 -14267 0
-14252 -14270 0
-14274 23 24 25 26 0
-23 14274 0
-24 14274 0
-25 14274 0
-26 14274 0
14274 22 27 28 0
-14275 79 80 81 82 0
-79 14275 0
-80 14275 0
-81 14275 0
-82 14275 0
14275 78 83 84 0
-14276 135 136 137 138 0
-135 14276 0
-136 14276 0
-137 14276 0
-138 14276 0
14276 134 139 140 0
-14277 191 192 193 194 0
-191 14277 0
-192 14277 0
-193 14277 0
-194 14277 0
14277 190 195 196 0
-14278 198 199 200 201 0
-198 14278 0
-199 14278 0
-200 14278 0
-201 14278 0
14278 197 202 203 0
-14279 254 255 256 257 0
-254 14279 0
-255 14279 0
-256 14279 0
-257 14279 0
14279 253 258 259 0
-14280 310 311 312 313 0
-310 14280 0
-311 14280 0
-312 14280 0
-313 14280 0
14280 309 314 315 0
-14274 14281 0
-14282 0
-14283 0
-14284 0
-14275 14285 0
-14281 14285 0
-14275 -14281 14286 0
-14282 14286 0
-14275 -14282 14287 0
-14283 14287 0
-14275 -14283 14288 0
-14284 14288 0
-14275 -14284 0
-14276 14289 0
-14285 14289 0
-14276 -14285 14290 0
-14286 14290 0
-14276 -14286 14291 0
-14287 14291 0
-14276 -14287 14292 0
-14288 14292 0
-14276 -14288 0
-14277 14293 0
-14289 14293 0
-14277 -14289 14294 0
-14290 14294 0
-14277 -14290 14295 0
-14291 14295 0
-14277 -14291 14296 0
-14292 14296 0
-14277 -14292 0
-14278 14297 0
-14293 14297 0
-14278 -14293 14298 0
-14294 14298 0
-14278 -14294 14299 0
-14295 14299 0
-14278 -14295 14300 0
-14296 14300 0
-14278 -14296 0
-14279 14301 0
-14297 14301 0
-14279 -14297 14302 0
-14298 14302 0
-14279 -14298 14303 0
-14299 14303 0
-14279 -14299 14304 0
-14300 14304 0
-14279 -14300 0
-14280 -14304 0
-14309 23 24 25 26 27 0
-23 14309 0
-24 14309 0
-25 14309 0
-26 14309 0
-27 14309 0
14309 22 28 0
-14310 79 80 81 82 83 0
-79 14310 0
-80 14310 0
-81 14310 0
-82 14310 0
-83 14310 0
14310 78 84 0
-14311 135 136 137 138 139 0
-135 14311 0
-136 14311 0
-137 14311 0
-138 14311 0
-139 14311 0
14311 134 140 0
-14312 191 192 193 194 195 0
-191 14312 0
-192 14312 0
-193 14312 0
-194 14312 0
-195 14312 0
14312 190 196 0
-14313 198 199 200 201 202 0
-198 14313 0
-199 14313 0
-200 14313 0
-201 14313 0
-202 14313 0
14313 197 203 0
-14314 254 255 256 257 258 0
-254 14314 0
-255 14314 0
-256 14314 0
-257 14314 0
-258 14314 0
14314 253 259 0
-14315 310 311 312 313 314 0
-310 14315 0
-311 14315 0
-312 14315 0
-313 14315 0
-314 14315 0
14315 309 315 0
-14309 14316 0
-14317 0
-14318 0
-14319 0
-14320 0
-14310 14321 0
-14316 14321 0
-14310 -14316 14322 0
-14317 14322 0
-14310 -14317 14323 0
-14318 14323 0
-14310 -14318 14324 0
-14319 14324 0
-14310 -14319 14325 0
-14320 14325 0
-14310 -14320 0
-14311 14326 0
-14321 14326 0
-14311 -14321 14327 0
-14322 14327 0
-14311 -14322 14328 0
-14323 14328 0
-14311 -14323 14329 0
-14324 14329 0
-14311 -14324 14330 0
-14325 14330 0
-14311 -14325 0
-14312 14331 0
-14326 14331 0
-14312 -14326 14332 0
-14327 14332 0
-14312 -14327 14333 0
-14328 14333 0
-14312 -14328 14334 0
-14329 14334 0
-14312 -14329 14335 0
-14330 14335 0
-14312 -14330 0
-14313 14336 0
-14331 14336 0
-14313 -14331 14337 0
-14332 14337 0
-14313 -14332 14338 0
-14333 14338 0
-14313 -14333 14339 0
-14334 14339 0
-14313 -14334 14340 0
-14335 14340 0
-14313 -14335 0
-14314 14341 0
-14336 14341 0
-14314 -14336 14342 0
-14337 14342 0
-14314 -14337 14343 0
-14338 14343 0
-14314 -14338 14344 0
-14339 14344 0
-14314 -14339 14345 0
-14340 14345 0
-14314 -14340 0
-14315 -14345 0
-14351 23 24 25 26 27 28 0
-23 14351 0
-24 14351 0
-25 14351 0
-26 14351 0
-27 14351 0
-28 14351 0
14351 22 0
-14352 79 80 81 82 83 84 0
-79 14352 0
-80 14352 0
-81 14352 0
-82 14352 0
-83 14352 0
-84 14352 0
14352 78 0
-14353 135 136 137 138 139 140 0
-135 14353 0
-136 14353 0
-137 14353 0
-138 14353 0
-139 14353 0
-140 14353 0
14353 134 0
-14354 191 192 193 194 195 196 0
-191 14354 0
-192 14354 0
-193 14354 0
-194 14354 0
-195 14354 0
-196 14354 0
14354 190 0
-14355 198 199 200 201 202 203 0
-198 14355 0
-199 14355 0
-200 14355 0
-201 14355 0
-202 14355 0
-203 14355 0
14355 197 0
-14356 254 255 256 257 258 259 0
-254 14356 0
-255 14356 0
-256 14356 0
-257 14356 0
-258 14356 0
-259 14356 0
14356 253 0
-14357 310 311 312 313 314 315 0
-310 14357 0
-311 14357 0
-312 14357 0
-313 14357 0
-314 14357 0
-315 14357 0
14357 309 0
-14351 14358 0
-14359 0
-14360 0
-14361 0
-14362 0
-14363 0
-14352 14364 0
-14358 14364 0
-14352 -14358 14365 0
-14359 14365 0
-14352 -14359 14366 0
-14360 14366 0
-14352 -14360 14367 0
-14361 14367 0
-14352 -14361 14368 0
-14362 14368 0
-14352 -14362 14369 0
-14363 14369 0
-14352 -14363 0
-14353 14370 0
-14364 14370 0
-14353 -14364 14371 0
-14365 14371 0
-14353 -14365 14372 0
-14366 14372 0
-14353 -14366 14373 0
-14367 14373 0
-14353 -14367 14374 0
-14368 14374 0
-14353 -14368 14375 0
-14369 14375 0
-14353 -14369 0
-14354 14376 0
-14370 14376 0
-14354 -14370 14377 0
-14371 14377 0
-14354 -14371 14378 0
-14372 14378 0
-14354 -14372 14379 0
-14373 14379 0
-14354 -14373 14380 0
-14374 14380 0
-14354 -14374 14381 0
-14375 14381 0
-14354 -14375 0
-14355 14382 0
-14376 14382 0
-14355 -14376 14383 0
-14377 14383 0
-14355 -14377 14384 0
-14378 14384 0
-14355 -14378 14385 0
-14379 14385 0
-14355 -14379 14386 0
-14380 14386 0
-14355 -14380 14387 0
-14381 14387 0
-14355 -14381 0
-14356 14388 0
-14382 14388 0
-14356 -14382 14389 0
-14383 14389 0
-14356 -14383 14390 0
-14384 14390 0
-14356 -14384 14391 0
-14385 14391 0
-14356 -14385 14392 0
-14386 14392 0
-14356 -14386 14393 0
-14387 14393 0
-14356 -14387 0
-14357 -14393 0
-14400 24 0
-24 14400 0
14400 22 23 25 26 27 28 0
-14401 80 0
-80 14401 0
14401 78 79 81 82 83 84 0
-14402 136 0
-136 14402 0
14402 134 135 137 138 139 140 0
-14403 192 0
-192 14403 0
14403 190 191 193 194 195 196 0
-14404 199 0
-199 14404 0
14404 197 198 200 201 202 203 0
-14405 255 0
-255 14405 0
14405 253 254 256 257 258 259 0
-14406 311 0
-311 14406 0
14406 309 310 312 313 314 315 0
-14400 14407 0
-14401 14408 0
-14407 14408 0
-14401 -14407 0
-14402 14409 0
-14408 14409 0
-14402 -14408 0
-14403 14410 0
-14409 14410 0
-14403 -14409 0
-14404 14411 0
-14410 14411 0
-14404 -14410 0
-14405 14412 0
-14411 14412 0
-14405 -14411 0
-14406 -14412 0
-14414 24 25 0
-24 14414 0
-25 14414 0
14414 22 23 26 27 28 0
-14415 80 81 0
-80 14415 0
-81 14415 0
14415 78 79 82 83 84 0
-14416 136 137 0
-136 14416 0
-137 14416 0
14416 134 135 138 139 140 0
-14417 192 193 0
-192 14417 0
-193 14417 0
14417 190 191 194 195 196 0
-14418 199 200 0
-199 14418 0
-200 14418 0
14418 197 198 201 202 203 0
-14419 255 256 0
-255 14419 0
-256 14419 0
14419 253 254 257 258 259 0
-14420 311 312 0
-311 14420 0
-312 14420 0
14420 309 310 313 314 315 0
-14414 14421 0
-14422 0
-14415 14423 0
-14421 14423 0
-14415 -14421 14424 0
-14422 14424 0
-14415 -14422 0
-14416 14425 0
-14423 14425 0
-14416 -14423 14426 0
-14424 14426 0
-14416 -14424 0
-14417 14427 0
-14425 14427 0
-14417 -14425 14428 0
-14426 14428 0
-14417 -14426 0
-14418 14429 0
-14427 14429 0
-14418 -14427 14430 0
-14428 14430 0
-14418 -14428 0
-14419 14431 0
-14429 14431 0
-14419 -14429 14432 0
-14430 14432 0
-14419 -14430 0
-14420 -14432 0
-14435 24 25 26 0
-24 14435 0
-25 14435 0
-26 14435 0
14435 22 23 27 28 0
-14436 80 81 82 0
-80 14436 0
-81 14436 0
-82 14436 0
14436 78 79 83 84 0
-14437 136 137 138 0
-136 14437 0
-137 14437 0
-138 14437 0
14437 134 135 139 140 0
-14438 192 193 194 0
-192 14438 0
-193 14438 0
-194 14438 0
14438 190 191 195 196 0
-14439 199 200 201 0
-199 14439 0
-200 14439 0
-201 14439 0
14439 197 198 202 203 0
-14440 255 256 257 0
-255 14440 0
-256 14440 0
-257 14440 0
14440 253 254 258 259 0
-14441 311 312 313 0
-311 14441 0
-312 14441 0
-313 14441 0
14441 309 310 314 315 0
-14435 14442 0
-14443 0
-14444 0
-14436 14445 0
-14442 14445 0
-14436 -14442 14446 0
-14443 14446 0
-14436 -14443 14447 0
-14444 14447 0
-14436 -14444 0
-14437 14448 0
-14445 14448 0
-14437 -14445 14449 0
-14446 14449 0
-14437 -14446 14450 0
-14447 14450 0
-14437 -14447 0
-14438 14451 0
-14448 14451 0
-14438 -14448 14452 0
-14449 14452 0
-14438 -14449 14453 0
-14450 14453 0
-14438 -14450 0
-14439 14454 0
-14451 14454 0
-14439 -14451 14455 0
-14452 14455 0
-14439 -14452 14456 0
-14453 14456 0
-14439 -14453 0
-14440 14457 0
-14454 14457 0
-14440 -14454 14458 0
-14455 14458 0
-14440 -14455 14459 0
-14456 14459 0
-14440 -14456 0
-14441 -14459 0
-14463 24 25 26 27 0
-24 14463 0
-25 14463 0
-26 14463 0
-27 14463 0
14463 22 23 28 0
-14464 80 81 82 83 0
-80 14464 0
-81 14464 0
-82 14464 0
-83 14464 0
14464 78 79 84 0
-14465 136 137 138 139 0
-136 14465 0
-137 14465 0
-138 14465 0
-139 14465 0
14465 134 135 140 0
-14466 192 193 194 195 0
-192 14466 0
-193 14466 0
-194 14466 0
-195 14466 0
14466 190 191 196 0
-14467 199 200 201 202 0
-199 14467 0
-200 14467 0
-201 14467 0
-202 14467 0
14467 197 198 203 0
-14468 255 256 257 258 0
-255 14468 0
-256 14468 0
-257 14468 0
-258 14468 0
14468 253 254 259 0
-14469 311 312 313 314 0
-311 14469 0
-312 14469 0
-313 14469 0
-314 14469 0
14469 309 310 315 0
-14463 14470 0
-14471 0
-14472 0
-14473 0
-14464 14474 0
-14470 14474 0
-14464 -14470 14475 0
-14471 14475 0
-14464 -14471 14476 0
-14472 14476 0
-14464 -14472 14477 0
-14473 14477 0
-14464 -14473 0
-14465 14478 0
-14474 14478 0
-14465 -14474 14479 0
-14475 14479 0
-14465 -14475 14480 0
-14476 14480 0
-14465 -14476 14481 0
-14477 14481 0
-14465 -14477 0
-14466 14482 0
-14478 14482 0
-14466 -14478 14483 0
-14479 14483 0
-14466 -14479 14484 0
-14480 14484 0
-14466 -14480 14485 0
-14481 14485 0
-14466 -14481 0
-14467 14486 0
-14482 14486 0
-14467 -14482 14487 0
-14483 14487 0
-14467 -14483 14488 0
-14484 14488 0
-14467 -14484 14489 0
-14485 14489 0
-14467 -14485 0
-14468 14490 0
-14486 14490 0
-14468 -14486 14491 0
-14487 14491 0
-14468 -14487 14492 0
-14488 14492 0
-14468 -14488 14493 0
-14489 14493 0
-14468 -14489 0
-14469 -14493 0
-14498 24 25 26 27 28 0
-24 14498 0
-25 14498 0
-26 14498 0
-27 14498 0
-28 14498 0
14498 22 23 0
-14499 80 81 82 83 84 0
-80 14499 0
-81 14499 0
-82 14499 0
-83 14499 0
-84 14499 0
14499 78 79 0
-14500 136 137 138 139 140 0
-136 14500 0
-137 14500 0
-138 14500 0
-139 14500 0
-140 14500 0
14500 134 135 0
-14501 192 193 194 195 196 0
-192 14501 0
-193 14501 0
-194 14501 0
-195 14501 0
-196 14501 0
14501 190 191 0
-14502 199 200 201 202 203 0
-199 14502 0
-200 14502 0
-201 14502 0
-202 14502 0
-203 14502 0
14502 197 198 0
-14503 255 256 257 258 259 0
-255 14503 0
-256 14503 0
-257 14503 0
-258 14503 0
-259 14503 0
14503 253 254 0
-14504 311 312 313 314 315 0
-311 14504 0
-312 14504 0
-313 14504 0
-314 14504 0
-315 14504 0
14504 309 310 0
-14498 14505 0
-14506 0
-14507 0
-14508 0
-14509 0
-14499 14510 0
-14505 14510 0
-14499 -14505 14511 0
-14506 14511 0
-14499 -14506 14512 0
-14507 14512 0
-14499 -14507 14513 0
-14508 14513 0
-14499 -14508 14514 0
-14509 14514 0
-14499 -14509 0
-14500 14515 0
-14510 14515 0
-14500 -14510 14516 0
-14511 14516 0
-14500 -14511 14517 0
-14512 14517 0
-14500 -14512 14518 0
-14513 14518 0
-14500 -14513 14519 0
-14514 14519 0
-14500 -14514 0
-14501 14520 0
-14515 14520 0
-14501 -14515 14521 0
-14516 14521 0
-14501 -14516 14522 0
-14517 14522 0
-14501 -14517 14523 0
-14518 14523 0
-14501 -14518 14524 0
-14519 14524 0
-14501 -14519 0
-14502 14525 0
-14520 14525 0
-14502 -14520 14526 0
-14521 14526 0
-14502 -14521 14527 0
-14522 14527 0
-14502 -14522 14528 0
-14523 14528 0
-14502 -14523 14529 0
-14524 14529 0
-14502 -14524 0
-14503 14530 0
-14525 14530 0
-14503 -14525 14531 0
-14526 14531 0
-14503 -14526 14532 0
-14527 14532 0
-14503 -14527 14533 0
-14528 14533 0
-14503 -14528 14534 0
-14529 14534 0
-14503 -14529 0
-14504 -14534 0
-14540 25 0
-25 14540 0
14540 22 23 24 26 27 28 0
-14541 81 0
-81 14541 0
14541 78 79 80 82 83 84 0
-14542 137 0
-137 14542 0
14542 134 135 136 138 139 140 0
-14543 193 0
-193 14543 0
14543 190 191 192 194 195 196 0
-14544 200 0
-200 14544 0
14544 197 198 199 201 202 203 0
-14545 256 0
-256 14545 0
14545 253 254 255 257 258 259 0
-14546 312 0
-312 14546 0
14546 309 310 311 313 314 315 0
-14540 14547 0
-14541 14548 0
-14547 14548 0
-14541 -14547 0
-14542 14549 0
-14548 14549 0
-14542 -14548 0
-14543 14550 0
-14549 14550 0
-14543 -14549 0
-14544 14551 0
-14550 14551 0
-14544 -14550 0
-14545 14552 0
-14551 14552 0
-14545 -14551 0
-14546 -14552 0
-14554 25 26 0
-25 14554 0
-26 14554 0
14554 22 23 24 27 28 0
-14555 81 82 0
-81 14555 0
-82 14555 0
14555 78 79 80 83 84 0
-14556 137 138 0
-137 14556 0
-138 14556 0
14556 134 135 136 139 140 0
-14557 193 194 0
-193 14557 0
-194 14557 0
14557 190 191 192 195 196 0
-14558 200 201 0
-200 14558 0
-201 14558 0
14558 197 198 199 202 203 0
-14559 256 257 0
-256 14559 0
-257 14559 0
14559 253 254 255 258 259 0
-14560 312 313 0
-312 14560 0
-313 14560 0
14560 309 310 311 314 315 0
-14554 14561 0
-14562 0
-14555 14563 0
-14561 14563 0
-14555 -14561 14564 0
-14562 14564 0
-14555 -14562 0
-14556 14565 0
-14563 14565 0
-14556 -14563 14566 0
-14564 14566 0
-14556 -14564 0
-14557 14567 0
-14565 14567 0
-14557 -14565 14568 0
-14566 14568 0
-14557 -14566 0
-14558 14569 0
-14567 14569 0
-14558 -14567 14570 0
-14568 14570 0
-14558 -14568 0
-14559 14571 0
-14569 14571 0
-14559 -14569 14572 0
-14570 14572 0
-14559 -14570 0
-14560 -14572 0
-14575 25 26 27 0
-25 14575 0
-26 14575 0
-27 14575 0
14575 22 23 24 28 0
-14576 81 82 83 0
-81 14576 0
-82 14576 0
-83 14576 0
14576 78 79 80 84 0
-14577 137 138 139 0
-137 14577 0
-138 14577 0
-139 14577 0
14577 134 135 136 140 0
-14578 193 194 195 0
-193 14578 0
-194 14578 0
-195 14578 0
14578 190 191 192 196 0
-14579 200 201 202 0
-200 14579 0
-201 14579 0
-202 14579 0
14579 197 198 199 203 0
-14580 256 257 258 0
-256 14580 0
-257 14580 0
-258 14580 0
14580 253 254 255 259 0
-14581 312 313 314 0
-312 14581 0
-313 14581 0
-314 14581 0
14581 309 310 311 315 0
-14575 14582 0
-14583 0
-14584 0
-14576 14585 0
-14582 14585 0
-14576 -14582 14586 0
-14583 14586 0
-14576 -14583 14587 0
-14584 14587 0
-14576 -14584 0
-14577 14588 0
-14585 14588 0
-14577 -14585 14589 0
-14586 14589 0
-14577 -14586 14590 0
-14587 14590 0
-14577 -14587 0
-14578 14591 0
-14588 14591 0
-14578 -14588 14592 0
-14589 14592 0
-14578 -14589 14593 0
-14590 14593 0
-14578 -14590 0
-14579 14594 0
-14591 14594 0
-14579 -14591 14595 0
-14592 14595 0
-14579 -14592 14596 0
-14593 14596 0
-14579 -14593 0
-14580 14597 0
-14594 14597 0
-14580 -14594 14598 0
-14595 14598 0
-14580 -14595 14599 0
-14596 14599 0
-14580 -14596 0
-14581 -14599 0
-14603 25 26 27 28 0
-25 14603 0
-26 14603 0
-27 14603 0
-28 14603 0
14603 22 23 24 0
-14604 81 82 83 84 0
-81 14604 0
-82 14604 0
-83 14604 0
-84 14604 0
14604 78 79 80 0
-14605 137 138 139 140 0
-137 14605 0
-138 14605 0
-139 14605 0
-140 14605 0
14605 134 135 136 0
-14606 193 194 195 196 0
-193 14606 0
-194 14606 0
-195 14606 0
-196 14606 0
14606 190 191 192 0
-14607 200 201 202 203 0
-200 14607 0
-201 14607 0
-202 14607 0
-203 14607 0
14607 197 198 199 0
-14608 256 257 258 259 0
-256 14608 0
-257 14608 0
-258 14608 0
-259 14608 0
14608 253 254 255 0
-14609 312 313 314 315 0
-312 14609 0
-313 14609 0
-314 14609 0
-315 14609 0
14609 309 310 311 0
-14603 14610 0
-14611 0
-14612 0
-14613 0
-14604 14614 0
-14610 14614 0
-14604 -14610 14615 0
-14611 14615 0
-14604 -14611 14616 0
-14612 14616 0
-14604 -14612 14617 0
-14613 14617 0
-14604 -14613 0
-14605 14618 0
-14614 14618 0
-14605 -14614 14619 0
-14615 14619 0
-14605 -14615 14620 0
-14616 14620 0
-14605 -14616 14621 0
-14617 14621 0
-14605 -14617 0
-14606 14622 0
-14618 14622 0
-14606 -14618 14623 0
-14619 14623 0
-14606 -14619 14624 0
-14620 14624 0
-14606 -14620 14625 0
-14621 14625 0
-14606 -14621 0
-14607 14626 0
-14622 14626 0
-14607 -14622 14627 0
-14623 14627 0
-14607 -14623 14628 0
-14624 14628 0
-14607 -14624 14629 0
-14625 14629 0
-14607 -14625 0
-14608 14630 0
-14626 14630 0
-14608 -14626 14631 0
-14627 14631 0
-14608 -14627 14632 0
-14628 14632 0
-14608 -14628 14633 0
-14629 14633 0
-14608 -14629 0
-14609 -14633 0
-14638 26 0
-26 14638 0
14638 22 23 24 25 27 28 0
-14639 82 0
-82 14639 0
14639 78 79 80 81 83 84 0
-14640 138 0
-138 14640 0
14640 134 135 136 137 139 140 0
-14641 194 0
-194 14641 0
14641 190 191 192 193 195 196 0
-14642 201 0
-201 14642 0
14642 197 198 199 200 202 203 0
-14643 257 0
-257 14643 0
14643 253 254 255 256 258 259 0
-14644 313 0
-313 14644 0
14644 309 310 311 312 314 315 0
-14638 14645 0
-14639 14646 0
-14645 14646 0
-14639 -14645 0
-14640 14647 0
-14646 14647 0
-14640 -14646 0
-14641 14648 0
-14647 14648 0
-14641 -14647 0
-14642 14649 0
-14648 14649 0
-14642 -14648 0
-14643 14650 0
-14649 14650 0
-14643 -14649 0
-14644 -14650 0
-14652 26 27 0
-26 14652 0
-27 14652 0
14652 22 23 24 25 28 0
-14653 82 83 0
-82 14653 0
-83 14653 0
14653 78 79 80 81 84 0
-14654 138 139 0
-138 14654 0
-139 14654 0
14654 134 135 136 137 140 0
-14655 194 195 0
-194 14655 0
-195 14655 0
14655 190 191 192 193 196 0
-14656 201 202 0
-201 14656 0
-202 14656 0
14656 197 198 199 200 203 0
-14657 257 258 0
-257 14657 0
-258 14657 0
14657 253 254 255 256 259 0
-14658 313 314 0
-313 14658 0
-314 14658 0
14658 309 310 311 312 315 0
-14652 14659 0
-14660 0
-14653 14661 0
-14659 14661 0
-14653 -14659 14662 0
-14660 14662 0
-14653 -14660 0
-14654 14663 0
-14661 14663 0
-14654 -14661 14664 0
-14662 14664 0
-14654 -14662 0
-14655 14665 0
-14663 14665 0
-14655 -14663 14666 0
-14664 14666 0
-14655 -14664 0
-14656 14667 0
-14665 14667 0
-14656 -14665 14668 0
-14666 14668 0
-14656 -14666 0
-14657 14669 0
-14667 14669 0
-14657 -14667 14670 0
-14668 14670 0
-14657 -14668 0
-14658 -14670 0
-14673 26 27 28 0
-26 14673 0
-27 14673 0
-28 14673 0
14673 22 23 24 25 0
-14674 82 83 84 0
-82 14674 0
-83 14674 0
-84 14674 0
14674 78 79 80 81 0
-14675 138 139 140 0
-138 14675 0
-139 14675 0
-140 14675 0
14675 134 135 136 137 0
-14676 194 195 196 0
-194 14676 0
-195 14676 0
-196 14676 0
14676 190 191 192 193 0
-14677 201 202 203 0
-201 14677 0
-202 14677 0
-203 14677 0
14677 197 198 199 200 0
-14678 257 258 259 0
-257 14678 0
-258 14678 0
-259 14678 0
14678 253 254 255 256 0
-14679 313 314 315 0
-313 14679 0
-314 14679 0
-315 14679 0
14679 309 310 311 312 0
-14673 14680 0
-14681 0
-14682 0
-14674 14683 0
-14680 14683 0
-14674 -14680 14684 0
-14681 14684 0
-14674 -14681 14685 0
-14682 14685 0
-14674 -14682 0
-14675 14686 0
-14683 14686 0
-14675 -14683 14687 0
-14684 14687 0
-14675 -14684 14688 0
-14685 14688 0
-14675 -14685 0
-14676 14689 0
-14686 14689 0
-14676 -14686 14690 0
-14687 14690 0
-14676 -14687 14691 0
-14688 14691 0
-14676 -14688 0
-14677 14692 0
-14689 14692 0
-14677 -14689 14693 0
-14690 14693 0
-14677 -14690 14694 0
-14691 14694 0
-14677 -14691 0
-14678 14695 0
-14692 14695 0
-14678 -14692 14696 0
-14693 14696 0
-14678 -14693 14697 0
-14694 14697 0
-14678 -14694 0
-14679 -14697 0
-14701 27 0
-27 14701 0
14701 22 23 24 25 26 28 0
-14702 83 0
-83 14702 0
14702 78 79 80 81 82 84 0
-14703 139 0
-139 14703 0
14703 134 135 136 137 138 140 0
-14704 195 0
-195 14704 0
14704 190 191 192 193 194 196 0
-14705 202 0
-202 14705 0
14705 197 198 199 200 201 203 0
-14706 258 0
-258 14706 0
14706 253 254 255 256 257 259 0
-14707 314 0
-314 14707 0
14707 309 310 311 312 313 315 0
-14701 14708 0
-14702 14709 0
-14708 14709 0
-14702 -14708 0
-14703 14710 0
-14709 14710 0
-14703 -14709 0
-14704 14711 0
-14710 14711 0
-14704 -14710 0
-14705 14712 0
-14711 14712 0
-14705 -14711 0
-14706 14713 0
-14712 14713 0
-14706 -14712 0
-14707 -14713 0
-14715 27 28 0
-27 14715 0
-28 14715 0
14715 22 23 24 25 26 0
-14716 83 84 0
-83 14716 0
-84 14716 0
14716 78 79 80 81 82 0
-14717 139 140 0
-139 14717 0
-140 14717 0
14717 134 135 136 137 138 0
-14718 195 196 0
-195 14718 0
-196 14718 0
14718 190 191 192 193 194 0
-14719 202 203 0
-202 14719 0
-203 14719 0
14719 197 198 199 200 201 0
-14720 258 259 0
-258 14720 0
-259 14720 0
14720 253 254 255 256 257 0
-14721 314 315 0
-314 14721 0
-315 14721 0
14721 309 310 311 312 313 0
-14715 14722 0
-14723 0
-14716 14724 0
-14722 14724 0
-14716 -14722 14725 0
-14723 14725 0
-14716 -14723 0
-14717 14726 0
-14724 14726 0
-14717 -14724 14727 0
-14725 14727 0
-14717 -14725 0
-14718 14728 0
-14726 14728 0
-14718 -14726 14729 0
-14727 14729 0
-14718 -14727 0
-14719 14730 0
-14728 14730 0
-14719 -14728 14731 0
-14729 14731 0
-14719 -14729 0
-14720 14732 0
-14730 14732 0
-14720 -14730 14733 0
-14731 14733 0
-14720 -14731 0
-14721 -14733 0
-14736 28 0
-28 14736 0
14736 22 23 24 25 26 27 0
-14737 84 0
-84 14737 0
14737 78 79 80 81 82 83 0
-14738 140 0
-140 14738 0
14738 134 135 136 137 138 139 0
-14739 196 0
-196 14739 0
14739 190 191 192 193 194 195 0
-14740 203 0
-203 14740 0
14740 197 198 199 200 201 202 0
-14741 259 0
-259 14741 0
14741 253 254 255 256 257 258 0
-14742 315 0
-315 14742 0
14742 309 310 311 312 313 314 0
-14736 14743 0
-14737 14744 0
-14743 14744 0
-14737 -14743 0
-14738 14745 0
-14744 14745 0
-14738 -14744 0
-14739 14746 0
-14745 14746 0
-14739 -14745 0
-14740 14747 0
-14746 14747 0
-14740 -14746 0
-14741 14748 0
-14747 14748 0
-14741 -14747 0
-14742 -14748 0
-22 14750 0
-78 14751 0
-14750 14751 0
-78 -14750 0
-134 14752 0
-14751 14752 0
-134 -14751 0
-190 14753 0
-14752 14753 0
-190 -14752 0
-197 14754 0
-14753 14754 0
-197 -14753 0
-253 14755 0
-14754 14755 0
-253 -14754 0
-309 -14755 0
22 78 134 190 197 253 309 0
-23 14757 0
-79 14758 0
-14757 14758 0
-79 -14757 0
-135 14759 0
-14758 14759 0
-135 -14758 0
-191 14760 0
-14759 14760 0
-191 -14759 0
-198 14761 0
-14760 14761 0
-198 -14760 0
-254 14762 0
-14761 14762 0
-254 -14761 0
-310 -14762 0
23 79 135 191 198 254 310 0
-24 14764 0
-80 14765 0
-14764 14765 0
-80 -14764 0
-136 14766 0
-14765 14766 0
-136 -14765 0
-192 14767 0
-14766 14767 0
-192 -14766 0
-199 14768 0
-14767 14768 0
-199 -14767 0
-255 14769 0
-14768 14769 0
-255 -14768 0
-311 -14769 0
24 80 136 192 199 255 311 0
-25 14771 0
-81 14772 0
-14771 14772 0
-81 -14771 0
-137 14773 0
-14772 14773 0
-137 -14772 0
-193 14774 0
-14773 14774 0
-193 -14773 0
-200 14775 0
-14774 14775 0
-200 -14774 0
-256 14776 0
-14775 14776 0
-256 -14775 0
-312 -14776 0
25 81 137 193 200 256 312 0
-26 14778 0
-82 14779 0
-14778 14779 0
-82 -14778 0
-138 14780 0
-14779 14780 0
-138 -14779 0
-194 14781 0
-14780 14781 0
-194 -14780 0
-201 14782 0
-14781 14782 0
-201 -14781 0
-257 14783 0
-14782 14783 0
-257 -14782 0
-313 -14783 0
26 82 138 194 201 257 313 0
-27 14785 0
-83 14786 0
-14785 14786 0
-83 -14785 0
-139 14787 0
-14786 14787 0
-139 -14786 0
-195 14788 0
-14787 14788 0
-195 -14787 0
-202 14789 0
-14788 14789 0
-202 -14788 0
-258 14790 0
-14789 14790 0
-258 -14789 0
-314 -14790 0
27 83 139 195 202 258 314 0
-28 14792 0
-84 14793 0
-14792 14793 0
-84 -14792 0
-140 14794 0
-14793 14794 0
-140 -14793 0
-196 14795 0
-14794 14795 0
-196 -14794 0
-203 14796 0
-14795 14796 0
-203 -14795 0
-259 14797 0
-14796 14797 0
-259 -14796 0
-315 -14797 0
28 84 140 196 203 259 315 0
-14799 29 0
-29 14799 0
14799 30 31 32 33 34 35 0
-14800 85 0
-85 14800 0
14800 86 87 88 89 90 91 0
-14801 141 0
-141 14801 0
14801 142 143 144 145 146 147 0
-14802 148 0
-148 14802 0
14802 149 150 151 152 153 154 0
-14803 204 0
-204 14803 0
14803 205 206 207 208 209 210 0
-14804 260 0
-260 14804 0
14804 261 262 263 264 265 266 0
-14805 316 0
-316 14805 0
14805 317 318 319 320 321 322 0
-14799 14806 0
-14800 14807 0
-14806 14807 0
-14800 -14806 0
-14801 14808 0
-14807 14808 0
-14801 -14807 0
-14802 14809 0
-14808 14809 0
-14802 -14808 0
-14803 14810 0
-14809 14810 0
-14803 -14809 0
-14804 14811 0
-14810 14811 0
-14804 -14810 0
-14805 -14811 0
-14813 29 30 0
-29 14813 0
-30 14813 0
14813 31 32 33 34 35 0
-14814 85 86 0
-85 14814 0
-86 14814 0
14814 87 88 89 90 91 0
-14815 141 142 0
-141 14815 0
-142 14815 0
14815 143 144 145 146 147 0
-14816 148 149 0
-148 14816 0
-149 14816 0
14816 150 151 152 153 154 0
-14817 204 205 0
-204 14817 0
-205 14817 0
14817 206 207 208 209 210 0
-14818 260 261 0
-260 14818 0
-261 14818 0
14818 262 263 264 265 266 0
-14819 316 317 0
-316 14819 0
-317 14819 0
14819 318 319 320 321 322 0
-14813 14820 0
-14821 0
-14814 14822 0
-14820 14822 0
-14814 -14820 14823 0
-14821 14823 0
-14814 -14821 0
-14815 14824 0
-14822 14824 0
-14815 -14822 14825 0
-14823 14825 0
-14815 -14823 0
-14816 14826 0
-14824 14826 0
-14816 -14824 14827 0
-14825 14827 0
-14816 -14825 0
-14817 14828 0
-14826 14828 0
-14817 -14826 14829 0
-14827 14829 0
-14817 -14827 0
-14818 14830 0
-14828 14830 0
-14818 -14828 14831 0
-14829 14831 0
-14818 -14829 0
-14819 -14831 0
-14834 29 30 31 0
-29 14834 0
-30 14834 0
-31 14834 0
14834 32 33 34 35 0
-14835 85 86 87 0
-85 14835 0
-86 14835 0
-87 14835 0
14835 88 89 90 91 0
-14836 141 142 143 0
-141 14836 0
-142 14836 0
-143 14836 0
14836 144 145 146 147 0
-14837 148 149 150 0
-148 14837 0
-149 14837 0
-150 14837 0
14837 151 152 153 154 0
-14838 204 205 206 0
-204 14838 0
-205 14838 0
-206 14838 0
14838 207 208 209 210 0
-14839 260 261 262 0
-260 14839 0
-261 14839 0
-262 14839 0
14839 263 264 265 266 0
-14840 316 317 318 0
-316 14840 0
-317 14840 0
-318 14840 0
14840 319 320 321 322 0
-14834 14841 0
-14842 0
-14843 0
-14835 14844 0
-14841 14844 0
-14835 -14841 14845 0
-14842 14845 0
-14835 -14842 14846 0
-14843 14846 0
-14835 -14843 0
-14836 14847 0
-14844 14847 0
-14836 -14844 14848 0
-14845 14848 0
-14836 -14845 14849 0
-14846 14849 0
-14836 -14846 0
-14837 14850 0
-14847 14850 0
-14837 -14847 14851 0
-14848 14851 0
-14837 -14848 14852 0
-14849 14852 0
-14837 -14849 0
-14838 14853 0
-14850 14853 0
-14838 -14850 14854 0
-14851 14854 0
-14838 -14851 14855 0
-14852 14855 0
-14838 -14852 0
-14839 14856 0
-14853 14856 0
-14839 -14853 14857 0
-14854 14857 0
-14839 -14854 14858 0
-14855 14858 0
-14839 -14855 0
-14840 -14858 0
-14862 29 30 31 32 0
-29 14862 0
-30 14862 0
-31 14862 0
-32 14862 0
14862 33 34 35 0
-14863 85 86 87 88 0
-85 14863 0
-86 14863 0
-87 14863 0
-88 14863 0
14863 89 90 91 0
-14864 141 142 143 144 0
-141 14864 0
-142 14864 0
-143 14864 0
-144 14864 0
14864 145 146 147 0
-14865 148 149 150 151 0
-148 14865 0
-149 14865 0
-150 14865 0
-151 14865 0
14865 152 153 154 0
-14866 204 205 206 207 0
-204 14866 0
-205 14866 0
-206 14866 0
-207 14866 0
14866 208 209 210 0
-14867 260 261 262 263 0
-260 14867 0
-261 14867 0
-262 14867 0
-263 14867 0
14867 264 265 266 0
-14868 316 317 318 319 0
-316 14868 0
-317 14868 0
-318 14868 0
-319 14868 0
14868 320 321 322 0
-14862 14869 0
-14870 0
-14871 0
-14872 0
-14863 14873 0
-14869 14873 0
-14863 -14869 14874 0
-14870 14874 0
-14863 -14870 14875 0
-14871 14875 0
-14863 -14871 14876 0
-14872 14876 0
-14863 -14872 0
-14864 14877 0
-14873 14877 0
-14864 -14873 14878 0
-14874 14878 0
-14864 -14874 14879 0
-14875 14879 0
-14864 -14875 14880 0
-14876 14880 0
-14864 -14876 0
-14865 14881 0
-14877 14881 0
-14865 -14877 14882 0
-14878 14882 0
-14865 -14878 14883 0
-14879 14883 0
-14865 -14879 14884 0
-14880 14884 0
-14865 -14880 0
-14866 14885 0
-14881 14885 0
-14866 -14881 14886 0
-14882 14886 0
-14866 -14882 14887 0
-14883 14887 0
-14866 -14883 14888 0
-14884 14888 0
-14866 -14884 0
-14867 14889 0
-14885 14889 0
-14867 -14885 14890 0
-14886 14890 0
-14867 -14886 14891 0
-14887 14891 0
-14867 -14887 14892 0
-14888 14892 0
-14867 -14888 0
-14868 -14892 0
-14897 29 30 31 32 33 0
-29 14897 0
-30 14897 0
-31 14897 0
-32 14897 0
-33 14897 0
14897 34 35 0
-14898 85 86 87 88 89 0
-85 14898 0
-86 14898 0
-87 14898 0
-88 14898 0
-89 14898 0
14898 90 91 0
-14899 141 142 143 144 145 0
-141 14899 0
-142 14899 0
-143 14899 0
-144 14899 0
-145 14899 0
14899 146 147 0
-14900 148 149 150 151 152 0
-148 14900 0
-149 14900 0
-150 14900 0
-151 14900 0
-152 14900 0
14900 153 154 0
-14901 204 205 206 207 208 0
-204 14901 0
-205 14901 0
-206 14901 0
-207 14901 0
-208 14901 0
14901 209 210 0
-14902 260 261 262 263 264 0
-260 14902 0
-261 14902 0
-262 14902 0
-263 14902 0
-264 14902 0
14902 265 266 0
-14903 316 317 318 319 320 0
-316 14903 0
-317 14903 0
-318 14903 0
-319 14903 0
-320 14903 0
14903 321 322 0
-14897 14904 0
-14905 0
-14906 0
-14907 0
-14908 0
-14898 14909 0
-14904 14909 0
-14898 -14904 14910 0
-14905 14910 0
-14898 -14905 14911 0
-14906 14911 0
-14898 -14906 14912 0
-14907 14912 0
-14898 -14907 14913 0
-14908 14913 0
-14898 -14908 0
-14899 14914 0
-14909 14914 0
-14899 -14909 14915 0
-14910 14915 0
-14899 -14910 14916 0
-14911 14916 0
-14899 -14911 14917 0
-14912 14917 0
-14899 -14912 14918 0
-14913 14918 0
-14899 -14913 0
-14900 14919 0
-14914 14919 0
-14900 -14914 14920 0
-14915 14920 0
-14900 -14915 14921 0
-14916 14921 0
-14900 -14916 14922 0
-14917 14922 0
-14900 -14917 14923 0
-14918 14923 0
-14900 -14918 0
-14901 14924 0
-14919 14924 0
-14901 -14919 14925 0
-14920 14925 0
-14901 -14920 14926 0
-14921 14926 0
-14901 -14921 14927 0
-14922 14927 0
-14901 -14922 14928 0
-14923 14928 0
-14901 -14923 0
-14902 14929 0
-14924 14929 0
-14902 -14924 14930 0
-14925 14930 0
-14902 -14925 14931 0
-14926 14931 0
-14902 -14926 14932 0
-14927 14932 0
-14902 -14927 14933 0
-14928 14933 0
-14902 -14928 0
-14903 -14933 0
-14939 29 30 31 32 33 34 0
-29 14939 0
-30 14939 0
-31 14939 0
-32 14939 0
-33 14939 0
-34 14939 0
14939 35 0
-14940 85 86 87 88 89 90 0
-85 14940 0
-86 14940 0
-87 14940 0
-88 14940 0
-89 14940 0
-90 14940 0
14940 91 0
-14941 141 142 143 144 145 146 0
-141 14941 0
-142 14941 0
-143 14941 0
-144 14941 0
-145 14941 0
-146 14941 0
14941 147 0
-14942 148 149 150 151 152 153 0
-148 14942 0
-149 14942 0
-150 14942 0
-151 14942 0
-152 14942 0
-153 14942 0
14942 154 0
-14943 204 205 206 207 208 209 0
-204 14943 0
-205 14943 0
-206 14943 0
-207 14943 0
-208 14943 0
-209 14943 0
14943 210 0
-14944 260 261 262 263 264 265 0
-260 14944 0
-261 14944 0
-262 14944 0
-263 14944 0
-264 14944 0
-265 14944 0
14944 266 0
-14945 316 317 318 319 320 321 0
-316 14945 0
-317 14945 0
-318 14945 0
-319 14945 0
-320 14945 0
-321 14945 0
14945 322 0
-14939 14946 0
-14947 0
-14948 0
-14949 0
-14950 0
-14951 0
-14940 14952 0
-14946 14952 0
-14940 -14946 14953 0
-14947 14953 0
-14940 -14947 14954 0
-14948 14954 0
-14940 -14948 14955 0
-14949 14955 0
-14940 -14949 14956 0
-14950 14956 0
-14940 -14950 14957 0
-14951 14957 0
-14940 -14951 0
-14941 14958 0
-14952 14958 0
-14941 -14952 14959 0
-14953 14959 0
-14941 -14953 14960 0
-14954 14960 0
-14941 -14954 14961 0
-14955 14961 0
-14941 -14955 14962 0
-14956 14962 0
-14941 -14956 14963 0
-14957 14963 0
-14941 -14957 0
-14942 14964 0
-14958 14964 0
-14942 -14958 14965 0
-14959 14965 0
-14942 -14959 14966 0
-14960 14966 0
-14942 -14960 14967 0
-14961 14967 0
-14942 -14961 14968 0
-14962 14968 0
-14942 -14962 14969 0
-14963 14969 0
-14942 -14963 0
-14943 14970 0
-14964 14970 0
-14943 -14964 14971 0
-14965 14971 0
-14943 -14965 14972 0
-14966 14972 0
-14943 -14966 14973 0
-14967 14973 0
-14943 -14967 14974 0
-14968 14974 0
-14943 -14968 14975 0
-14969 14975 0
-14943 -14969 0
-14944 14976 0
-14970 14976 0
-14944 -14970 14977 0
-14971 14977 0
-14944 -14971 14978 0
-14972 14978 0
-14944 -14972 14979 0
-14973 14979 0
-14944 -14973 14980 0
-14974 14980 0
-14944 -14974 14981 0
-14975 14981 0
-14944 -14975 0
-14945 -14981 0
-14988 29 30 31 32 33 34 35 0
-29 14988 0
-30 14988 0
-31 14988 0
-32 14988 0
-33 14988 0
-34 14988 0
-35 14988 0
14988 0
-14989 85 86 87 88 89 90 91 0
-85 14989 0
-86 14989 0
-87 14989 0
-88 14989 0
-89 14989 0
-90 14989 0
-91 14989 0
14989 0
-14990 141 142 143 144 145 146 147 0
-141 14990 0
-142 14990 0
-143 14990 0
-144 14990 0
-145 14990 0
-146 14990 0
-147 14990 0
14990 0
-14991 148 149 150 151 152 153 154 0
-148 14991 0
-149 14991 0
-150 14991 0
-151 14991 0
-152 14991 0
-153 14991 0
-154 14991 0
14991 0
-14992 204 205 206 207 208 209 210 0
-204 14992 0
-205 14992 0
-206 14992 0
-207 14992 0
-208 14992 0
-209 14992 0
-210 14992 0
14992 0
-14993 260 261 262 263 264 265 266 0
-260 14993 0
-261 14993 0
-262 14993 0
-263 14993 0
-264 14993 0
-265 14993 0
-266 14993 0
14993 0
-14994 316 317 318 319 320 321 322 0
-316 14994 0
-317 14994 0
-318 14994 0
-319 14994 0
-320 14994 0
-321 14994 0
-322 14994 0
14994 0
-14995 30 0
-30 14995 0
14995 29 31 32 33 34 35 0
-14996 86 0
-86 14996 0
14996 85 87 88 89 90 91 0
-14997 142 0
-142 14997 0
14997 141 143 144 145 146 147 0
-14998 149 0
-149 14998 0
14998 148 150 151 152 153 154 0
-14999 205 0
-205 14999 0
14999 204 206 207 208 209 210 0
-15000 261 0
-261 15000 0
15000 260 262 263 264 265 266 0
-15001 317 0
-317 15001 0
15001 316 318 319 320 321 322 0
-14995 15002 0
-14996 15003 0
-15002 15003 0
-14996 -15002 0
-14997 15004 0
-15003 15004 0
-14997 -15003 0
-14998 15005 0
-15004 15005 0
-14998 -15004 0
-14999 15006 0
-15005 15006 0
-14999 -15005 0
-15000 15007 0
-15006 15007 0
-15000 -15006 0
-15001 -15007 0
-15009 30 31 0
-30 15009 0
-31 15009 0
15009 29 32 33 34 35 0
-15010 86 87 0
-86 15010 0
-87 15010 0
15010 85 88 89 90 91 0
-15011 142 143 0
-142 15011 0
-143 15011 0
15011 141 144 145 146 147 0
-15012 149 150 0
-149 15012 0
-150 15012 0
15012 148 151 152 153 154 0
-15013 205 206 0
-205 15013 0
-206 15013 0
15013 204 207 208 209 210 0
-15014 261 262 0
-261 15014 0
-262 15014 0
15014 260 263 264 265 266 0
-15015 317 318 0
-317 15015 0
-318 15015 0
15015 316 319 320 321 322 0
-15009 15016 0
-15017 0
-15010 15018 0
-15016 15018 0
-15010 -15016 15019 0
-15017 15019 0
-15010 -15017 0
-15011 15020 0
-15018 15020 0
-15011 -15018 15021 0
-15019 15021 0
-15011 -15019 0
-15012 15022 0
-15020 15022 0
-15012 -15020 15023 0
-15021 15023 0
-15012 -15021 0
-15013 15024 0
-15022 15024 0
-15013 -15022 15025 0
-15023 15025 0
-15013 -15023 0
-15014 15026 0
-15024 15026 0
-15014 -15024 15027 0
-15025 15027 0
-15014 -15025 0
-15015 -15027 0
-15030 30 31 32 0
-30 15030 0
-31 15030 0
-32 15030 0
15030 29 33 34 35 0
-15031 86 87 88 0
-86 15031 0
-87 15031 0
-88 15031 0
15031 85 89 90 91 0
-15032 142 143 144 0
-142 15032 0
-143 15032 0
-144 15032 0
15032 141 145 146 147 0
-15033 149 150 151 0
-149 15033 0
-150 15033 0
-151 15033 0
15033 148 152 153 154 0
-15034 205 206 207 0
-205 15034 0
-206 15034 0
-207 15034 0
15034 204 208 209 210 0
-15035 261 262 263 0
-261 15035 0
-262 15035 0
-263 15035 0
15035 260 264 265 266 0
-15036 317 318 319 0
-317 15036 0
-318 15036 0
-319 15036 0
15036 316 320 321 322 0
-15030 15037 0
-15038 0
-15039 0
-15031 15040 0
-15037 15040 0
-15031 -15037 15041 0
-15038 15041 0
-15031 -15038 15042 0
-15039 15042 0
-15031 -15039 0
-15032 15043 0
-15040 15043 0
-15032 -15040 15044 0
-15041 15044 0
-15032 -15041 15045 0
-15042 15045 0
-15032 -15042 0
-15033 15046 0
-15043 15046 0
-15033 -15043 15047 0
-15044 15047 0
-15033 -15044 15048 0
-15045 15048 0
-15033 -15045 0
-15034 15049 0
-15046 15049 0
-15034 -15046 15050 0
-15047 15050 0
-15034 -15047 15051 0
-15048 15051 0
-15034 -15048 0
-15035 15052 0
-15049 15052 0
-15035 -15049 15053 0
-15050 15053 0
-15035 -15050 15054 0
-15051 15054 0
-15035 -15051 0
-15036 -15054 0
-15058 30 31 32 33 0
-30 15058 0
-31 15058 0
-32 15058 0
-33 15058 0
15058 29 34 35 0
-15059 86 87 88 89 0
-86 15059 0
-87 15059 0
-88 15059 0
-89 15059 0
15059 85 90 91 0
-15060 142 143 144 145 0
-142 15060 0
-143 15060 0
-144 15060 0
-145 15060 0
15060 141 146 147 0
-15061 149 150 151 152 0
-149 15061 0
-150 15061 0
-151 15061 0
-152 15061 0
15061 148 153 154 0
-15062 205 206 207 208 0
-205 15062 0
-206 15062 0
-207 15062 0
-208 15062 0
15062 204 209 210 0
-15063 261 262 263 264 0
-261 15063 0
-262 15063 0
-263 15063 0
-264 15063 0
15063 260 265 266 0
-15064 317 318 319 320 0
-317 15064 0
-318 15064 0
-319 15064 0
-320 15064 0
15064 316 321 322 0
-15058 15065 0
-15066 0
-15067 0
-15068 0
-15059 15069 0
-15065 15069 0
-15059 -15065 15070 0
-15066 15070 0
-15059 -15066 15071 0
-15067 15071 0
-15059 -15067 15072 0
-15068 15072 0
-15059 -15068 0
-15060 15073 0
-15069 15073 0
-15060 -15069 15074 0
-15070 15074 0
-15060 -15070 15075 0
-15071 15075 0
-15060 -15071 15076 0
-15072 15076 0
-15060 -15072 0
-15061 15077 0
-15073 15077 0
-15061 -15073 15078 0
-15074 15078 0
-15061 -15074 15079 0
-15075 15079 0
-15061 -15075 15080 0
-15076 15080 0
-15061 -15076 0
-15062 15081 0
-15077 15081 0
-15062 -15077 15082 0
-15078 15082 0
-15062 -15078 15083 0
-15079 15083 0
-15062 -15079 15084 0
-15080 15084 0
-15062 -15080 0
-15063 15085 0
-15081 15085 0
-15063 -15081 15086 0
-15082 15086 0
-15063 -15082 15087 0
-15083 15087 0
-15063 -15083 15088 0
-15084 15088 0
-15063 -15084 0
-15064 -15088 0
-15093 30 31 32 33 34 0
-30 15093 0
-31 15093 0
-32 15093 0
-33 15093 0
-34 15093 0
15093 29 35 0
-15094 86 87 88 89 90 0
-86 15094 0
-87 15094 0
-88 15094 0
-89 15094 0
-90 15094 0
15094 85 91 0
-15095 142 143 144 145 146 0
-142 15095 0
-143 15095 0
-144 15095 0
-145 15095 0
-146 15095 0
15095 141 147 0
-15096 149 150 151 152 153 0
-149 15096 0
-150 15096 0
-151 15096 0
-152 15096 0
-153 15096 0
15096 148 154 0
-15097 205 206 207 208 209 0
-205 15097 0
-206 15097 0
-207 15097 0
-208 15097 0
-209 15097 0
15097 204 210 0
-15098 261 262 263 264 265 0
-261 15098 0
-262 15098 0
-263 15098 0
-264 15098 0
-265 15098 0
15098 260 266 0
-15099 317 318 319 320 321 0
-317 15099 0
-318 15099 0
-319 15099 0
-320 15099 0
-321 15099 0
15099 316 322 0
-15093 15100 0
-15101 0
-15102 0
-15103 0
-15104 0
-15094 15105 0
-15100 15105 0
-15094 -15100 15106 0
-15101 15106 0
-15094 -15101 15107 0
-15102 15107 0
-15094 -15102 15108 0
-15103 15108 0
-15094 -15103 15109 0
-15104 15109 0
-15094 -15104 0
-15095 15110 0
-15105 15110 0
-15095 -15105 15111 0
-15106 15111 0
-15095 -15106 15112 0
-15107 15112 0
-15095 -15107 15113 0
-15108 15113 0
-15095 -15108 15114 0
-15109 15114 0
-15095 -15109 0
-15096 15115 0
-15110 15115 0
-15096 -15110 15116 0
-15111 15116 0
-15096 -15111 15117 0
-15112 15117 0
-15096 -15112 15118 0
-15113 15118 0
-15096 -15113 15119 0
-15114 15119 0
-15096 -15114 0
-15097 15120 0
-15115 15120 0
-15097 -15115 15121 0
-15116 15121 0
-15097 -15116 15122 0
-15117 15122 0
-15097 -15117 15123 0
-15118 15123 0
-15097 -15118 15124 0
-15119 15124 0
-15097 -15119 0
-15098 15125 0
-15120 15125 0
-15098 -15120 15126 0
-15121 15126 0
-15098 -15121 15127 0
-15122 15127 0
-15098 -15122 15128 0
-15123 15128 0
-15098 -15123 15129 0
-15124 15129 0
-15098 -15124 0
-15099 -15129 0
-15135 30 31 32 33 34 35 0
-30 15135 0
-31 15135 0
-32 15135 0
-33 15135 0
-34 15135 0
-35 15135 0
15135 29 0
-15136 86 87 88 89 90 91 0
-86 15136 0
-87 15136 0
-88 15136 0
-89 15136 0
-90 15136 0
-91 15136 0
15136 85 0
-15137 142 143 144 145 146 147 0
-142 15137 0
-143 15137 0
-144 15137 0
-145 15137 0
-146 15137 0
-147 15137 0
15137 141 0
-15138 149 150 151 152 153 154 0
-149 15138 0
-150 15138 0
-151 15138 0
-152 15138 0
-153 15138 0
-154 15138 0
15138 148 0
-15139 205 206 207 208 209 210 0
-205 15139 0
-206 15139 0
-207 15139 0
-208 15139 0
-209 15139 0
-210 15139 0
15139 204 0
-15140 261 262 263 264 265 266 0
-261 15140 0
-262 15140 0
-263 15140 0
-264 15140 0
-265 15140 0
-266 15140 0
15140 260 0
-15141 317 318 319 320 321 322 0
-317 15141 0
-318 15141 0
-319 15141 0
-320 15141 0
-321 15141 0
-322 15141 0
15141 316 0
-15135 15142 0
-15143 0
-15144 0
-15145 0
-15146 0
-15147 0
-15136 15148 0
-15142 15148 0
-15136 -15142 15149 0
-15143 15149 0
-15136 -15143 15150 0
-15144 15150 0
-15136 -15144 15151 0
-15145 15151 0
-15136 -15145 15152 0
-15146 15152 0
-15136 -15146 15153 0
-15147 15153 0
-15136 -15147 0
-15137 15154 0
-15148 15154 0
-15137 -15148 15155 0
-15149 15155 0
-15137 -15149 15156 0
-15150 15156 0
-15137 -15150 15157 0
-15151 15157 0
-15137 -15151 15158 0
-15152 15158 0
-15137 -15152 15159 0
-15153 15159 0
-15137 -15153 0
-15138 15160 0
-15154 15160 0
-15138 -15154 15161 0
-15155 15161 0
-15138 -15155 15162 0
-15156 15162 0
-15138 -15156 15163 0
-15157 15163 0
-15138 -15157 15164 0
-15158 15164 0
-15138 -15158 15165 0
-15159 15165 0
-15138 -15159 0
-15139 15166 0
-15160 15166 0
-15139 -15160 15167 0
-15161 15167 0
-15139 -15161 15168 0
-15162 15168 0
-15139 -15162 15169 0
-15163 15169 0
-15139 -15163 15170 0
-15164 15170 0
-15139 -15164 15171 0
-15165 15171 0
-15139 -15165 0
-15140 15172 0
-15166 15172 0
-15140 -15166 15173 0
-15167 15173 0
-15140 -15167 15174 0
-15168 15174 0
-15140 -15168 15175 0
-15169 15175 0
-15140 -15169 15176 0
-15170 15176 0
-15140 -15170 15177 0
-15171 15177 0
-15140 -15171 0
-15141 -15177 0
-15184 31 0
-31 15184 0
15184 29 30 32 33 34 35 0
-15185 87 0
-87 15185 0
15185 85 86 88 89 90 91 0
-15186 143 0
-143 15186 0
15186 141 142 144 145 146 147 0
-15187 150 0
-150 15187 0
15187 148 149 151 152 153 154 0
-15188 206 0
-206 15188 0
15188 204 205 207 208 209 210 0
-15189 262 0
-262 15189 0
15189 260 261 263 264 265 266 0
-15190 318 0
-318 15190 0
15190 316 317 319 320 321 322 0
-15184 15191 0
-15185 15192 0
-15191 15192 0
-15185 -15191 0
-15186 15193 0
-15192 15193 0
-15186 -15192 0
-15187 15194 0
-15193 15194 0
-15187 -15193 0
-15188 15195 0
-15194 15195 0
-15188 -15194 0
-15189 15196 0
-15195 15196 0
-15189 -15195 0
-15190 -15196 0
-15198 31 32 0
-31 15198 0
-32 15198 0
15198 29 30 33 34 35 0
-15199 87 88 0
-87 15199 0
-88 15199 0
15199 85 86 89 90 91 0
-15200 143 144 0
-143 15200 0
-144 15200 0
15200 141 142 145 146 147 0
-15201 150 151 0
-150 15201 0
-151 15201 0
15201 148 149 152 153 154 0
-15202 206 207 0
-206 15202 0
-207 15202 0
15202 204 205 208 209 210 0
-15203 262 263 0
-262 15203 0
-263 15203 0
15203 260 261 264 265 266 0
-15204 318 319 0
-318 15204 0
-319 15204 0
15204 316 317 320 321 322 0
-15198 15205 0
-15206 0
-15199 15207 0
-15205 15207 0
-15199 -15205 15208 0
-15206 15208 0
-15199 -15206 0
-15200 15209 0
-15207 15209 0
-15200 -15207 15210 0
-15208 15210 0
-15200 -15208 0
-15201 15211 0
-15209 15211 0
-15201 -15209 15212 0
-15210 15212 0
-15201 -15210 0
-15202 15213 0
-15211 15213 0
-15202 -15211 15214 0
-15212 15214 0
-15202 -15212 0
-15203 15215 0
-15213 15215 0
-15203 -15213 15216 0
-15214 15216 0
-15203 -15214 0
-15204 -15216 0
-15219 31 32 33 0
-31 15219 0
-32 15219 0
-33 15219 0
15219 29 30 34 35 0
-15220 87 88 89 0
-87 15220 0
-88 15220 0
-89 15220 0
15220 85 86 90 91 0
-15221 143 144 145 0
-143 15221 0
-144 15221 0
-145 15221 0
15221 141 142 146 147 0
-15222 150 151 152 0
-150 15222 0
-151 15222 0
-152 15222 0
15222 148 149 153 154 0
-15223 206 207 208 0
-206 15223 0
-207 15223 0
-208 15223 0
15223 204 205 209 210 0
-15224 262 263 264 0
-262 15224 0
-263 15224 0
-264 15224 0
15224 260 261 265 266 0
-15225 318 319 320 0
-318 15225 0
-319 15225 0
-320 15225 0
15225 316 317 321 322 0
-15219 15226 0
-15227 0
-15228 0
-15220 15229 0
-15226 15229 0
-15220 -15226 15230 0
-15227 15230 0
-15220 -15227 15231 0
-15228 15231 0
-15220 -15228 0
-15221 15232 0
-15229 15232 0
-15221 -15229 15233 0
-15230 15233 0
-15221 -15230 15234 0
-15231 15234 0
-15221 -15231 0
-15222 15235 0
-15232 15235 0
-15222 -15232 15236 0
-15233 15236 0
-15222 -15233 15237 0
-15234 15237 0
-15222 -15234 0
-15223 15238 0
-15235 15238 0
-15223 -15235 15239 0
-15236 15239 0
-15223 -15236 15240 0
-15237 15240 0
-15223 -15237 0
-15224 15241 0
-15238 15241 0
-15224 -15238 15242 0
-15239 15242 0
-15224 -15239 15243 0
-15240 15243 0
-15224 -15240 0
-15225 -15243 0
-15247 31 32 33 34 0
-31 15247 0
-32 15247 0
-33 15247 0
-34 15247 0
15247 29 30 35 0
-15248 87 88 89 90 0
-87 15248 0
-88 15248 0
-89 15248 0
-90 15248 0
15248 85 86 91 0
-15249 143 144 145 146 0
-143 15249 0
-144 15249 0
-145 15249 0
-146 15249 0
15249 141 142 147 0
-15250 150 151 152 153 0
-150 15250 0
-151 15250 0
-152 15250 0
-153 15250 0
15250 148 149 154 0
-15251 206 207 208 209 0
-206 15251 0
-207 15251 0
-208 15251 0
-209 15251 0
15251 204 205 210 0
-15252 262 263 264 265 0
-262 15252 0
-263 15252 0
-264 15252 0
-265 15252 0
15252 260 261 266 0
-15253 318 319 320 321 0
-318 15253 0
-319 15253 0
-320 15253 0
-321 15253 0
15253 316 317 322 0
-15247 15254 0
-15255 0
-15256 0
-15257 0
-15248 15258 0
-15254 15258 0
-15248 -15254 15259 0
-15255 15259 0
-15248 -15255 15260 0
-15256 15260 0
-15248 -15256 15261 0
-15257 15261 0
-15248 -15257 0
-15249 15262 0
-15258 15262 0
-15249 -15258 15263 0
-15259 15263 0
-15249 -15259 15264 0
-15260 15264 0
-15249 -15260 15265 0
-15261 15265 0
-15249 -15261 0
-15250 15266 0
-15262 15266 0
-15250 -15262 15267 0
-15263 15267 0
-15250 -15263 15268 0
-15264 15268 0
-15250 -15264 15269 0
-15265 15269 0
-15250 -15265 0
-15251 15270 0
-15266 15270 0
-15251 -15266 15271 0
-15267 15271 0
-15251 -15267 15272 0
-15268 15272 0
-15251 -15268 15273 0
-15269 15273 0
-15251 -15269 0
-15252 15274 0
-15270 15274 0
-15252 -15270 15275 0
-15271 15275 0
-15252 -15271 15276 0
-15272 15276 0
-15252 -15272 15277 0
-15273 15277 0
-15252 -15273 0
-15253 -15277 0
-15282 31 32 33 34 35 0
-31 15282 0
-32 15282 0
-33 15282 0
-34 15282 0
-35 15282 0
15282 29 30 0
-15283 87 88 89 90 91 0
-87 15283 0
-88 15283 0
-89 15283 0
-90 15283 0
-91 15283 0
15283 85 86 0
-15284 143 144 145 146 147 0
-143 15284 0
-144 15284 0
-145 15284 0
-146 15284 0
-147 15284 0
15284 141 142 0
-15285 150 151 152 153 154 0
-150 15285 0
-151 15285 0
-152 15285 0
-153 15285 0
-154 15285 0
15285 148 149 0
-15286 206 207 208 209 210 0
-206 15286 0
-207 15286 0
-208 15286 0
-209 15286 0
-210 15286 0
15286 204 205 0
-15287 262 263 264 265 266 0
-262 15287 0
-263 15287 0
-264 15287 0
-265 15287 0
-266 15287 0
15287 260 261 0
-15288 318 319 320 321 322 0
-318 15288 0
-319 15288 0
-320 15288 0
-321 15288 0
-322 15288 0
15288 316 317 0
-15282 15289 0
-15290 0
-15291 0
-15292 0
-15293 0
-15283 15294 0
-15289 15294 0
-15283 -15289 15295 0
-15290 15295 0
-15283 -15290 15296 0
-15291 15296 0
-15283 -15291 15297 0
-15292 15297 0
-15283 -15292 15298 0
-15293 15298 0
-15283 -15293 0
-15284 15299 0
-15294 15299 0
-15284 -15294 15300 0
-15295 15300 0
-15284 -15295 15301 0
-15296 15301 0
-15284 -15296 15302 0
-15297 15302 0
-15284 -15297 15303 0
-15298 15303 0
-15284 -15298 0
-15285 15304 0
-15299 15304 0
-15285 -15299 15305 0
-15300 15305 0
-15285 -15300 15306 0
-15301 15306 0
-15285 -15301 15307 0
-15302 15307 0
-15285 -15302 15308 0
-15303 15308 0
-15285 -15303 0
-15286 15309 0
-15304 15309 0
-15286 -15304 15310 0
-15305 15310 0
-15286 -15305 15311 0
-15306 15311 0
-15286 -15306 15312 0
-15307 15312 0
-15286 -15307 15313 0
-15308 15313 0
-15286 -15308 0
-15287 15314 0
-15309 15314 0
-15287 -15309 15315 0
-15310 15315 0
-15287 -15310 15316 0
-15311 15316 0
-15287 -15311 15317 0
-15312 15317 0
-15287 -15312 15318 0
-15313 15318 0
-15287 -15313 0
-15288 -15318 0
-15324 32 0
-32 15324 0
15324 29 30 31 33 34 35 0
-15325 88 0
-88 15325 0
15325 85 86 87 89 90 91 0
-15326 144 0
-144 15326 0
15326 141 142 143 145 146 147 0
-15327 151 0
-151 15327 0
15327 148 149 150 152 153 154 0
-15328 207 0
-207 15328 0
15328 204 205 206 208 209 210 0
-15329 263 0
-263 15329 0
15329 260 261 262 264 265 266 0
-15330 319 0
-319 15330 0
15330 316 317 318 320 321 322 0
-15324 15331 0
-15325 15332 0
-15331 15332 0
-15325 -15331 0
-15326 15333 0
-15332 15333 0
-15326 -15332 0
-15327 15334 0
-15333 15334 0
-15327 -15333 0
-15328 15335 0
-15334 15335 0
-15328 -15334 0
-15329 15336 0
-15335 15336 0
-15329 -15335 0
-15330 -15336 0
-15338 32 33 0
-32 15338 0
-33 15338 0
15338 29 30 31 34 35 0
-15339 88 89 0
-88 15339 0
-89 15339 0
15339 85 86 87 90 91 0
-15340 144 145 0
-144 15340 0
-145 15340 0
15340 141 142 143 146 147 0
-15341 151 152 0
-151 15341 0
-152 15341 0
15341 148 149 150 153 154 0
-15342 207 208 0
-207 15342 0
-208 15342 0
15342 204 205 206 209 210 0
-15343 263 264 0
-263 15343 0
-264 15343 0
15343 260 261 262 265 266 0
-15344 319 320 0
-319 15344 0
-320 15344 0
15344 316 317 318 321 322 0
-15338 15345 0
-15346 0
-15339 15347 0
-15345 15347 0
-15339 -15345 15348 0
-15346 15348 0
-15339 -15346 0
-15340 15349 0
-15347 15349 0
-15340 -15347 15350 0
-15348 15350 0
-15340 -15348 0
-15341 15351 0
-15349 15351 0
-15341 -15349 15352 0
-15350 15352 0
-15341 -15350 0
-15342 15353 0
-15351 15353 0
-15342 -15351 15354 0
-15352 15354 0
-15342 -15352 0
-15343 15355 0
-15353 15355 0
-15343 -15353 15356 0
-15354 15356 0
-15343 -15354 0
-15344 -15356 0
-15359 32 33 34 0
-32 15359 0
-33 15359 0
-34 15359 0
15359 29 30 31 35 0
-15360 88 89 90 0
-88 15360 0
-89 15360 0
-90 15360 0
15360 85 86 87 91 0
-15361 144 145 146 0
-144 15361 0
-145 15361 0
-146 15361 0
15361 141 142 143 147 0
-15362 151 152 153 0
-151 15362 0
-152 15362 0
-153 15362 0
15362 148 149 150 154 0
-15363 207 208 209 0
-207 15363 0
-208 15363 0
-209 15363 0
15363 204 205 206 210 0
-15364 263 264 265 0
-263 15364 0
-264 15364 0
-265 15364 0
15364 260 261 262 266 0
-15365 319 320 321 0
-319 15365 0
-320 15365 0
-321 15365 0
15365 316 317 318 322 0
-15359 15366 0
-15367 0
-15368 0
-15360 15369 0
-15366 15369 0
-15360 -15366 15370 0
-15367 15370 0
-15360 -15367 15371 0
-15368 15371 0
-15360 -15368 0
-15361 15372 0
-15369 15372 0
-15361 -15369 15373 0
-15370 15373 0
-15361 -15370 15374 0
-15371 15374 0
-15361 -15371 0
-15362 15375 0
-15372 15375 0
-15362 -15372 15376 0
-15373 15376 0
-15362 -15373 15377 0
-15374 15377 0
-15362 -15374 0
-15363 15378 0
-15375 15378 0
-15363 -15375 15379 0
-15376 15379 0
-15363 -15376 15380 0
-15377 15380 0
-15363 -15377 0
-15364 15381 0
-15378 15381 0
-15364 -15378 15382 0
-15379 15382 0
-15364 -15379 15383 0
-15380 15383 0
-15364 -15380 0
-15365 -15383 0
-15387 32 33 34 35 0
-32 15387 0
-33 15387 0
-34 15387 0
-35 15387 0
15387 29 30 31 0
-15388 88 89 90 91 0
-88 15388 0
-89 15388 0
-90 15388 0
-91 15388 0
15388 85 86 87 0
-15389 144 145 146 147 0
-144 15389 0
-145 15389 0
-146 15389 0
-147 15389 0
15389 141 142 143 0
-15390 151 152 153 154 0
-151 15390 0
-152 15390 0
-153 15390 0
-154 15390 0
15390 148 149 150 0
-15391 207 208 209 210 0
-207 15391 0
-208 15391 0
-209 15391 0
-210 15391 0
15391 204 205 206 0
-15392 263 264 265 266 0
-263 15392 0
-264 15392 0
-265 15392 0
-266 15392 0
15392 260 261 262 0
-15393 319 320 321 322 0
-319 15393 0
-320 15393 0
-321 15393 0
-322 15393 0
15393 316 317 318 0
-15387 15394 0
-15395 0
-15396 0
-15397 0
-15388 15398 0
-15394 15398 0
-15388 -15394 15399 0
-15395 15399 0
-15388 -15395 15400 0
-15396 15400 0
-15388 -15396 15401 0
-15397 15401 0
-15388 -15397 0
-15389 15402 0
-15398 15402 0
-15389 -15398 15403 0
-15399 15403 0
-15389 -15399 15404 0
-15400 15404 0
-15389 -15400 15405 0
-15401 15405 0
-15389 -15401 0
-15390 15406 0
-15402 15406 0
-15390 -15402 15407 0
-15403 15407 0
-15390 -15403 15408 0
-15404 15408 0
-15390 -15404 15409 0
-15405 15409 0
-15390 -15405 0
-15391 15410 0
-15406 15410 0
-15391 -15406 15411 0
-15407 15411 0
-15391 -15407 15412 0
-15408 15412 0
-15391 -15408 15413 0
-15409 15413 0
-15391 -15409 0
-15392 15414 0
-15410 15414 0
-15392 -15410 15415 0
-15411 15415 0
-15392 -15411 15416 0
-15412 15416 0
-15392 -15412 15417 0
-15413 15417 0
-15392 -15413 0
-15393 -15417 0
-15422 33 0
-33 15422 0
15422 29 30 31 32 34 35 0
-15423 89 0
-89 15423 0
15423 85 86 87 88 90 91 0
-15424 145 0
-145 15424 0
15424 141 142 143 144 146 147 0
-15425 152 0
-152 15425 0
15425 148 149 150 151 153 154 0
-15426 208 0
-208 15426 0
15426 204 205 206 207 209 210 0
-15427 264 0
-264 15427 0
15427 260 261 262 263 265 266 0
-15428 320 0
-320 15428 0
15428 316 317 318 319 321 322 0
-15422 15429 0
-15423 15430 0
-15429 15430 0
-15423 -15429 0
-15424 15431 0
-15430 15431 0
-15424 -15430 0
-15425 15432 0
-15431 15432 0
-15425 -15431 0
-15426 15433 0
-15432 15433 0
-15426 -15432 0
-15427 15434 0
-15433 15434 0
-15427 -15433 0
-15428 -15434 0
-15436 33 34 0
-33 15436 0
-34 15436 0
15436 29 30 31 32 35 0
-15437 89 90 0
-89 15437 0
-90 15437 0
15437 85 86 87 88 91 0
-15438 145 146 0
-145 15438 0
-146 15438 0
15438 141 142 143 144 147 0
-15439 152 153 0
-152 15439 0
-153 15439 0
15439 148 149 150 151 154 0
-15440 208 209 0
-208 15440 0
-209 15440 0
15440 204 205 206 207 210 0
-15441 264 265 0
-264 15441 0
-265 15441 0
15441 260 261 262 263 266 0
-15442 320 321 0
-320 15442 0
-321 15442 0
15442 316 317 318 319 322 0
-15436 15443 0
-15444 0
-15437 15445 0
-15443 15445 0
-15437 -15443 15446 0
-15444 15446 0
-15437 -15444 0
-15438 15447 0
-15445 15447 0
-15438 -15445 15448 0
-15446 15448 0
-15438 -15446 0
-15439 15449 0
-15447 15449 0
-15439 -15447 15450 0
-15448 15450 0
-15439 -15448 0
-15440 15451 0
-15449 15451 0
-15440 -15449 15452 0
-15450 15452 0
-15440 -15450 0
-15441 15453 0
-15451 15453 0
-15441 -15451 15454 0
-15452 15454 0
-15441 -15452 0
-15442 -15454 0
-15457 33 34 35 0
-33 15457 0
-34 15457 0
-35 15457 0
15457 29 30 31 32 0
-15458 89 90 91 0
-89 15458 0
-90 15458 0
-91 15458 0
15458 85 86 87 88 0
-15459 145 146 147 0
-145 15459 0
-146 15459 0
-147 15459 0
15459 141 142 143 144 0
-15460 152 153 154 0
-152 15460 0
-153 15460 0
-154 15460 0
15460 148 149 150 151 0
-15461 208 209 210 0
-208 15461 0
-209 15461 0
-210 15461 0
15461 204 205 206 207 0
-15462 264 265 266 0
-264 15462 0
-265 15462 0
-266 15462 0
15462 260 261 262 263 0
-15463 320 321 322 0
-320 15463 0
-321 15463 0
-322 15463 0
15463 316 317 318 319 0
-15457 15464 0
-15465 0
-15466 0
-15458 15467 0
-15464 15467 0
-15458 -15464 15468 0
-15465 15468 0
-15458 -15465 15469 0
-15466 15469 0
-15458 -15466 0
-15459 15470 0
-15467 15470 0
-15459 -15467 15471 0
-15468 15471 0
-15459 -15468 15472 0
-15469 15472 0
-15459 -15469 0
-15460 15473 0
-15470 15473 0
-15460 -15470 15474 0
-15471 15474 0
-15460 -15471 15475 0
-15472 15475 0
-15460 -15472 0
-15461 15476 0
-15473 15476 0
-15461 -15473 15477 0
-15474 15477 0
-15461 -15474 15478 0
-15475 15478 0
-15461 -15475 0
-15462 15479 0
-15476 15479 0
-15462 -15476 15480 0
-15477 15480 0
-15462 -15477 15481 0
-15478 15481 0
-15462 -15478 0
-15463 -15481 0
-15485 34 0
-34 15485 0
15485 29 30 31 32 33 35 0
-15486 90 0
-90 15486 0
15486 85 86 87 88 89 91 0
-15487 146 0
-146 15487 0
15487 141 142 143 144 145 147 0
-15488 153 0
-153 15488 0
15488 148 149 150 151 152 154 0
-15489 209 0
-209 15489 0
15489 204 205 206 207 208 210 0
-15490 265 0
-265 15490 0
15490 260 261 262 263 264 266 0
-15491 321 0
-321 15491 0
15491 316 317 318 319 320 322 0
-15485 15492 0
-15486 15493 0
-15492 15493 0
-15486 -15492 0
-15487 15494 0
-15493 15494 0
-15487 -15493 0
-15488 15495 0
-15494 15495 0
-15488 -15494 0
-15489 15496 0
-15495 15496 0
-15489 -15495 0
-15490 15497 0
-15496 15497 0
-15490 -15496 0
-15491 -15497 0
-15499 34 35 0
-34 15499 0
-35 15499 0
15499 29 30 31 32 33 0
-15500 90 91 0
-90 15500 0
-91 15500 0
15500 85 86 87 88 89 0
-15501 146 147 0
-146 15501 0
-147 15501 0
15501 141 142 143 144 145 0
-15502 153 154 0
-153 15502 0
-154 15502 0
15502 148 149 150 151 152 0
-15503 209 210 0
-209 15503 0
-210 15503 0
15503 204 205 206 207 208 0
-15504 265 266 0
-265 15504 0
-266 15504 0
15504 260 261 262 263 264 0
-15505 321 322 0
-321 15505 0
-322 15505 0
15505 316 317 318 319 320 0
-15499 15506 0
-15507 0
-15500 15508 0
-15506 15508 0
-15500 -15506 15509 0
-15507 15509 0
-15500 -15507 0
-15501 15510 0
-15508 15510 0
-15501 -15508 15511 0
-15509 15511 0
-15501 -15509 0
-15502 15512 0
-15510 15512 0
-15502 -15510 15513 0
-15511 15513 0
-15502 -15511 0
-15503 15514 0
-15512 15514 0
-15503 -15512 15515 0
-15513 15515 0
-15503 -15513 0
-15504 15516 0
-15514 15516 0
-15504 -15514 15517 0
-15515 15517 0
-15504 -15515 0
-15505 -15517 0
-15520 35 0
-35 15520 0
15520 29 30 31 32 33 34 0
-15521 91 0
-91 15521 0
15521 85 86 87 88 89 90 0
-15522 147 0
-147 15522 0
15522 141 142 143 144 145 146 0
-15523 154 0
-154 15523 0
15523 148 149 150 151 152 153 0
-15524 210 0
-210 15524 0
15524 204 205 206 207 208 209 0
-15525 266 0
-266 15525 0
15525 260 261 262 263 264 265 0
-15526 322 0
-322 15526 0
15526 316 317 318 319 320 321 0
-15520 15527 0
-15521 15528 0
-15527 15528 0
-15521 -15527 0
-15522 15529 0
-15528 15529 0
-15522 -15528 0
-15523 15530 0
-15529 15530 0
-15523 -15529 0
-15524 15531 0
-15530 15531 0
-15524 -15530 0
-15525 15532 0
-15531 15532 0
-15525 -15531 0
-15526 -15532 0
-29 15534 0
-85 15535 0
-15534 15535 0
-85 -15534 0
-141 15536 0
-15535 15536 0
-141 -15535 0
-148 15537 0
-15536 15537 0
-148 -15536 0
-204 15538 0
-15537 15538 0
-204 -15537 0
-260 15539 0
-15538 15539 0
-260 -15538 0
-316 -15539 0
29 85 141 148 204 260 316 0
-30 15541 0
-86 15542 0
-15541 15542 0
-86 -15541 0
-142 15543 0
-15542 15543 0
-142 -15542 0
-149 15544 0
-15543 15544 0
-149 -15543 0
-205 15545 0
-15544 15545 0
-205 -15544 0
-261 15546 0
-15545 15546 0
-261 -15545 0
-317 -15546 0
30 86 142 149 205 261 317 0
-31 15548 0
-87 15549 0
-15548 15549 0
-87 -15548 0
-143 15550 0
-15549 15550 0
-143 -15549 0
-150 15551 0
-15550 15551 0
-150 -15550 0
-206 15552 0
-15551 15552 0
-206 -15551 0
-262 15553 0
-15552 15553 0
-262 -15552 0
-318 -15553 0
31 87 143 150 206 262 318 0
-32 15555 0
-88 15556 0
-15555 15556 0
-88 -15555 0
-144 15557 0
-15556 15557 0
-144 -15556 0
-151 15558 0
-15557 15558 0
-151 -15557 0
-207 15559 0
-15558 15559 0
-207 -15558 0
-263 15560 0
-15559 15560 0
-263 -15559 0
-319 -15560 0
32 88 144 151 207 263 319 0
-33 15562 0
-89 15563 0
-15562 15563 0
-89 -15562 0
-145 15564 0
-15563 15564 0
-145 -15563 0
-152 15565 0
-15564 15565 0
-152 -15564 0
-208 15566 0
-15565 15566 0
-208 -15565 0
-264 15567 0
-15566 15567 0
-264 -15566 0
-320 -15567 0
33 89 145 152 208 264 320 0
-34 15569 0
-90 15570 0
-15569 15570 0
-90 -15569 0
-146 15571 0
-15570 15571 0
-146 -15570 0
-153 15572 0
-15571 15572 0
-153 -15571 0
-209 15573 0
-15572 15573 0
-209 -15572 0
-265 15574 0
-15573 15574 0
-265 -15573 0
-321 -15574 0
34 90 146 153 209 265 321 0
-35 15576 0
-91 15577 0
-15576 15577 0
-91 -15576 0
-147 15578 0
-15577 15578 0
-147 -15577 0
-154 15579 0
-15578 15579 0
-154 -15578 0
-210 15580 0
-15579 15580 0
-210 -15579 0
-266 15581 0
-15580 15581 0
-266 -15580 0
-322 -15581 0
35 91 147 154 210 266 322 0
-15583 36 0
-36 15583 0
15583 37 38 39 40 41 42 0
-15584 92 0
-92 15584 0
15584 93 94 95 96 97 98 0
-15585 99 0
-99 15585 0
15585 100 101 102 103 104 105 0
-15586 155 0
-155 15586 0
15586 156 157 158 159 160 161 0
-15587 211 0
-211 15587 0
15587 212 213 214 215 216 217 0
-15588 267 0
-267 15588 0
15588 268 269 270 271 272 273 0
-15589 323 0
-323 15589 0
15589 324 325 326 327 328 329 0
-15583 15590 0
-15584 15591 0
-15590 15591 0
-15584 -15590 0
-15585 15592 0
-15591 15592 0
-15585 -15591 0
-15586 15593 0
-15592 15593 0
-15586 -15592 0
-15587 15594 0
-15593 15594 0
-15587 -15593 0
-15588 15595 0
-15594 15595 0
-15588 -15594 0
-15589 -15595 0
-15597 36 37 0
-36 15597 0
-37 15597 0
15597 38 39 40 41 42 0
-15598 92 93 0
-92 15598 0
-93 15598 0
15598 94 95 96 97 98 0
-15599 99 100 0
-99 15599 0
-100 15599 0
15599 101 102 103 104 105 0
-15600 155 156 0
-155 15600 0
-156 15600 0
15600 157 158 159 160 161 0
-15601 211 212 0
-211 15601 0
-212 15601 0
15601 213 214 215 216 217 0
-15602 267 268 0
-267 15602 0
-268 15602 0
15602 269 270 271 272 273 0
-15603 323 324 0
-323 15603 0
-324 15603 0
15603 325 326 327 328 329 0
-15597 15604 0
-15605 0
-15598 15606 0
-15604 15606 0
-15598 -15604 15607 0
-15605 15607 0
-15598 -15605 0
-15599 15608 0
-15606 15608 0
-15599 -15606 15609 0
-15607 15609 0
-15599 -15607 0
-15600 15610 0
-15608 15610 0
-15600 -15608 15611 0
-15609 15611 0
-15600 -15609 0
-15601 15612 0
-15610 15612 0
-15601 -15610 15613 0
-15611 15613 0
-15601 -15611 0
-15602 15614 0
-15612 15614 0
-15602 -15612 15615 0
-15613 15615 0
-15602 -15613 0
-15603 -15615 0
-15618 36 37 38 0
-36 15618 0
-37 15618 0
-38 15618 0
15618 39 40 41 42 0
-15619 92 93 94 0
-92 15619 0
-93 15619 0
-94 15619 0
15619 95 96 97 98 0
-15620 99 100 101 0
-99 15620 0
-100 15620 0
-101 15620 0
15620 102 103 104 105 0
-15621 155 156 157 0
-155 15621 0
-156 15621 0
-157 15621 0
15621 158 159 160 161 0
-15622 211 212 213 0
-211 15622 0
-212 15622 0
-213 15622 0
15622 214 215 216 217 0
-15623 267 268 269 0
-267 15623 0
-268 15623 0
-269 15623 0
15623 270 271 272 273 0
-15624 323 324 325 0
-323 15624 0
-324 15624 0
-325 15624 0
15624 326 327 328 329 0
-15618 15625 0
-15626 0
-15627 0
-15619 15628 0
-15625 15628 0
-15619 -15625 15629 0
-15626 15629 0
-15619 -15626 15630 0
-15627 15630 0
-15619 -15627 0
-15620 15631 0
-15628 15631 0
-15620 -15628 15632 0
-15629 15632 0
-15620 -15629 15633 0
-15630 15633 0
-15620 -15630 0
-15621 15634 0
-15631 15634 0
-15621 -15631 15635 0
-15632 15635 0
-15621 -15632 15636 0
-15633 15636 0
-15621 -15633 0
-15622 15637 0
-15634 15637 0
-15622 -15634 15638 0
-15635 15638 0
-15622 -15635 15639 0
-15636 15639 0
-15622 -15636 0
-15623 15640 0
-15637 15640 0
-15623 -15637 15641 0
-15638 15641 0
-15623 -15638 15642 0
-15639 15642 0
-15623 -15639 0
-15624 -15642 0
-15646 36 37 38 39 0
-36 15646 0
-37 15646 0
-38 15646 0
-39 15646 0
15646 40 41 42 0
-15647 92 93 94 95 0
-92 15647 0
-93 15647 0
-94 15647 0
-95 15647 0
15647 96 97 98 0
-15648 99 100 101 102 0
-99 15648 0
-100 15648 0
-101 15648 0
-102 15648 0
15648 103 104 105 0
-15649 155 156 157 158 0
-155 15649 0
-156 15649 0
-157 15649 0
-158 15649 0
15649 159 160 161 0
-15650 211 212 213 214 0
-211 15650 0
-212 15650 0
-213 15650 0
-214 15650 0
15650 215 216 217 0
-15651 267 268 269 270 0
-267 15651 0
-268 15651 0
-269 15651 0
-270 15651 0
15651 271 272 273 0
-15652 323 324 325 326 0
-323 15652 0
-324 15652 0
-325 15652 0
-326 15652 0
15652 327 328 329 0
-15646 15653 0
-15654 0
-15655 0
-15656 0
-15647 15657 0
-15653 15657 0
-15647 -15653 15658 0
-15654 15658 0
-15647 -15654 15659 0
-15655 15659 0
-15647 -15655 15660 0
-15656 15660 0
-15647 -15656 0
-15648 15661 0
-15657 15661 0
-15648 -15657 15662 0
-15658 15662 0
-15648 -15658 15663 0
-15659 15663 0
-15648 -15659 15664 0
-15660 15664 0
-15648 -15660 0
-15649 15665 0
-15661 15665 0
-15649 -15661 15666 0
-15662 15666 0
-15649 -15662 15667 0
-15663 15667 0
-15649 -15663 15668 0
-15664 15668 0
-15649 -15664 0
-15650 15669 0
-15665 15669 0
-15650 -15665 15670 0
-15666 15670 0
-15650 -15666 15671 0
-15667 15671 0
-15650 -15667 15672 0
-15668 15672 0
-15650 -15668 0
-15651 15673 0
-15669 15673 0
-15651 -15669 15674 0
-15670 15674 0
-15651 -15670 15675 0
-15671 15675 0
-15651 -15671 15676 0
-15672 15676 0
-15651 -15672 0
-15652 -15676 0
-15681 36 37 38 39 40 0
-36 15681 0
-37 15681 0
-38 15681 0
-39 15681 0
-40 15681 0
15681 41 42 0
-15682 92 93 94 95 96 0
-92 15682 0
-93 15682 0
-94 15682 0
-95 15682 0
-96 15682 0
15682 97 98 0
-15683 99 100 101 102 103 0
-99 15683 0
-100 15683 0
-101 15683 0
-102 15683 0
-103 15683 0
15683 104 105 0
-15684 155 156 157 158 159 0
-155 15684 0
-156 15684 0
-157 15684 0
-158 15684 0
-159 15684 0
15684 160 161 0
-15685 211 212 213 214 215 0
-211 15685 0
-212 15685 0
-213 15685 0
-214 15685 0
-215 15685 0
15685 216 217 0
-15686 267 268 269 270 271 0
-267 15686 0
-268 15686 0
-269 15686 0
-270 15686 0
-271 15686 0
15686 272 273 0
-15687 323 324 325 326 327 0
-323 15687 0
-324 15687 0
-325 15687 0
-326 15687 0
-327 15687 0
15687 328 329 0
-15681 15688 0
-15689 0
-15690 0
-15691 0
-15692 0
-15682 15693 0
-15688 15693 0
-15682 -15688 15694 0
-15689 15694 0
-15682 -15689 15695 0
-15690 15695 0
-15682 -15690 15696 0
-15691 15696 0
-15682 -15691 15697 0
-15692 15697 0
-15682 -15692 0
-15683 15698 0
-15693 15698 0
-15683 -15693 15699 0
-15694 15699 0
-15683 -15694 15700 0
-15695 15700 0
-15683 -15695 15701 0
-15696 15701 0
-15683 -15696 15702 0
-15697 15702 0
-15683 -15697 0
-15684 15703 0
-15698 15703 0
-15684 -15698 15704 0
-15699 15704 0
-15684 -15699 15705 0
-15700 15705 0
-15684 -15700 15706 0
-15701 15706 0
-15684 -15701 15707 0
-15702 15707 0
-15684 -15702 0
-15685 15708 0
-15703 15708 0
-15685 -15703 15709 0
-15704 15709 0
-15685 -15704 15710 0
-15705 15710 0
-15685 -15705 15711 0
-15706 15711 0
-15685 -15706 15712 0
-15707 15712 0
-15685 -15707 0
-15686 15713 0
-15708 15713 0
-15686 -15708 15714 0
-15709 15714 0
-15686 -15709 15715 0
-15710 15715 0
-15686 -15710 15716 0
-15711 15716 0
-15686 -15711 15717 0
-15712 15717 0
-15686 -15712 0
-15687 -15717 0
-15723 36 37 38 39 40 41 0
-36 15723 0
-37 15723 0
-38 15723 0
-39 15723 0
-40 15723 0
-41 15723 0
15723 42 0
-15724 92 93 94 95 96 97 0
-92 15724 0
-93 15724 0
-94 15724 0
-95 15724 0
-96 15724 0
-97 15724 0
15724 98 0
-15725 99 100 101 102 103 104 0
-99 15725 0
-100 15725 0
-101 15725 0
-102 15725 0
-103 15725 0
-104 15725 0
15725 105 0
-15726 155 156 157 158 159 160 0
-155 15726 0
-156 15726 0
-157 15726 0
-158 15726 0
-159 15726 0
-160 15726 0
15726 161 0
-15727 211 212 213 214 215 216 0
-211 15727 0
-212 15727 0
-213 15727 0
-214 15727 0
-215 15727 0
-216 15727 0
15727 217 0
-15728 267 268 269 270 271 272 0
-267 15728 0
-268 15728 0
-269 15728 0
-270 15728 0
-271 15728 0
-272 15728 0
15728 273 0
-15729 323 324 325 326 327 328 0
-323 15729 0
-324 15729 0
-325 15729 0
-326 15729 0
-327 15729 0
-328 15729 0
15729 329 0
-15723 15730 0
-15731 0
-15732 0
-15733 0
-15734 0
-15735 0
-15724 15736 0
-15730 15736 0
-15724 -15730 15737 0
-15731 15737 0
-15724 -15731 15738 0
-15732 15738 0
-15724 -15732 15739 0
-15733 15739 0
-15724 -15733 15740 0
-15734 15740 0
-15724 -15734 15741 0
-15735 15741 0
-15724 -15735 0
-15725 15742 0
-15736 15742 0
-15725 -15736 15743 0
-15737 15743 0
-15725 -15737 15744 0
-15738 15744 0
-15725 -15738 15745 0
-15739 15745 0
-15725 -15739 15746 0
-15740 15746 0
-15725 -15740 15747 0
-15741 15747 0
-15725 -15741 0
-15726 15748 0
-15742 15748 0
-15726 -15742 15749 0
-15743 15749 0
-15726 -15743 15750 0
-15744 15750 0
-15726 -15744 15751 0
-15745 15751 0
-15726 -15745 15752 0
-15746 15752 0
-15726 -15746 15753 0
-15747 15753 0
-15726 -15747 0
-15727 15754 0
-15748 15754 0
-15727 -15748 15755 0
-15749 15755 0
-15727 -15749 15756 0
-15750 15756 0
-15727 -15750 15757 0
-15751 15757 0
-15727 -15751 15758 0
-15752 15758 0
-15727 -15752 15759 0
-15753 15759 0
-15727 -15753 0
-15728 15760 0
-15754 15760 0
-15728 -15754 15761 0
-15755 15761 0
-15728 -15755 15762 0
-15756 15762 0
-15728 -15756 15763 0
-15757 15763 0
-15728 -15757 15764 0
-15758 15764 0
-15728 -15758 15765 0
-15759 15765 0
-15728 -15759 0
-15729 -15765 0
-15772 36 37 38 39 40 41 42 0
-36 15772 0
-37 15772 0
-38 15772 0
-39 15772 0
-40 15772 0
-41 15772 0
-42 15772 0
15772 0
-15773 92 93 94 95 96 97 98 0
-92 15773 0
-93 15773 0
-94 15773 0
-95 15773 0
-96 15773 0
-97 15773 0
-98 15773 0
15773 0
-15774 99 100 101 102 103 104 105 0
-99 15774 0
-100 15774 0
-101 15774 0
-102 15774 0
-103 15774 0
-104 15774 0
-105 15774 0
15774 0
-15775 155 156 157 158 159 160 161 0
-155 15775 0
-156 15775 0
-157 15775 0
-158 15775 0
-159 15775 0
-160 15775 0
-161 15775 0
15775 0
-15776 211 212 213 214 215 216 217 0
-211 15776 0
-212 15776 0
-213 15776 0
-214 15776 0
-215 15776 0
-216 15776 0
-217 15776 0
15776 0
-15777 267 268 269 270 271 272 273 0
-267 15777 0
-268 15777 0
-269 15777 0
-270 15777 0
-271 15777 0
-272 15777 0
-273 15777 0
15777 0
-15778 323 324 325 326 327 328 329 0
-323 15778 0
-324 15778 0
-325 15778 0
-326 15778 0
-327 15778 0
-328 15778 0
-329 15778 0
15778 0
-15779 37 0
-37 15779 0
15779 36 38 39 40 41 42 0
-15780 93 0
-93 15780 0
15780 92 94 95 96 97 98 0
-15781 100 0
-100 15781 0
15781 99 101 102 103 104 105 0
-15782 156 0
-156 15782 0
15782 155 157 158 159 160 161 0
-15783 212 0
-212 15783 0
15783 211 213 214 215 216 217 0
-15784 268 0
-268 15784 0
15784 267 269 270 271 272 273 0
-15785 324 0
-324 15785 0
15785 323 325 326 327 328 329 0
-15779 15786 0
-15780 15787 0
-15786 15787 0
-15780 -15786 0
-15781 15788 0
-15787 15788 0
-15781 -15787 0
-15782 15789 0
-15788 15789 0
-15782 -15788 0
-15783 15790 0
-15789 15790 0
-15783 -15789 0
-15784 15791 0
-15790 15791 0
-15784 -15790 0
-15785 -15791 0
-15793 37 38 0
-37 15793 0
-38 15793 0
15793 36 39 40 41 42 0
-15794 93 94 0
-93 15794 0
-94 15794 0
15794 92 95 96 97 98 0
-15795 100 101 0
-100 15795 0
-101 15795 0
15795 99 102 103 104 105 0
-15796 156 157 0
-156 15796 0
-157 15796 0
15796 155 158 159 160 161 0
-15797 212 213 0
-212 15797 0
-213 15797 0
15797 211 214 215 216 217 0
-15798 268 269 0
-268 15798 0
-269 15798 0
15798 267 270 271 272 273 0
-15799 324 325 0
-324 15799 0
-325 15799 0
15799 323 326 327 328 329 0
-15793 15800 0
-15801 0
-15794 15802 0
-15800 15802 0
-15794 -15800 15803 0
-15801 15803 0
-15794 -15801 0
-15795 15804 0
-15802 15804 0
-15795 -15802 15805 0
-15803 15805 0
-15795 -15803 0
-15796 15806 0
-15804 15806 0
-15796 -15804 15807 0
-15805 15807 0
-15796 -15805 0
-15797 15808 0
-15806 15808 0
-15797 -15806 15809 0
-15807 15809 0
-15797 -15807 0
-15798 15810 0
-15808 15810 0
-15798 -15808 15811 0
-15809 15811 0
-15798 -15809 0
-15799 -15811 0
-15814 37 38 39 0
-37 15814 0
-38 15814 0
-39 15814 0
15814 36 40 41 42 0
-15815 93 94 95 0
-93 15815 0
-94 15815 0
-95 15815 0
15815 92 96 97 98 0
-15816 100 101 102 0
-100 15816 0
-101 15816 0
-102 15816 0
15816 99 103 104 105 0
-15817 156 157 158 0
-156 15817 0
-157 15817 0
-158 15817 0
15817 155 159 160 161 0
-15818 212 213 214 0
-212 15818 0
-213 15818 0
-214 15818 0
15818 211 215 216 217 0
-15819 268 269 270 0
-268 15819 0
-269 15819 0
-270 15819 0
15819 267 271 272 273 0
-15820 324 325 326 0
-324 15820 0
-325 15820 0
-326 15820 0
15820 323 327 328 329 0
-15814 15821 0
-15822 0
-15823 0
-15815 15824 0
-15821 15824 0
-15815 -15821 15825 0
-15822 15825 0
-15815 -15822 15826 0
-15823 15826 0
-15815 -15823 0
-15816 15827 0
-15824 15827 0
-15816 -15824 15828 0
-15825 15828 0
-15816 -15825 15829 0
-15826 15829 0
-15816 -15826 0
-15817 15830 0
-15827 15830 0
-15817 -15827 15831 0
-15828 15831 0
-15817 -15828 15832 0
-15829 15832 0
-15817 -15829 0
-15818 15833 0
-15830 15833 0
-15818 -15830 15834 0
-15831 15834 0
-15818 -15831 15835 0
-15832 15835 0
-15818 -15832 0
-15819 15836 0
-15833 15836 0
-15819 -15833 15837 0
-15834 15837 0
-15819 -15834 15838 0
-15835 15838 0
-15819 -15835 0
-15820 -15838 0
-15842 37 38 39 40 0
-37 15842 0
-38 15842 0
-39 15842 0
-40 15842 0
15842 36 41 42 0
-15843 93 94 95 96 0
-93 15843 0
-94 15843 0
-95 15843 0
-96 15843 0
15843 92 97 98 0
-15844 100 101 102 103 0
-100 15844 0
-101 15844 0
-102 15844 0
-103 15844 0
15844 99 104 105 0
-15845 156 157 158 159 0
-156 15845 0
-157 15845 0
-158 15845 0
-159 15845 0
15845 155 160 161 0
-15846 212 213 214 215 0
-212 15846 0
-213 15846 0
-214 15846 0
-215 15846 0
15846 211 216 217 0
-15847 268 269 270 271 0
-268 15847 0
-269 15847 0
-270 15847 0
-271 15847 0
15847 267 272 273 0
-15848 324 325 326 327 0
-324 15848 0
-325 15848 0
-326 15848 0
-327 15848 0
15848 323 328 329 0
-15842 15849 0
-15850 0
-15851 0
-15852 0
-15843 15853 0
-15849 15853 0
-15843 -15849 15854 0
-15850 15854 0
-15843 -15850 15855 0
-15851 15855 0
-15843 -15851 15856 0
-15852 15856 0
-15843 -15852 0
-15844 15857 0
-15853 15857 0
-15844 -15853 15858 0
-15854 15858 0
-15844 -15854 15859 0
-15855 15859 0
-15844 -15855 15860 0
-15856 15860 0
-15844 -15856 0
-15845 15861 0
-15857 15861 0
-15845 -15857 15862 0
-15858 15862 0
-15845 -15858 15863 0
-15859 15863 0
-15845 -15859 15864 0
-15860 15864 0
-15845 -15860 0
-15846 15865 0
-15861 15865 0
-15846 -15861 15866 0
-15862 15866 0
-15846 -15862 15867 0
-15863 15867 0
-15846 -15863 15868 0
-15864 15868 0
-15846 -15864 0
-15847 15869 0
-15865 15869 0
-15847 -15865 15870 0
-15866 15870 0
-15847 -15866 15871 0
-15867 15871 0
-15847 -15867 15872 0
-15868 15872 0
-15847 -15868 0
-15848 -15872 0
-15877 37 38 39 40 41 0
-37 15877 0
-38 15877 0
-39 15877 0
-40 15877 0
-41 15877 0
15877 36 42 0
-15878 93 94 95 96 97 0
-93 15878 0
-94 15878 0
-95 15878 0
-96 15878 0
-97 15878 0
15878 92 98 0
-15879 100 101 102 103 104 0
-100 15879 0
-101 15879 0
-102 15879 0
-103 15879 0
-104 15879 0
15879 99 105 0
-15880 156 157 158 159 160 0
-156 15880 0
-157 15880 0
-158 15880 0
-159 15880 0
-160 15880 0
15880 155 161 0
-15881 212 213 214 215 216 0
-212 15881 0
-213 15881 0
-214 15881 0
-215 15881 0
-216 15881 0
15881 211 217 0
-15882 268 269 270 271 272 0
-268 15882 0
-269 15882 0
-270 15882 0
-271 15882 0
-272 15882 0
15882 267 273 0
-15883 324 325 326 327 328 0
-324 15883 0
-325 15883 0
-326 15883 0
-327 15883 0
-328 15883 0
15883 323 329 0
-15877 15884 0
-15885 0
-15886 0
-15887 0
-15888 0
-15878 15889 0
-15884 15889 0
-15878 -15884 15890 0
-15885 15890 0
-15878 -15885 15891 0
-15886 15891 0
-15878 -15886 15892 0
-15887 15892 0
-15878 -15887 15893 0
-15888 15893 0
-15878 -15888 0
-15879 15894 0
-15889 15894 0
-15879 -15889 15895 0
-15890 15895 0
-15879 -15890 15896 0
-15891 15896 0
-15879 -15891 15897 0
-15892 15897 0
-15879 -15892 15898 0
-15893 15898 0
-15879 -15893 0
-15880 15899 0
-15894 15899 0
-15880 -15894 15900 0
-15895 15900 0
-15880 -15895 15901 0
-15896 15901 0
-15880 -15896 15902 0
-15897 15902 0
-15880 -15897 15903 0
-15898 15903 0
-15880 -15898 0
-15881 15904 0
-15899 15904 0
-15881 -15899 15905 0
-15900 15905 0
-15881 -15900 15906 0
-15901 15906 0
-15881 -15901 15907 0
-15902 15907 0
-15881 -15902 15908 0
-15903 15908 0
-15881 -15903 0
-15882 15909 0
-15904 15909 0
-15882 -15904 15910 0
-15905 15910 0
-15882 -15905 15911 0
-15906 15911 0
-15882 -15906 15912 0
-15907 15912 0
-15882 -15907 15913 0
-15908 15913 0
-15882 -15908 0
-15883 -15913 0
-15919 37 38 39 40 41 42 0
-37 15919 0
-38 15919 0
-39 15919 0
-40 15919 0
-41 15919 0
-42 15919 0
15919 36 0
-15920 93 94 95 96 97 98 0
-93 15920 0
-94 15920 0
-95 15920 0
-96 15920 0
-97 15920 0
-98 15920 0
15920 92 0
-15921 100 101 102 103 104 105 0
-100 15921 0
-101 15921 0
-102 15921 0
-103 15921 0
-104 15921 0
-105 15921 0
15921 99 0
-15922 156 157 158 159 160 161 0
-156 15922 0
-157 15922 0
-158 15922 0
-159 15922 0
-160 15922 0
-161 15922 0
15922 155 0
-15923 212 213 214 215 216 217 0
-212 15923 0
-213 15923 0
-214 15923 0
-215 15923 0
-216 15923 0
-217 15923 0
15923 211 0
-15924 268 269 270 271 272 273 0
-268 15924 0
-269 15924 0
-270 15924 0
-271 15924 0
-272 15924 0
-273 15924 0
15924 267 0
-15925 324 325 326 327 328 329 0
-324 15925 0
-325 15925 0
-326 15925 0
-327 15925 0
-328 15925 0
-329 15925 0
15925 323 0
-15919 15926 0
-15927 0
-15928 0
-15929 0
-15930 0
-15931 0
-15920 15932 0
-15926 15932 0
-15920 -15926 15933 0
-15927 15933 0
-15920 -15927 15934 0
-15928 15934 0
-15920 -15928 15935 0
-15929 15935 0
-15920 -15929 15936 0
-15930 15936 0
-15920 -15930 15937 0
-15931 15937 0
-15920 -15931 0
-15921 15938 0
-15932 15938 0
-15921 -15932 15939 0
-15933 15939 0
-15921 -15933 15940 0
-15934 15940 0
-15921 -15934 15941 0
-15935 15941 0
-15921 -15935 15942 0
-15936 15942 0
-15921 -15936 15943 0
-15937 15943 0
-15921 -15937 0
-15922 15944 0
-15938 15944 0
-15922 -15938 15945 0
-15939 15945 0
-15922 -15939 15946 0
-15940 15946 0
-15922 -15940 15947 0
-15941 15947 0
-15922 -15941 15948 0
-15942 15948 0
-15922 -15942 15949 0
-15943 15949 0
-15922 -15943 0
-15923 15950 0
-15944 15950 0
-15923 -15944 15951 0
-15945 15951 0
-15923 -15945 15952 0
-15946 15952 0
-15923 -15946 15953 0
-15947 15953 0
-15923 -15947 15954 0
-15948 15954 0
-15923 -15948 15955 0
-15949 15955 0
-15923 -15949 0
-15924 15956 0
-15950 15956 0
-15924 -15950 15957 0
-15951 15957 0
-15924 -15951 15958 0
-15952 15958 0
-15924 -15952 15959 0
-15953 15959 0
-15924 -15953 15960 0
-15954 15960 0
-15924 -15954 15961 0
-15955 15961 0
-15924 -15955 0
-15925 -15961 0
-15968 38 0
-38 15968 0
15968 36 37 39 40 41 42 0
-15969 94 0
-94 15969 0
15969 92 93 95 96 97 98 0
-15970 101 0
-101 15970 0
15970 99 100 102 103 104 105 0
-15971 157 0
-157 15971 0
15971 155 156 158 159 160 161 0
-15972 213 0
-213 15972 0
15972 211 212 214 215 216 217 0
-15973 269 0
-269 15973 0
15973 267 268 270 271 272 273 0
-15974 325 0
-325 15974 0
15974 323 324 326 327 328 329 0
-15968 15975 0
-15969 15976 0
-15975 15976 0
-15969 -15975 0
-15970 15977 0
-15976 15977 0
-15970 -15976 0
-15971 15978 0
-15977 15978 0
-15971 -15977 0
-15972 15979 0
-15978 15979 0
-15972 -15978 0
-15973 15980 0
-15979 15980 0
-15973 -15979 0
-15974 -15980 0
-15982 38 39 0
-38 15982 0
-39 15982 0
15982 36 37 40 41 42 0
-15983 94 95 0
-94 15983 0
-95 15983 0
15983 92 93 96 97 98 0
-15984 101 102 0
-101 15984 0
-102 15984 0
15984 99 100 103 104 105 0
-15985 157 158 0
-157 15985 0
-158 15985 0
15985 155 156 159 160 161 0
-15986 213 214 0
-213 15986 0
-214 15986 0
15986 211 212 215 216 217 0
-15987 269 270 0
-269 15987 0
-270 15987 0
15987 267 268 271 272 273 0
-15988 325 326 0
-325 15988 0
-326 15988 0
15988 323 324 327 328 329 0
-15982 15989 0
-15990 0
-15983 15991 0
-15989 15991 0
-15983 -15989 15992 0
-15990 15992 0
-15983 -15990 0
-15984 15993 0
-15991 15993 0
-15984 -15991 15994 0
-15992 15994 0
-15984 -15992 0
-15985 15995 0
-15993 15995 0
-15985 -15993 15996 0
-15994 15996 0
-15985 -15994 0
-15986 15997 0
-15995 15997 0
-15986 -15995 15998 0
-15996 15998 0
-15986 -15996 0
-15987 15999 0
-15997 15999 0
-15987 -15997 16000 0
-15998 16000 0
-15987 -15998 0
-15988 -16000 0
-16003 38 39 40 0
-38 16003 0
-39 16003 0
-40 16003 0
16003 36 37 41 42 0
-16004 94 95 96 0
-94 16004 0
-95 16004 0
-96 16004 0
16004 92 93 97 98 0
-16005 101 102 103 0
-101 16005 0
-102 16005 0
-103 16005 0
16005 99 100 104 105 0
-16006 157 158 159 0
-157 16006 0
-158 16006 0
-159 16006 0
16006 155 156 160 161 0
-16007 213 214 215 0
-213 16007 0
-214 16007 0
-215 16007 0
16007 211 212 216 217 0
-16008 269 270 271 0
-269 16008 0
-270 16008 0
-271 16008 0
16008 267 268 272 273 0
-16009 325 326 327 0
-325 16009 0
-326 16009 0
-327 16009 0
16009 323 324 328 329 0
-16003 16010 0
-16011 0
-16012 0
-16004 16013 0
-16010 16013 0
-16004 -16010 16014 0
-16011 16014 0
-16004 -16011 16015 0
-16012 16015 0
-16004 -16012 0
-16005 16016 0
-16013 16016 0
-16005 -16013 16017 0
-16014 16017 0
-16005 -16014 16018 0
-16015 16018 0
-16005 -16015 0
-16006 16019 0
-16016 16019 0
-16006 -16016 16020 0
-16017 16020 0
-16006 -16017 16021 0
-16018 16021 0
-16006 -16018 0
-16007 16022 0
-16019 16022 0
-16007 -16019 16023 0
-16020 16023 0
-16007 -16020 16024 0
-16021 16024 0
-16007 -16021 0
-16008 16025 0
-16022 16025 0
-16008 -16022 16026 0
-16023 16026 0
-16008 -16023 16027 0
-16024 16027 0
-16008 -16024 0
-16009 -16027 0
-16031 38 39 40 41 0
-38 16031 0
-39 16031 0
-40 16031 0
-41 16031 0
16031 36 37 42 0
-16032 94 95 96 97 0
-94 16032 0
-95 16032 0
-96 16032 0
-97 16032 0
16032 92 93 98 0
-16033 101 102 103 104 0
-101 16033 0
-102 16033 0
-103 16033 0
-104 16033 0
16033 99 100 105 0
-16034 157 158 159 160 0
-157 16034 0
-158 16034 0
-159 16034 0
-160 16034 0
16034 155 156 161 0
-16035 213 214 215 216 0
-213 16035 0
-214 16035 0
-215 16035 0
-216 16035 0
16035 211 212 217 0
-16036 269 270 271 272 0
-269 16036 0
-270 16036 0
-271 16036 0
-272 16036 0
16036 267 268 273 0
-16037 325 326 327 328 0
-325 16037 0
-326 16037 0
-327 16037 0
-328 16037 0
16037 323 324 329 0
-16031 16038 0
-16039 0
-16040 0
-16041 0
-16032 16042 0
-16038 16042 0
-16032 -16038 16043 0
-16039 16043 0
-16032 -16039 16044 0
-16040 16044 0
-16032 -16040 16045 0
-16041 16045 0
-16032 -16041 0
-16033 16046 0
-16042 16046 0
-16033 -16042 16047 0
-16043 16047 0
-16033 -16043 16048 0
-16044 16048 0
-16033 -16044 16049 0
-16045 16049 0
-16033 -16045 0
-16034 16050 0
-16046 16050 0
-16034 -16046 16051 0
-16047 16051 0
-16034 -16047 16052 0
-16048 16052 0
-16034 -16048 16053 0
-16049 16053 0
-16034 -16049 0
-16035 16054 0
-16050 16054 0
-16035 -16050 16055 0
-16051 16055 0
-16035 -16051 16056 0
-16052 16056 0
-16035 -16052 16057 0
-16053 16057 0
-16035 -16053 0
-16036 16058 0
-16054 16058 0
-16036 -16054 16059 0
-16055 16059 0
-16036 -16055 16060 0
-16056 16060 0
-16036 -16056 16061 0
-16057 16061 0
-16036 -16057 0
-16037 -16061 0
-16066 38 39 40 41 42 0
-38 16066 0
-39 16066 0
-40 16066 0
-41 16066 0
-42 16066 0
16066 36 37 0
-16067 94 95 96 97 98 0
-94 16067 0
-95 16067 0
-96 16067 0
-97 16067 0
-98 16067 0
16067 92 93 0
-16068 101 102 103 104 105 0
-101 16068 0
-102 16068 0
-103 16068 0
-104 16068 0
-105 16068 0
16068 99 100 0
-16069 157 158 159 160 161 0
-157 16069 0
-158 16069 0
-159 16069 0
-160 16069 0
-161 16069 0
16069 155 156 0
-16070 213 214 215 216 217 0
-213 16070 0
-214 16070 0
-215 16070 0
-216 16070 0
-217 16070 0
16070 211 212 0
-16071 269 270 271 272 273 0
-269 16071 0
-270 16071 0
-271 16071 0
-272 16071 0
-273 16071 0
16071 267 268 0
-16072 325 326 327 328 329 0
-325 16072 0
-326 16072 0
-327 16072 0
-328 16072 0
-329 16072 0
16072 323 324 0
-16066 16073 0
-16074 0
-16075 0
-16076 0
-16077 0
-16067 16078 0
-16073 16078 0
-16067 -16073 16079 0
-16074 16079 0
-16067 -16074 16080 0
-16075 16080 0
-16067 -16075 16081 0
-16076 16081 0
-16067 -16076 16082 0
-16077 16082 0
-16067 -16077 0
-16068 16083 0
-16078 16083 0
-16068 -16078 16084 0
-16079 16084 0
-16068 -16079 16085 0
-16080 16085 0
-16068 -16080 16086 0
-16081 16086 0
-16068 -16081 16087 0
-16082 16087 0
-16068 -16082 0
-16069 16088 0
-16083 16088 0
-16069 -16083 16089 0
-16084 16089 0
-16069 -16084 16090 0
-16085 16090 0
-16069 -16085 16091 0
-16086 16091 0
-16069 -16086 16092 0
-16087 16092 0
-16069 -16087 0
-16070 16093 0
-16088 16093 0
-16070 -16088 16094 0
-16089 16094 0
-16070 -16089 16095 0
-16090 16095 0
-16070 -16090 16096 0
-16091 16096 0
-16070 -16091 16097 0
-16092 16097 0
-16070 -16092 0
-16071 16098 0
-16093 16098 0
-16071 -16093 16099 0
-16094 16099 0
-16071 -16094 16100 0
-16095 16100 0
-16071 -16095 16101 0
-16096 16101 0
-16071 -16096 16102 0
-16097 16102 0
-16071 -16097 0
-16072 -16102 0
-16108 39 0
-39 16108 0
16108 36 37 38 40 41 42 0
-16109 95 0
-95 16109 0
16109 92 93 94 96 97 98 0
-16110 102 0
-102 16110 0
16110 99 100 101 103 104 105 0
-16111 158 0
-158 16111 0
16111 155 156 157 159 160 161 0
-16112 214 0
-214 16112 0
16112 211 212 213 215 216 217 0
-16113 270 0
-270 16113 0
16113 267 268 269 271 272 273 0
-16114 326 0
-326 16114 0
16114 323 324 325 327 328 329 0
-16108 16115 0
-16109 16116 0
-16115 16116 0
-16109 -16115 0
-16110 16117 0
-16116 16117 0
-16110 -16116 0
-16111 16118 0
-16117 16118 0
-16111 -16117 0
-16112 16119 0
-16118 16119 0
-16112 -16118 0
-16113 16120 0
-16119 16120 0
-16113 -16119 0
-16114 -16120 0
-16122 39 40 0
-39 16122 0
-40 16122 0
16122 36 37 38 41 42 0
-16123 95 96 0
-95 16123 0
-96 16123 0
16123 92 93 94 97 98 0
-16124 102 103 0
-102 16124 0
-103 16124 0
16124 99 100 101 104 105 0
-16125 158 159 0
-158 16125 0
-159 16125 0
16125 155 156 157 160 161 0
-16126 214 215 0
-214 16126 0
-215 16126 0
16126 211 212 213 216 217 0
-16127 270 271 0
-270 16127 0
-271 16127 0
16127 267 268 269 272 273 0
-16128 326 327 0
-326 16128 0
-327 16128 0
16128 323 324 325 328 329 0
-16122 16129 0
-16130 0
-16123 16131 0
-16129 16131 0
-16123 -16129 16132 0
-16130 16132 0
-16123 -16130 0
-16124 16133 0
-16131 16133 0
-16124 -16131 16134 0
-16132 16134 0
-16124 -16132 0
-16125 16135 0
-16133 16135 0
-16125 -16133 16136 0
-16134 16136 0
-16125 -16134 0
-16126 16137 0
-16135 16137 0
-16126 -16135 16138 0
-16136 16138 0
-16126 -16136 0
-16127 16139 0
-16137 16139 0
-16127 -16137 16140 0
-16138 16140 0
-16127 -16138 0
-16128 -16140 0
-16143 39 40 41 0
-39 16143 0
-40 16143 0
-41 16143 0
16143 36 37 38 42 0
-16144 95 96 97 0
-95 16144 0
-96 16144 0
-97 16144 0
16144 92 93 94 98 0
-16145 102 103 104 0
-102 16145 0
-103 16145 0
-104 16145 0
16145 99 100 101 105 0
-16146 158 159 160 0
-158 16146 0
-159 16146 0
-160 16146 0
16146 155 156 157 161 0
-16147 214 215 216 0
-214 16147 0
-215 16147 0
-216 16147 0
16147 211 212 213 217 0
-16148 270 271 272 0
-270 16148 0
-271 16148 0
-272 16148 0
16148 267 268 269 273 0
-16149 326 327 328 0
-326 16149 0
-327 16149 0
-328 16149 0
16149 323 324 325 329 0
-16143 16150 0
-16151 0
-16152 0
-16144 16153 0
-16150 16153 0
-16144 -16150 16154 0
-16151 16154 0
-16144 -16151 16155 0
-16152 16155 0
-16144 -16152 0
-16145 16156 0
-16153 16156 0
-16145 -16153 16157 0
-16154 16157 0
-16145 -16154 16158 0
-16155 16158 0
-16145 -16155 0
-16146 16159 0
-16156 16159 0
-16146 -16156 16160 0
-16157 16160 0
-16146 -16157 16161 0
-16158 16161 0
-16146 -16158 0
-16147 16162 0
-16159 16162 0
-16147 -16159 16163 0
-16160 16163 0
-16147 -16160 16164 0
-16161 16164 0
-16147 -16161 0
-16148 16165 0
-16162 16165 0
-16148 -16162 16166 0
-16163 16166 0
-16148 -16163 16167 0
-16164 16167 0
-16148 -16164 0
-16149 -16167 0
-16171 39 40 41 42 0
-39 16171 0
-40 16171 0
-41 16171 0
-42 16171 0
16171 36 37 38 0
-16172 95 96 97 98 0
-95 16172 0
-96 16172 0
-97 16172 0
-98 16172 0
16172 92 93 94 0
-16173 102 103 104 105 0
-102 16173 0
-103 16173 0
-104 16173 0
-105 16173 0
16173 99 100 101 0
-16174 158 159 160 161 0
-158 16174 0
-159 16174 0
-160 16174 0
-161 16174 0
16174 155 156 157 0
-16175 214 215 216 217 0
-214 16175 0
-215 16175 0
-216 16175 0
-217 16175 0
16175 211 212 213 0
-16176 270 271 272 273 0
-270 16176 0
-271 16176 0
-272 16176 0
-273 16176 0
16176 267 268 269 0
-16177 326 327 328 329 0
-326 16177 0
-327 16177 0
-328 16177 0
-329 16177 0
16177 323 324 325 0
-16171 16178 0
-16179 0
-16180 0
-16181 0
-16172 16182 0
-16178 16182 0
-16172 -16178 16183 0
-16179 16183 0
-16172 -16179 16184 0
-16180 16184 0
-16172 -16180 16185 0
-16181 16185 0
-16172 -16181 0
-16173 16186 0
-16182 16186 0
-16173 -16182 16187 0
-16183 16187 0
-16173 -16183 16188 0
-16184 16188 0
-16173 -16184 16189 0
-16185 16189 0
-16173 -16185 0
-16174 16190 0
-16186 16190 0
-16174 -16186 16191 0
-16187 16191 0
-16174 -16187 16192 0
-16188 16192 0
-16174 -16188 16193 0
-16189 16193 0
-16174 -16189 0
-16175 16194 0
-16190 16194 0
-16175 -16190 16195 0
-16191 16195 0
-16175 -16191 16196 0
-16192 16196 0
-16175 -16192 16197 0
-16193 16197 0
-16175 -16193 0
-16176 16198 0
-16194 16198 0
-16176 -16194 16199 0
-16195 16199 0
-16176 -16195 16200 0
-16196 16200 0
-16176 -16196 16201 0
-16197 16201 0
-16176 -16197 0
-16177 -16201 0
-16206 40 0
-40 16206 0
16206 36 37 38 39 41 42 0
-16207 96 0
-96 16207 0
16207 92 93 94 95 97 98 0
-16208 103 0
-103 16208 0
16208 99 100 101 102 104 105 0
-16209 159 0
-159 16209 0
16209 155 156 157 158 160 161 0
-16210 215 0
-215 16210 0
16210 211 212 213 214 216 217 0
-16211 271 0
-271 16211 0
16211 267 268 269 270 272 273 0
-16212 327 0
-327 16212 0
16212 323 324 325 326 328 329 0
-16206 16213 0
-16207 16214 0
-16213 16214 0
-16207 -16213 0
-16208 16215 0
-16214 16215 0
-16208 -16214 0
-16209 16216 0
-16215 16216 0
-16209 -16215 0
-16210 16217 0
-16216 16217 0
-16210 -16216 0
-16211 16218 0
-16217 16218 0
-16211 -16217 0
-16212 -16218 0
-16220 40 41 0
-40 16220 0
-41 16220 0
16220 36 37 38 39 42 0
-16221 96 97 0
-96 16221 0
-97 16221 0
16221 92 93 94 95 98 0
-16222 103 104 0
-103 16222 0
-104 16222 0
16222 99 100 101 102 105 0
-16223 159 160 0
-159 16223 0
-160 16223 0
16223 155 156 157 158 161 0
-16224 215 216 0
-215 16224 0
-216 16224 0
16224 211 212 213 214 217 0
-16225 271 272 0
-271 16225 0
-272 16225 0
16225 267 268 269 270 273 0
-16226 327 328 0
-327 16226 0
-328 16226 0
16226 323 324 325 326 329 0
-16220 16227 0
-16228 0
-16221 16229 0
-16227 16229 0
-16221 -16227 16230 0
-16228 16230 0
-16221 -16228 0
-16222 16231 0
-16229 16231 0
-16222 -16229 16232 0
-16230 16232 0
-16222 -16230 0
-16223 16233 0
-16231 16233 0
-16223 -16231 16234 0
-16232 16234 0
-16223 -16232 0
-16224 16235 0
-16233 16235 0
-16224 -16233 16236 0
-16234 16236 0
-16224 -16234 0
-16225 16237 0
-16235 16237 0
-16225 -16235 16238 0
-16236 16238 0
-16225 -16236 0
-16226 -16238 0
-16241 40 41 42 0
-40 16241 0
-41 16241 0
-42 16241 0
16241 36 37 38 39 0
-16242 96 97 98 0
-96 16242 0
-97 16242 0
-98 16242 0
16242 92 93 94 95 0
-16243 103 104 105 0
-103 16243 0
-104 16243 0
-105 16243 0
16243 99 100 101 102 0
-16244 159 160 161 0
-159 16244 0
-160 16244 0
-161 16244 0
16244 155 156 157 158 0
-16245 215 216 217 0
-215 16245 0
-216 16245 0
-217 16245 0
16245 211 212 213 214 0
-16246 271 272 273 0
-271 16246 0
-272 16246 0
-273 16246 0
16246 267 268 269 270 0
-16247 327 328 329 0
-327 16247 0
-328 16247 0
-329 16247 0
16247 323 324 325 326 0
-16241 16248 0
-16249 0
-16250 0
-16242 16251 0
-16248 16251 0
-16242 -16248 16252 0
-16249 16252 0
-16242 -16249 16253 0
-16250 16253 0
-16242 -16250 0
-16243 16254 0
-16251 16254 0
-16243 -16251 16255 0
-16252 16255 0
-16243 -16252 16256 0
-16253 16256 0
-16243 -16253 0
-16244 16257 0
-16254 16257 0
-16244 -16254 16258 0
-16255 16258 0
-16244 -16255 16259 0
-16256 16259 0
-16244 -16256 0
-16245 16260 0
-16257 16260 0
-16245 -16257 16261 0
-16258 16261 0
-16245 -16258 16262 0
-16259 16262 0
-16245 -16259 0
-16246 16263 0
-16260 16263 0
-16246 -16260 16264 0
-16261 16264 0
-16246 -16261 16265 0
-16262 16265 0
-16246 -16262 0
-16247 -16265 0
-16269 41 0
-41 16269 0
16269 36 37 38 39 40 42 0
-16270 97 0
-97 16270 0
16270 92 93 94 95 96 98 0
-16271 104 0
-104 16271 0
16271 99 100 101 102 103 105 0
-16272 160 0
-160 16272 0
16272 155 156 157 158 159 161 0
-16273 216 0
-216 16273 0
16273 211 212 213 214 215 217 0
-16274 272 0
-272 16274 0
16274 267 268 269 270 271 273 0
-16275 328 0
-328 16275 0
16275 323 324 325 326 327 329 0
-16269 16276 0
-16270 16277 0
-16276 16277 0
-16270 -16276 0
-16271 16278 0
-16277 16278 0
-16271 -16277 0
-16272 16279 0
-16278 16279 0
-16272 -16278 0
-16273 16280 0
-16279 16280 0
-16273 -16279 0
-16274 16281 0
-16280 16281 0
-16274 -16280 0
-16275 -16281 0
-16283 41 42 0
-41 16283 0
-42 16283 0
16283 36 37 38 39 40 0
-16284 97 98 0
-97 16284 0
-98 16284 0
16284 92 93 94 95 96 0
-16285 104 105 0
-104 16285 0
-105 16285 0
16285 99 100 101 102 103 0
-16286 160 161 0
-160 16286 0
-161 16286 0
16286 155 156 157 158 159 0
-16287 216 217 0
-216 16287 0
-217 16287 0
16287 211 212 213 214 215 0
-16288 272 273 0
-272 16288 0
-273 16288 0
16288 267 268 269 270 271 0
-16289 328 329 0
-328 16289 0
-329 16289 0
16289 323 324 325 326 327 0
-16283 16290 0
-16291 0
-16284 16292 0
-16290 16292 0
-16284 -16290 16293 0
-16291 16293 0
-16284 -16291 0
-16285 16294 0
-16292 16294 0
-16285 -16292 16295 0
-16293 16295 0
-16285 -16293 0
-16286 16296 0
-16294 16296 0
-16286 -16294 16297 0
-16295 16297 0
-16286 -16295 0
-16287 16298 0
-16296 16298 0
-16287 -16296 16299 0
-16297 16299 0
-16287 -16297 0
-16288 16300 0
-16298 16300 0
-16288 -16298 16301 0
-16299 16301 0
-16288 -16299 0
-16289 -16301 0
-16304 42 0
-42 16304 0
16304 36 37 38 39 40 41 0
-16305 98 0
-98 16305 0
16305 92 93 94 95 96 97 0
-16306 105 0
-105 16306 0
16306 99 100 101 102 103 104 0
-16307 161 0
-161 16307 0
16307 155 156 157 158 159 160 0
-16308 217 0
-217 16308 0
16308 211 212 213 214 215 216 0
-16309 273 0
-273 16309 0
16309 267 268 269 270 271 272 0
-16310 329 0
-329 16310 0
16310 323 324 325 326 327 328 0
-16304 16311 0
-16305 16312 0
-16311 16312 0
-16305 -16311 0
-16306 16313 0
-16312 16313 0
-16306 -16312 0
-16307 16314 0
-16313 16314 0
-16307 -16313 0
-16308 16315 0
-16314 16315 0
-16308 -16314 0
-16309 16316 0
-16315 16316 0
-16309 -16315 0
-16310 -16316 0
-36 16318 0
-92 16319 0
-16318 16319 0
-92 -16318 0
-99 16320 0
-16319 16320 0
-99 -16319 0
-155 16321 0
-16320 16321 0
-155 -16320 0
-211 16322 0
-16321 16322 0
-211 -16321 0
-267 16323 0
-16322 16323 0
-267 -16322 0
-323 -16323 0
36 92 99 155 211 267 323 0
-37 16325 0
-93 16326 0
-16325 16326 0
-93 -16325 0
-100 16327 0
-16326 16327 0
-100 -16326 0
-156 16328 0
-16327 16328 0
-156 -16327 0
-212 16329 0
-16328 16329 0
-212 -16328 0
-268 16330 0
-16329 16330 0
-268 -16329 0
-324 -16330 0
37 93 100 156 212 268 324 0
-38 16332 0
-94 16333 0
-16332 16333 0
-94 -16332 0
-101 16334 0
-16333 16334 0
-101 -16333 0
-157 16335 0
-16334 16335 0
-157 -16334 0
-213 16336 0
-16335 16336 0
-213 -16335 0
-269 16337 0
-16336 16337 0
-269 -16336 0
-325 -16337 0
38 94 101 157 213 269 325 0
-39 16339 0
-95 16340 0
-16339 16340 0
-95 -16339 0
-102 16341 0
-16340 16341 0
-102 -16340 0
-158 16342 0
-16341 16342 0
-158 -16341 0
-214 16343 0
-16342 16343 0
-214 -16342 0
-270 16344 0
-16343 16344 0
-270 -16343 0
-326 -16344 0
39 95 102 158 214 270 326 0
-40 16346 0
-96 16347 0
-16346 16347 0
-96 -16346 0
-103 16348 0
-16347 16348 0
-103 -16347 0
-159 16349 0
-16348 16349 0
-159 -16348 0
-215 16350 0
-16349 16350 0
-215 -16349 0
-271 16351 0
-16350 16351 0
-271 -16350 0
-327 -16351 0
40 96 103 159 215 271 327 0
-41 16353 0
-97 16354 0
-16353 16354 0
-97 -16353 0
-104 16355 0
-16354 16355 0
-104 -16354 0
-160 16356 0
-16355 16356 0
-160 -16355 0
-216 16357 0
-16356 16357 0
-216 -16356 0
-272 16358 0
-16357 16358 0
-272 -16357 0
-328 -16358 0
41 97 104 160 216 272 328 0
-42 16360 0
-98 16361 0
-16360 16361 0
-98 -16360 0
-105 16362 0
-16361 16362 0
-105 -16361 0
-161 16363 0
-16362 16363 0
-161 -16362 0
-217 16364 0
-16363 16364 0
-217 -16363 0
-273 16365 0
-16364 16365 0
-273 -16364 0
-329 -16365 0
42 98 105 161 217 273 329 0
-16367 43 0
-43 16367 0
16367 44 45 46 47 48 49 0
-16368 50 0
-50 16368 0
16368 51 52 53 54 55 56 0
-16369 106 0
-106 16369 0
16369 107 108 109 110 111 112 0
-16370 162 0
-162 16370 0
16370 163 164 165 166 167 168 0
-16371 218 0
-218 16371 0
16371 219 220 221 222 223 224 0
-16372 274 0
-274 16372 0
16372 275 276 277 278 279 280 0
-16373 330 0
-330 16373 0
16373 331 332 333 334 335 336 0
-16367 16374 0
-16368 16375 0
-16374 16375 0
-16368 -16374 0
-16369 16376 0
-16375 16376 0
-16369 -16375 0
-16370 16377 0
-16376 16377 0
-16370 -16376 0
-16371 16378 0
-16377 16378 0
-16371 -16377 0
-16372 16379 0
-16378 16379 0
-16372 -16378 0
-16373 -16379 0
-16381 43 44 0
-43 16381 0
-44 16381 0
16381 45 46 47 48 49 0
-16382 50 51 0
-50 16382 0
-51 16382 0
16382 52 53 54 55 56 0
-16383 106 107 0
-106 16383 0
-107 16383 0
16383 108 109 110 111 112 0
-16384 162 163 0
-162 16384 0
-163 16384 0
16384 164 165 166 167 168 0
-16385 218 219 0
-218 16385 0
-219 16385 0
16385 220 221 222 223 224 0
-16386 274 275 0
-274 16386 0
-275 16386 0
16386 276 277 278 279 280 0
-16387 330 331 0
-330 16387 0
-331 16387 0
16387 332 333 334 335 336 0
-16381 16388 0
-16389 0
-16382 16390 0
-16388 16390 0
-16382 -16388 16391 0
-16389 16391 0
-16382 -16389 0
-16383 16392 0
-16390 16392 0
-16383 -16390 16393 0
-16391 16393 0
-16383 -16391 0
-16384 16394 0
-16392 16394 0
-16384 -16392 16395 0
-16393 16395 0
-16384 -16393 0
-16385 16396 0
-16394 16396 0
-16385 -16394 16397 0
-16395 16397 0
-16385 -16395 0
-16386 16398 0
-16396 16398 0
-16386 -16396 16399 0
-16397 16399 0
-16386 -16397 0
-16387 -16399 0
-16402 43 44 45 0
-43 16402 0
-44 16402 0
-45 16402 0
16402 46 47 48 49 0
-16403 50 51 52 0
-50 16403 0
-51 16403 0
-52 16403 0
16403 53 54 55 56 0
-16404 106 107 108 0
-106 16404 0
-107 16404 0
-108 16404 0
16404 109 110 111 112 0
-16405 162 163 164 0
-162 16405 0
-163 16405 0
-164 16405 0
16405 165 166 167 168 0
-16406 218 219 220 0
-218 16406 0
-219 16406 0
-220 16406 0
16406 221 222 223 224 0
-16407 274 275 276 0
-274 16407 0
-275 16407 0
-276 16407 0
16407 277 278 279 280 0
-16408 330 331 332 0
-330 16408 0
-331 16408 0
-332 16408 0
16408 333 334 335 336 0
-16402 16409 0
-16410 0
-16411 0
-16403 16412 0
-16409 16412 0
-16403 -16409 16413 0
-16410 16413 0
-16403 -16410 16414 0
-16411 16414 0
-16403 -16411 0
-16404 16415 0
-16412 16415 0
-16404 -16412 16416 0
-16413 16416 0
-16404 -16413 16417 0
-16414 16417 0
-16404 -16414 0
-16405 16418 0
-16415 16418 0
-16405 -16415 16419 0
-16416 16419 0
-16405 -16416 16420 0
-16417 16420 0
-16405 -16417 0
-16406 16421 0
-16418 16421 0
-16406 -16418 16422 0
-16419 16422 0
-16406 -16419 16423 0
-16420 16423 0
-16406 -16420 0
-16407 16424 0
-16421 16424 0
-16407 -16421 16425 0
-16422 16425 0
-16407 -16422 16426 0
-16423 16426 0
-16407 -16423 0
-16408 -16426 0
-16430 43 44 45 46 0
-43 16430 0
-44 16430 0
-45 16430 0
-46 16430 0
16430 47 48 49 0
-16431 50 51 52 53 0
-50 16431 0
-51 16431 0
-52 16431 0
-53 16431 0
16431 54 55 56 0
-16432 106 107 108 109 0
-106 16432 0
-107 16432 0
-108 16432 0
-109 16432 0
16432 110 111 112 0
-16433 162 163 164 165 0
-162 16433 0
-163 16433 0
-164 16433 0
-165 16433 0
16433 166 167 168 0
-16434 218 219 220 221 0
-218 16434 0
-219 16434 0
-220 16434 0
-221 16434 0
16434 222 223 224 0
-16435 274 275 276 277 0
-274 16435 0
-275 16435 0
-276 16435 0
-277 16435 0
16435 278 279 280 0
-16436 330 331 332 333 0
-330 16436 0
-331 16436 0
-332 16436 0
-333 16436 0
16436 334 335 336 0
-16430 16437 0
-16438 0
-16439 0
-16440 0
-16431 16441 0
-16437 16441 0
-16431 -16437 16442 0
-16438 16442 0
-16431 -16438 16443 0
-16439 16443 0
-16431 -16439 16444 0
-16440 16444 0
-16431 -16440 0
-16432 16445 0
-16441 16445 0
-16432 -16441 16446 0
-16442 16446 0
-16432 -16442 16447 0
-16443 16447 0
-16432 -16443 16448 0
-16444 16448 0
-16432 -16444 0
-16433 16449 0
-16445 16449 0
-16433 -16445 16450 0
-16446 16450 0
-16433 -16446 16451 0
-16447 16451 0
-16433 -16447 16452 0
-16448 16452 0
-16433 -16448 0
-16434 16453 0
-16449 16453 0
-16434 -16449 16454 0
-16450 16454 0
-16434 -16450 16455 0
-16451 16455 0
-16434 -16451 16456 0
-16452 16456 0
-16434 -16452 0
-16435 16457 0
-16453 16457 0
-16435 -16453 16458 0
-16454 16458 0
-16435 -16454 16459 0
-16455 16459 0
-16435 -16455 16460 0
-16456 16460 0
-16435 -16456 0
-16436 -16460 0
-16465 43 44 45 46 47 0
-43 16465 0
-44 16465 0
-45 16465 0
-46 16465 0
-47 16465 0
16465 48 49 0
-16466 50 51 52 53 54 0
-50 16466 0
-51 16466 0
-52 16466 0
-53 16466 0
-54 16466 0
16466 55 56 0
-16467 106 107 108 109 110 0
-106 16467 0
-107 16467 0
-108 16467 0
-109 16467 0
-110 16467 0
16467 111 112 0
-16468 162 163 164 165 166 0
-162 16468 0
-163 16468 0
-164 16468 0
-165 16468 0
-166 16468 0
16468 167 168 0
-16469 218 219 220 221 222 0
-218 16469 0
-219 16469 0
-220 16469 0
-221 16469 0
-222 16469 0
16469 223 224 0
-16470 274 275 276 277 278 0
-274 16470 0
-275 16470 0
-276 16470 0
-277 16470 0
-278 16470 0
16470 279 280 0
-16471 330 331 332 333 334 0
-330 16471 0
-331 16471 0
-332 16471 0
-333 16471 0
-334 16471 0
16471 335 336 0
-16465 16472 0
-16473 0
-16474 0
-16475 0
-16476 0
-16466 16477 0
-16472 16477 0
-16466 -16472 16478 0
-16473 16478 0
-16466 -16473 16479 0
-16474 16479 0
-16466 -16474 16480 0
-16475 16480 0
-16466 -16475 16481 0
-16476 16481 0
-16466 -16476 0
-16467 16482 0
-16477 16482 0
-16467 -16477 16483 0
-16478 16483 0
-16467 -16478 16484 0
-16479 16484 0
-16467 -16479 16485 0
-16480 16485 0
-16467 -16480 16486 0
-16481 16486 0
-16467 -16481 0
-16468 16487 0
-16482 16487 0
-16468 -16482 16488 0
-16483 16488 0
-16468 -16483 16489 0
-16484 16489 0
-16468 -16484 16490 0
-16485 16490 0
-16468 -16485 16491 0
-16486 16491 0
-16468 -16486 0
-16469 16492 0
-16487 16492 0
-16469 -16487 16493 0
-16488 16493 0
-16469 -16488 16494 0
-16489 16494 0
-16469 -16489 16495 0
-16490 16495 0
-16469 -16490 16496 0
-16491 16496 0
-16469 -16491 0
-16470 16497 0
-16492 16497 0
-16470 -16492 16498 0
-16493 16498 0
-16470 -16493 16499 0
-16494 16499 0
-16470 -16494 16500 0
-16495 16500 0
-16470 -16495 16501 0
-16496 16501 0
-16470 -16496 0
-16471 -16501 0
-16507 43 44 45 46 47 48 0
-43 16507 0
-44 16507 0
-45 16507 0
-46 16507 0
-47 16507 0
-48 16507 0
16507 49 0
-16508 50 51 52 53 54 55 0
-50 16508 0
-51 16508 0
-52 16508 0
-53 16508 0
-54 16508 0
-55 16508 0
16508 56 0
-16509 106 107 108 109 110 111 0
-106 16509 0
-107 16509 0
-108 16509 0
-109 16509 0
-110 16509 0
-111 16509 0
16509 112 0
-16510 162 163 164 165 166 167 0
-162 16510 0
-163 16510 0
-164 16510 0
-165 16510 0
-166 16510 0
-167 16510 0
16510 168 0
-16511 218 219 220 221 222 223 0
-218 16511 0
-219 16511 0
-220 16511 0
-221 16511 0
-222 16511 0
-223 16511 0
16511 224 0
-16512 274 275 276 277 278 279 0
-274 16512 0
-275 16512 0
-276 16512 0
-277 16512 0
-278 16512 0
-279 16512 0
16512 280 0
-16513 330 331 332 333 334 335 0
-330 16513 0
-331 16513 0
-332 16513 0
-333 16513 0
-334 16513 0
-335 16513 0
16513 336 0
-16507 16514 0
-16515 0
-16516 0
-16517 0
-16518 0
-16519 0
-16508 16520 0
-16514 16520 0
-16508 -16514 16521 0
-16515 16521 0
-16508 -16515 16522 0
-16516 16522 0
-16508 -16516 16523 0
-16517 16523 0
-16508 -16517 16524 0
-16518 16524 0
-16508 -16518 16525 0
-16519 16525 0
-16508 -16519 0
-16509 16526 0
-16520 16526 0
-16509 -16520 16527 0
-16521 16527 0
-16509 -16521 16528 0
-16522 16528 0
-16509 -16522 16529 0
-16523 16529 0
-16509 -16523 16530 0
-16524 16530 0
-16509 -16524 16531 0
-16525 16531 0
-16509 -16525 0
-16510 16532 0
-16526 16532 0
-16510 -16526 16533 0
-16527 16533 0
-16510 -16527 16534 0
-16528 16534 0
-16510 -16528 16535 0
-16529 16535 0
-16510 -16529 16536 0
-16530 16536 0
-16510 -16530 16537 0
-16531 16537 0
-16510 -16531 0
-16511 16538 0
-16532 16538 0
-16511 -16532 16539 0
-16533 16539 0
-16511 -16533 16540 0
-16534 16540 0
-16511 -16534 16541 0
-16535 16541 0
-16511 -16535 16542 0
-16536 16542 0
-16511 -16536 16543 0
-16537 16543 0
-16511 -16537 0
-16512 16544 0
-16538 16544 0
-16512 -16538 16545 0
-16539 16545 0
-16512 -16539 16546 0
-16540 16546 0
-16512 -16540 16547 0
-16541 16547 0
-16512 -16541 16548 0
-16542 16548 0
-16512 -16542 16549 0
-16543 16549 0
-16512 -16543 0
-16513 -16549 0
-16556 43 44 45 46 47 48 49 0
-43 16556 0
-44 16556 0
-45 16556 0
-46 16556 0
-47 16556 0
-48 16556 0
-49 16556 0
16556 0
-16557 50 51 52 53 54 55 56 0
-50 16557 0
-51 16557 0
-52 16557 0
-53 16557 0
-54 16557 0
-55 16557 0
-56 16557 0
16557 0
-16558 106 107 108 109 110 111 112 0
-106 16558 0
-107 16558 0
-108 16558 0
-109 16558 0
-110 16558 0
-111 16558 0
-112 16558 0
16558 0
-16559 162 163 164 165 166 167 168 0
-162 16559 0
-163 16559 0
-164 16559 0
-165 16559 0
-166 16559 0
-167 16559 0
-168 16559 0
16559 0
-16560 218 219 220 221 222 223 224 0
-218 16560 0
-219 16560 0
-220 16560 0
-221 16560 0
-222 16560 0
-223 16560 0
-224 16560 0
16560 0
-16561 274 275 276 277 278 279 280 0
-274 16561 0
-275 16561 0
-276 16561 0
-277 16561 0
-278 16561 0
-279 16561 0
-280 16561 0
16561 0
-16562 330 331 332 333 334 335 336 0
-330 16562 0
-331 16562 0
-332 16562 0
-333 16562 0
-334 16562 0
-335 16562 0
-336 16562 0
16562 0
-16563 44 0
-44 16563 0
16563 43 45 46 47 48 49 0
-16564 51 0
-51 16564 0
16564 50 52 53 54 55 56 0
-16565 107 0
-107 16565 0
16565 106 108 109 110 111 112 0
-16566 163 0
-163 16566 0
16566 162 164 165 166 167 168 0
-16567 219 0
-219 16567 0
16567 218 220 221 222 223 224 0
-16568 275 0
-275 16568 0
16568 274 276 277 278 279 280 0
-16569 331 0
-331 16569 0
16569 330 332 333 334 335 336 0
-16563 16570 0
-16564 16571 0
-16570 16571 0
-16564 -16570 0
-16565 16572 0
-16571 16572 0
-16565 -16571 0
-16566 16573 0
-16572 16573 0
-16566 -16572 0
-16567 16574 0
-16573 16574 0
-16567 -16573 0
-16568 16575 0
-16574 16575 0
-16568 -16574 0
-16569 -16575 0
-16577 44 45 0
-44 16577 0
-45 16577 0
16577 43 46 47 48 49 0
-16578 51 52 0
-51 16578 0
-52 16578 0
16578 50 53 54 55 56 0
-16579 107 108 0
-107 16579 0
-108 16579 0
16579 106 109 110 111 112 0
-16580 163 164 0
-163 16580 0
-164 16580 0
16580 162 165 166 167 168 0
-16581 219 220 0
-219 16581 0
-220 16581 0
16581 218 221 222 223 224 0
-16582 275 276 0
-275 16582 0
-276 16582 0
16582 274 277 278 279 280 0
-16583 331 332 0
-331 16583 0
-332 16583 0
16583 330 333 334 335 336 0
-16577 16584 0
-16585 0
-16578 16586 0
-16584 16586 0
-16578 -16584 16587 0
-16585 16587 0
-16578 -16585 0
-16579 16588 0
-16586 16588 0
-16579 -16586 16589 0
-16587 16589 0
-16579 -16587 0
-16580 16590 0
-16588 16590 0
-16580 -16588 16591 0
-16589 16591 0
-16580 -16589 0
-16581 16592 0
-16590 16592 0
-16581 -16590 16593 0
-16591 16593 0
-16581 -16591 0
-16582 16594 0
-16592 16594 0
-16582 -16592 16595 0
-16593 16595 0
-16582 -16593 0
-16583 -16595 0
-16598 44 45 46 0
-44 16598 0
-45 16598 0
-46 16598 0
16598 43 47 48 49 0
-16599 51 52 53 0
-51 16599 0
-52 16599 0
-53 16599 0
16599 50 54 55 56 0
-16600 107 108 109 0
-107 16600 0
-108 16600 0
-109 16600 0
16600 106 110 111 112 0
-16601 163 164 165 0
-163 16601 0
-164 16601 0
-165 16601 0
16601 162 166 167 168 0
-16602 219 220 221 0
-219 16602 0
-220 16602 0
-221 16602 0
16602 218 222 223 224 0
-16603 275 276 277 0
-275 16603 0
-276 16603 0
-277 16603 0
16603 274 278 279 280 0
-16604 331 332 333 0
-331 16604 0
-332 16604 0
-333 16604 0
16604 330 334 335 336 0
-16598 16605 0
-16606 0
-16607 0
-16599 16608 0
-16605 16608 0
-16599 -16605 16609 0
-16606 16609 0
-16599 -16606 16610 0
-16607 16610 0
-16599 -16607 0
-16600 16611 0
-16608 16611 0
-16600 -16608 16612 0
-16609 16612 0
-16600 -16609 16613 0
-16610 16613 0
-16600 -16610 0
-16601 16614 0
-16611 16614 0
-16601 -16611 16615 0
-16612 16615 0
-16601 -16612 16616 0
-16613 16616 0
-16601 -16613 0
-16602 16617 0
-16614 16617 0
-16602 -16614 16618 0
-16615 16618 0
-16602 -16615 16619 0
-16616 16619 0
-16602 -16616 0
-16603 16620 0
-16617 16620 0
-16603 -16617 16621 0
-16618 16621 0
-16603 -16618 16622 0
-16619 16622 0
-16603 -16619 0
-16604 -16622 0
-16626 44 45 46 47 0
-44 16626 0
-45 16626 0
-46 16626 0
-47 16626 0
16626 43 48 49 0
-16627 51 52 53 54 0
-51 16627 0
-52 16627 0
-53 16627 0
-54 16627 0
16627 50 55 56 0
-16628 107 108 109 110 0
-107 16628 0
-108 16628 0
-109 16628 0
-110 16628 0
16628 106 111 112 0
-16629 163 164 165 166 0
-163 16629 0
-164 16629 0
-165 16629 0
-166 16629 0
16629 162 167 168 0
-16630 219 220 221 222 0
-219 16630 0
-220 16630 0
-221 16630 0
-222 16630 0
16630 218 223 224 0
-16631 275 276 277 278 0
-275 16631 0
-276 16631 0
-277 16631 0
-278 16631 0
16631 274 279 280 0
-16632 331 332 333 334 0
-331 16632 0
-332 16632 0
-333 16632 0
-334 16632 0
16632 330 335 336 0
-16626 16633 0
-16634 0
-16635 0
-16636 0
-16627 16637 0
-16633 16637 0
-16627 -16633 16638 0
-16634 16638 0
-16627 -16634 16639 0
-16635 16639 0
-16627 -16635 16640 0
-16636 16640 0
-16627 -16636 0
-16628 16641 0
-16637 16641 0
-16628 -16637 16642 0
-16638 16642 0
-16628 -16638 16643 0
-16639 16643 0
-16628 -16639 16644 0
-16640 16644 0
-16628 -16640 0
-16629 16645 0
-16641 16645 0
-16629 -16641 16646 0
-16642 16646 0
-16629 -16642 16647 0
-16643 16647 0
-16629 -16643 16648 0
-16644 16648 0
-16629 -16644 0
-16630 16649 0
-16645 16649 0
-16630 -16645 16650 0
-16646 16650 0
-16630 -16646 16651 0
-16647 16651 0
-16630 -16647 16652 0
-16648 16652 0
-16630 -16648 0
-16631 16653 0
-16649 16653 0
-16631 -16649 16654 0
-16650 16654 0
-16631 -16650 16655 0
-16651 16655 0
-16631 -16651 16656 0
-16652 16656 0
-16631 -16652 0
-16632 -16656 0
-16661 44 45 46 47 48 0
-44 16661 0
-45 16661 0
-46 16661 0
-47 16661 0
-48 16661 0
16661 43 49 0
-16662 51 52 53 54 55 0
-51 16662 0
-52 16662 0
-53 16662 0
-54 16662 0
-55 16662 0
16662 50 56 0
-16663 107 108 109 110 111 0
-107 16663 0
-108 16663 0
-109 16663 0
-110 16663 0
-111 16663 0
16663 106 112 0
-16664 163 164 165 166 167 0
-163 16664 0
-164 16664 0
-165 16664 0
-166 16664 0
-167 16664 0
16664 162 168 0
-16665 219 220 221 222 223 0
-219 16665 0
-220 16665 0
-221 16665 0
-222 16665 0
-223 16665 0
16665 218 224 0
-16666 275 276 277 278 279 0
-275 16666 0
-276 16666 0
-277 16666 0
-278 16666 0
-279 16666 0
16666 274 280 0
-16667 331 332 333 334 335 0
-331 16667 0
-332 16667 0
-333 16667 0
-334 16667 0
-335 16667 0
16667 330 336 0
-16661 16668 0
-16669 0
-16670 0
-16671 0
-16672 0
-16662 16673 0
-16668 16673 0
-16662 -16668 16674 0
-16669 16674 0
-16662 -16669 16675 0
-16670 16675 0
-16662 -16670 16676 0
-16671 16676 0
-16662 -16671 16677 0
-16672 16677 0
-16662 -16672 0
-16663 16678 0
-16673 16678 0
-16663 -16673 16679 0
-16674 16679 0
-16663 -16674 16680 0
-16675 16680 0
-16663 -16675 16681 0
-16676 16681 0
-16663 -16676 16682 0
-16677 16682 0
-16663 -16677 0
-16664 16683 0
-16678 16683 0
-16664 -16678 16684 0
-16679 16684 0
-16664 -16679 16685 0
-16680 16685 0
-16664 -16680 16686 0
-16681 16686 0
-16664 -16681 16687 0
-16682 16687 0
-16664 -16682 0
-16665 16688 0
-16683 16688 0
-16665 -16683 16689 0
-16684 16689 0
-16665 -16684 16690 0
-16685 16690 0
-16665 -16685 16691 0
-16686 16691 0
-16665 -16686 16692 0
-16687 16692 0
-16665 -16687 0
-16666 16693 0
-16688 16693 0
-16666 -16688 16694 0
-16689 16694 0
-16666 -16689 16695 0
-16690 16695 0
-16666 -16690 16696 0
-16691 16696 0
-16666 -16691 16697 0
-16692 16697 0
-16666 -16692 0
-16667 -16697 0
-16703 44 45 46 47 48 49 0
-44 16703 0
-45 16703 0
-46 16703 0
-47 16703 0
-48 16703 0
-49 16703 0
16703 43 0
-16704 51 52 53 54 55 56 0
-51 16704 0
-52 16704 0
-53 16704 0
-54 16704 0
-55 16704 0
-56 16704 0
16704 50 0
-16705 107 108 109 110 111 112 0
-107 16705 0
-108 16705 0
-109 16705 0
-110 16705 0
-111 16705 0
-112 16705 0
16705 106 0
-16706 163 164 165 166 167 168 0
-163 16706 0
-164 16706 0
-165 16706 0
-166 16706 0
-167 16706 0
-168 16706 0
16706 162 0
-16707 219 220 221 222 223 224 0
-219 16707 0
-220 16707 0
-221 16707 0
-222 16707 0
-223 16707 0
-224 16707 0
16707 218 0
-16708 275 276 277 278 279 280 0
-275 16708 0
-276 16708 0
-277 16708 0
-278 16708 0
-279 16708 0
-280 16708 0
16708 274 0
-16709 331 332 333 334 335 336 0
-331 16709 0
-332 16709 0
-333 16709 0
-334 16709 0
-335 16709 0
-336 16709 0
16709 330 0
-16703 16710 0
-16711 0
-16712 0
-16713 0
-16714 0
-16715 0
-16704 16716 0
-16710 16716 0
-16704 -16710 16717 0
-16711 16717 0
-16704 -16711 16718 0
-16712 16718 0
-16704 -16712 16719 0
-16713 16719 0
-16704 -16713 16720 0
-16714 16720 0
-16704 -16714 16721 0
-16715 16721 0
-16704 -16715 0
-16705 16722 0
-16716 16722 0
-16705 -16716 16723 0
-16717 16723 0
-16705 -16717 16724 0
-16718 16724 0
-16705 -16718 16725 0
-16719 16725 0
-16705 -16719 16726 0
-16720 16726 0
-16705 -16720 16727 0
-16721 16727 0
-16705 -16721 0
-16706 16728 0
-16722 16728 0
-16706 -16722 16729 0
-16723 16729 0
-16706 -16723 16730 0
-16724 16730 0
-16706 -16724 16731 0
-16725 16731 0
-16706 -16725 16732 0
-16726 16732 0
-16706 -16726 16733 0
-16727 16733 0
-16706 -16727 0
-16707 16734 0
-16728 16734 0
-16707 -16728 16735 0
-16729 16735 0
-16707 -16729 16736 0
-16730 16736 0
-16707 -16730 16737 0
-16731 16737 0
-16707 -16731 16738 0
-16732 16738 0
-16707 -16732 16739 0
-16733 16739 0
-16707 -16733 0
-16708 16740 0
-16734 16740 0
-16708 -16734 16741 0
-16735 16741 0
-16708 -16735 16742 0
-16736 16742 0
-16708 -16736 16743 0
-16737 16743 0
-16708 -16737 16744 0
-16738 16744 0
-16708 -16738 16745 0
-16739 16745 0
-16708 -16739 0
-16709 -16745 0
-16752 45 0
-45 16752 0
16752 43 44 46 47 48 49 0
-16753 52 0
-52 16753 0
16753 50 51 53 54 55 56 0
-16754 108 0
-108 16754 0
16754 106 107 109 110 111 112 0
-16755 164 0
-164 16755 0
16755 162 163 165 166 167 168 0
-16756 220 0
-220 16756 0
16756 218 219 221 222 223 224 0
-16757 276 0
-276 16757 0
16757 274 275 277 278 279 280 0
-16758 332 0
-332 16758 0
16758 330 331 333 334 335 336 0
-16752 16759 0
-16753 16760 0
-16759 16760 0
-16753 -16759 0
-16754 16761 0
-16760 16761 0
-16754 -16760 0
-16755 16762 0
-16761 16762 0
-16755 -16761 0
-16756 16763 0
-16762 16763 0
-16756 -16762 0
-16757 16764 0
-16763 16764 0
-16757 -16763 0
-16758 -16764 0
-16766 45 46 0
-45 16766 0
-46 16766 0
16766 43 44 47 48 49 0
-16767 52 53 0
-52 16767 0
-53 16767 0
16767 50 51 54 55 56 0
-16768 108 109 0
-108 16768 0
-109 16768 0
16768 106 107 110 111 112 0
-16769 164 165 0
-164 16769 0
-165 16769 0
16769 162 163 166 167 168 0
-16770 220 221 0
-220 16770 0
-221 16770 0
16770 218 219 222 223 224 0
-16771 276 277 0
-276 16771 0
-277 16771 0
16771 274 275 278 279 280 0
-16772 332 333 0
-332 16772 0
-333 16772 0
16772 330 331 334 335 336 0
-16766 16773 0
-16774 0
-16767 16775 0
-16773 16775 0
-16767 -16773 16776 0
-16774 16776 0
-16767 -16774 0
-16768 16777 0
-16775 16777 0
-16768 -16775 16778 0
-16776 16778 0
-16768 -16776 0
-16769 16779 0
-16777 16779 0
-16769 -16777 16780 0
-16778 16780 0
-16769 -16778 0
-16770 16781 0
-16779 16781 0
-16770 -16779 16782 0
-16780 16782 0
-16770 -16780 0
-16771 16783 0
-16781 16783 0
-16771 -16781 16784 0
-16782 16784 0
-16771 -16782 0
-16772 -16784 0
-16787 45 46 47 0
-45 16787 0
-46 16787 0
-47 16787 0
16787 43 44 48 49 0
-16788 52 53 54 0
-52 16788 0
-53 16788 0
-54 16788 0
16788 50 51 55 56 0
-16789 108 109 110 0
-108 16789 0
-109 16789 0
-110 16789 0
16789 106 107 111 112 0
-16790 164 165 166 0
-164 16790 0
-165 16790 0
-166 16790 0
16790 162 163 167 168 0
-16791 220 221 222 0
-220 16791 0
-221 16791 0
-222 16791 0
16791 218 219 223 224 0
-16792 276 277 278 0
-276 16792 0
-277 16792 0
-278 16792 0
16792 274 275 279 280 0
-16793 332 333 334 0
-332 16793 0
-333 16793 0
-334 16793 0
16793 330 331 335 336 0
-16787 16794 0
-16795 0
-16796 0
-16788 16797 0
-16794 16797 0
-16788 -16794 16798 0
-16795 16798 0
-16788 -16795 16799 0
-16796 16799 0
-16788 -16796 0
-16789 16800 0
-16797 16800 0
-16789 -16797 16801 0
-16798 16801 0
-16789 -16798 16802 0
-16799 16802 0
-16789 -16799 0
-16790 16803 0
-16800 16803 0
-16790 -16800 16804 0
-16801 16804 0
-16790 -16801 16805 0
-16802 16805 0
-16790 -16802 0
-16791 16806 0
-16803 16806 0
-16791 -16803 16807 0
-16804 16807 0
-16791 -16804 16808 0
-16805 16808 0
-16791 -16805 0
-16792 16809 0
-16806 16809 0
-16792 -16806 16810 0
-16807 16810 0
-16792 -16807 16811 0
-16808 16811 0
-16792 -16808 0
-16793 -16811 0
-16815 45 46 47 48 0
-45 16815 0
-46 16815 0
-47 16815 0
-48 16815 0
16815 43 44 49 0
-16816 52 53 54 55 0
-52 16816 0
-53 16816 0
-54 16816 0
-55 16816 0
16816 50 51 56 0
-16817 108 109 110 111 0
-108 16817 0
-109 16817 0
-110 16817 0
-111 16817 0
16817 106 107 112 0
-16818 164 165 166 167 0
-164 16818 0
-165 16818 0
-166 16818 0
-167 16818 0
16818 162 163 168 0
-16819 220 221 222 223 0
-220 16819 0
-221 16819 0
-222 16819 0
-223 16819 0
16819 218 219 224 0
-16820 276 277 278 279 0
-276 16820 0
-277 16820 0
-278 16820 0
-279 16820 0
16820 274 275 280 0
-16821 332 333 334 335 0
-332 16821 0
-333 16821 0
-334 16821 0
-335 16821 0
16821 330 331 336 0
-16815 16822 0
-16823 0
-16824 0
-16825 0
-16816 16826 0
-16822 16826 0
-16816 -16822 16827 0
-16823 16827 0
-16816 -16823 16828 0
-16824 16828 0
-16816 -16824 16829 0
-16825 16829 0
-16816 -16825 0
-16817 16830 0
-16826 16830 0
-16817 -16826 16831 0
-16827 16831 0
-16817 -16827 16832 0
-16828 16832 0
-16817 -16828 16833 0
-16829 16833 0
-16817 -16829 0
-16818 16834 0
-16830 16834 0
-16818 -16830 16835 0
-16831 16835 0
-16818 -16831 16836 0
-16832 16836 0
-16818 -16832 16837 0
-16833 16837 0
-16818 -16833 0
-16819 16838 0
-16834 16838 0
-16819 -16834 16839 0
-16835 16839 0
-16819 -16835 16840 0
-16836 16840 0
-16819 -16836 16841 0
-16837 16841 0
-16819 -16837 0
-16820 16842 0
-16838 16842 0
-16820 -16838 16843 0
-16839 16843 0
-16820 -16839 16844 0
-16840 16844 0
-16820 -16840 16845 0
-16841 16845 0
-16820 -16841 0
-16821 -16845 0
-16850 45 46 47 48 49 0
-45 16850 0
-46 16850 0
-47 16850 0
-48 16850 0
-49 16850 0
16850 43 44 0
-16851 52 53 54 55 56 0
-52 16851 0
-53 16851 0
-54 16851 0
-55 16851 0
-56 16851 0
16851 50 51 0
-16852 108 109 110 111 112 0
-108 16852 0
-109 16852 0
-110 16852 0
-111 16852 0
-112 16852 0
16852 106 107 0
-16853 164 165 166 167 168 0
-164 16853 0
-165 16853 0
-166 16853 0
-167 16853 0
-168 16853 0
16853 162 163 0
-16854 220 221 222 223 224 0
-220 16854 0
-221 16854 0
-222 16854 0
-223 16854 0
-224 16854 0
16854 218 219 0
-16855 276 277 278 279 280 0
-276 16855 0
-277 16855 0
-278 16855 0
-279 16855 0
-280 16855 0
16855 274 275 0
-16856 332 333 334 335 336 0
-332 16856 0
-333 16856 0
-334 16856 0
-335 16856 0
-336 16856 0
16856 330 331 0
-16850 16857 0
-16858 0
-16859 0
-16860 0
-16861 0
-16851 16862 0
-16857 16862 0
-16851 -16857 16863 0
-16858 16863 0
-16851 -16858 16864 0
-16859 16864 0
-16851 -16859 16865 0
-16860 16865 0
-16851 -16860 16866 0
-16861 16866 0
-16851 -16861 0
-16852 16867 0
-16862 16867 0
-16852 -16862 16868 0
-16863 16868 0
-16852 -16863 16869 0
-16864 16869 0
-16852 -16864 16870 0
-16865 16870 0
-16852 -16865 16871 0
-16866 16871 0
-16852 -16866 0
-16853 16872 0
-16867 16872 0
-16853 -16867 16873 0
-16868 16873 0
-16853 -16868 16874 0
-16869 16874 0
-16853 -16869 16875 0
-16870 16875 0
-16853 -16870 16876 0
-16871 16876 0
-16853 -16871 0
-16854 16877 0
-16872 16877 0
-16854 -16872 16878 0
-16873 16878 0
-16854 -16873 16879 0
-16874 16879 0
-16854 -16874 16880 0
-16875 16880 0
-16854 -16875 16881 0
-16876 16881 0
-16854 -16876 0
-16855 16882 0
-16877 16882 0
-16855 -16877 16883 0
-16878 16883 0
-16855 -16878 16884 0
-16879 16884 0
-16855 -16879 16885 0
-16880 16885 0
-16855 -16880 16886 0
-16881 16886 0
-16855 -16881 0
-16856 -16886 0
-16892 46 0
-46 16892 0
16892 43 44 45 47 48 49 0
-16893 53 0
-53 16893 0
16893 50 51 52 54 55 56 0
-16894 109 0
-109 16894 0
16894 106 107 108 110 111 112 0
-16895 165 0
-165 16895 0
16895 162 163 164 166 167 168 0
-16896 221 0
-221 16896 0
16896 218 219 220 222 223 224 0
-16897 277 0
-277 16897 0
16897 274 275 276 278 279 280 0
-16898 333 0
-333 16898 0
16898 330 331 332 334 335 336 0
-16892 16899 0
-16893 16900 0
-16899 16900 0
-16893 -16899 0
-16894 16901 0
-16900 16901 0
-16894 -16900 0
-16895 16902 0
-16901 16902 0
-16895 -16901 0
-16896 16903 0
-16902 16903 0
-16896 -16902 0
-16897 16904 0
-16903 16904 0
-16897 -16903 0
-16898 -16904 0
-16906 46 47 0
-46 16906 0
-47 16906 0
16906 43 44 45 48 49 0
-16907 53 54 0
-53 16907 0
-54 16907 0
16907 50 51 52 55 56 0
-16908 109 110 0
-109 16908 0
-110 16908 0
16908 106 107 108 111 112 0
-16909 165 166 0
-165 16909 0
-166 16909 0
16909 162 163 164 167 168 0
-16910 221 222 0
-221 16910 0
-222 16910 0
16910 218 219 220 223 224 0
-16911 277 278 0
-277 16911 0
-278 16911 0
16911 274 275 276 279 280 0
-16912 333 334 0
-333 16912 0
-334 16912 0
16912 330 331 332 335 336 0
-16906 16913 0
-16914 0
-16907 16915 0
-16913 16915 0
-16907 -16913 16916 0
-16914 16916 0
-16907 -16914 0
-16908 16917 0
-16915 16917 0
-16908 -16915 16918 0
-16916 16918 0
-16908 -16916 0
-16909 16919 0
-16917 16919 0
-16909 -16917 16920 0
-16918 16920 0
-16909 -16918 0
-16910 16921 0
-16919 16921 0
-16910 -16919 16922 0
-16920 16922 0
-16910 -16920 0
-16911 16923 0
-16921 16923 0
-16911 -16921 16924 0
-16922 16924 0
-16911 -16922 0
-16912 -16924 0
-16927 46 47 48 0
-46 16927 0
-47 16927 0
-48 16927 0
16927 43 44 45 49 0
-16928 53 54 55 0
-53 16928 0
-54 16928 0
-55 16928 0
16928 50 51 52 56 0
-16929 109 110 111 0
-109 16929 0
-110 16929 0
-111 16929 0
16929 106 107 108 112 0
-16930 165 166 167 0
-165 16930 0
-166 16930 0
-167 16930 0
16930 162 163 164 168 0
-16931 221 222 223 0
-221 16931 0
-222 16931 0
-223 16931 0
16931 218 219 220 224 0
-16932 277 278 279 0
-277 16932 0
-278 16932 0
-279 16932 0
16932 274 275 276 280 0
-16933 333 334 335 0
-333 16933 0
-334 16933 0
-335 16933 0
16933 330 331 332 336 0
-16927 16934 0
-16935 0
-16936 0
-16928 16937 0
-16934 16937 0
-16928 -16934 16938 0
-16935 16938 0
-16928 -16935 16939 0
-16936 16939 0
-16928 -16936 0
-16929 16940 0
-16937 16940 0
-16929 -16937 16941 0
-16938 16941 0
-16929 -16938 16942 0
-16939 16942 0
-16929 -16939 0
-16930 16943 0
-16940 16943 0
-16930 -16940 16944 0
-16941 16944 0
-16930 -16941 16945 0
-16942 16945 0
-16930 -16942 0
-16931 16946 0
-16943 16946 0
-16931 -16943 16947 0
-16944 16947 0
-16931 -16944 16948 0
-16945 16948 0
-16931 -16945 0
-16932 16949 0
-16946 16949 0
-16932 -16946 16950 0
-16947 16950 0
-16932 -16947 16951 0
-16948 16951 0
-16932 -16948 0
-16933 -16951 0
-16955 46 47 48 49 0
-46 16955 0
-47 16955 0
-48 16955 0
-49 16955 0
16955 43 44 45 0
-16956 53 54 55 56 0
-53 16956 0
-54 16956 0
-55 16956 0
-56 16956 0
16956 50 51 52 0
-16957 109 110 111 112 0
-109 16957 0
-110 16957 0
-111 16957 0
-112 16957 0
16957 106 107 108 0
-16958 165 166 167 168 0
-165 16958 0
-166 16958 0
-167 16958 0
-168 16958 0
16958 162 163 164 0
-16959 221 222 223 224 0
-221 16959 0
-222 16959 0
-223 16959 0
-224 16959 0
16959 218 219 220 0
-16960 277 278 279 280 0
-277 16960 0
-278 16960 0
-279 16960 0
-280 16960 0
16960 274 275 276 0
-16961 333 334 335 336 0
-333 16961 0
-334 16961 0
-335 16961 0
-336 16961 0
16961 330 331 332 0
-16955 16962 0
-16963 0
-16964 0
-16965 0
-16956 16966 0
-16962 16966 0
-16956 -16962 16967 0
-16963 16967 0
-16956 -16963 16968 0
-16964 16968 0
-16956 -16964 16969 0
-16965 16969 0
-16956 -16965 0
-16957 16970 0
-16966 16970 0
-16957 -16966 16971 0
-16967 16971 0
-16957 -16967 16972 0
-16968 16972 0
-16957 -16968 16973 0
-16969 16973 0
-16957 -16969 0
-16958 16974 0
-16970 16974 0
-16958 -16970 16975 0
-16971 16975 0
-16958 -16971 16976 0
-16972 16976 0
-16958 -16972 16977 0
-16973 16977 0
-16958 -16973 0
-16959 16978 0
-16974 16978 0
-16959 -16974 16979 0
-16975 16979 0
-16959 -16975 16980 0
-16976 16980 0
-16959 -16976 16981 0
-16977 16981 0
-16959 -16977 0
-16960 16982 0
-16978 16982 0
-16960 -16978 16983 0
-16979 16983 0
-16960 -16979 16984 0
-16980 16984 0
-16960 -16980 16985 0
-16981 16985 0
-16960 -16981 0
-16961 -16985 0
-16990 47 0
-47 16990 0
16990 43 44 45 46 48 49 0
-16991 54 0
-54 16991 0
16991 50 51 52 53 55 56 0
-16992 110 0
-110 16992 0
16992 106 107 108 109 111 112 0
-16993 166 0
-166 16993 0
16993 162 163 164 165 167 168 0
-16994 222 0
-222 16994 0
16994 218 219 220 221 223 224 0
-16995 278 0
-278 16995 0
16995 274 275 276 277 279 280 0
-16996 334 0
-334 16996 0
16996 330 331 332 333 335 336 0
-16990 16997 0
-16991 16998 0
-16997 16998 0
-16991 -16997 0
-16992 16999 0
-16998 16999 0
-16992 -16998 0
-16993 17000 0
-16999 17000 0
-16993 -16999 0
-16994 17001 0
-17000 17001 0
-16994 -17000 0
-16995 17002 0
-17001 17002 0
-16995 -17001 0
-16996 -17002 0
-17004 47 48 0
-47 17004 0
-48 17004 0
17004 43 44 45 46 49 0
-17005 54 55 0
-54 17005 0
-55 17005 0
17005 50 51 52 53 56 0
-17006 110 111 0
-110 17006 0
-111 17006 0
17006 106 107 108 109 112 0
-17007 166 167 0
-166 17007 0
-167 17007 0
17007 162 163 164 165 168 0
-17008 222 223 0
-222 17008 0
-223 17008 0
17008 218 219 220 221 224 0
-17009 278 279 0
-278 17009 0
-279 17009 0
17009 274 275 276 277 280 0
-17010 334 335 0
-334 17010 0
-335 17010 0
17010 330 331 332 333 336 0
-17004 17011 0
-17012 0
-17005 17013 0
-17011 17013 0
-17005 -17011 17014 0
-17012 17014 0
-17005 -17012 0
-17006 17015 0
-17013 17015 0
-17006 -17013 17016 0
-17014 17016 0
-17006 -17014 0
-17007 17017 0
-17015 17017 0
-17007 -17015 17018 0
-17016 17018 0
-17007 -17016 0
-17008 17019 0
-17017 17019 0
-17008 -17017 17020 0
-17018 17020 0
-17008 -17018 0
-17009 17021 0
-17019 17021 0
-17009 -17019 17022 0
-17020 17022 0
-17009 -17020 0
-17010 -17022 0
-17025 47 48 49 0
-47 17025 0
-48 17025 0
-49 17025 0
17025 43 44 45 46 0
-17026 54 55 56 0
-54 17026 0
-55 17026 0
-56 17026 0
17026 50 51 52 53 0
-17027 110 111 112 0
-110 17027 0
-111 17027 0
-112 17027 0
17027 106 107 108 109 0
-17028 166 167 168 0
-166 17028 0
-167 17028 0
-168 17028 0
17028 162 163 164 165 0
-17029 222 223 224 0
-222 17029 0
-223 17029 0
-224 17029 0
17029 218 219 220 221 0
-17030 278 279 280 0
-278 17030 0
-279 17030 0
-280 17030 0
17030 274 275 276 277 0
-17031 334 335 336 0
-334 17031 0
-335 17031 0
-336 17031 0
17031 330 331 332 333 0
-17025 17032 0
-17033 0
-17034 0
-17026 17035 0
-17032 17035 0
-17026 -17032 17036 0
-17033 17036 0
-17026 -17033 17037 0
-17034 17037 0
-17026 -17034 0
-17027 17038 0
-17035 17038 0
-17027 -17035 17039 0
-17036 17039 0
-17027 -17036 17040 0
-17037 17040 0
-17027 -17037 0
-17028 17041 0
-17038 17041 0
-17028 -17038 17042 0
-17039 17042 0
-17028 -17039 17043 0
-17040 17043 0
-17028 -17040 0
-17029 17044 0
-17041 17044 0
-17029 -17041 17045 0
-17042 17045 0
-17029 -17042 17046 0
-17043 17046 0
-17029 -17043 0
-17030 17047 0
-17044 17047 0
-17030 -17044 17048 0
-17045 17048 0
-17030 -17045 17049 0
-17046 17049 0
-17030 -17046 0
-17031 -17049 0
-17053 48 0
-48 17053 0
17053 43 44 45 46 47 49 0
-17054 55 0
-55 17054 0
17054 50 51 52 53 54 56 0
-17055 111 0
-111 17055 0
17055 106 107 108 109 110 112 0
-17056 167 0
-167 17056 0
17056 162 163 164 165 166 168 0
-17057 223 0
-223 17057 0
17057 218 219 220 221 222 224 0
-17058 279 0
-279 17058 0
17058 274 275 276 277 278 280 0
-17059 335 0
-335 17059 0
17059 330 331 332 333 334 336 0
-17053 17060 0
-17054 17061 0
-17060 17061 0
-17054 -17060 0
-17055 17062 0
-17061 17062 0
-17055 -17061 0
-17056 17063 0
-17062 17063 0
-17056 -17062 0
-17057 17064 0
-17063 17064 0
-17057 -17063 0
-17058 17065 0
-17064 17065 0
-17058 -17064 0
-17059 -17065 0
-17067 48 49 0
-48 17067 0
-49 17067 0
17067 43 44 45 46 47 0
-17068 55 56 0
-55 17068 0
-56 17068 0
17068 50 51 52 53 54 0
-17069 111 112 0
-111 17069 0
-112 17069 0
17069 106 107 108 109 110 0
-17070 167 168 0
-167 17070 0
-168 17070 0
17070 162 163 164 165 166 0
-17071 223 224 0
-223 17071 0
-224 17071 0
17071 218 219 220 221 222 0
-17072 279 280 0
-279 17072 0
-280 17072 0
17072 274 275 276 277 278 0
-17073 335 336 0
-335 17073 0
-336 17073 0
17073 330 331 332 333 334 0
-17067 17074 0
-17075 0
-17068 17076 0
-17074 17076 0
-17068 -17074 17077 0
-17075 17077 0
-17068 -17075 0
-17069 17078 0
-17076 17078 0
-17069 -17076 17079 0
-17077 17079 0
-17069 -17077 0
-17070 17080 0
-17078 17080 0
-17070 -17078 17081 0
-17079 17081 0
-17070 -17079 0
-17071 17082 0
-17080 17082 0
-17071 -17080 17083 0
-17081 17083 0
-17071 -17081 0
-17072 17084 0
-17082 17084 0
-17072 -17082 17085 0
-17083 17085 0
-17072 -17083 0
-17073 -17085 0
-17088 49 0
-49 17088 0
17088 43 44 45 46 47 48 0
-17089 56 0
-56 17089 0
17089 50 51 52 53 54 55 0
-17090 112 0
-112 17090 0
17090 106 107 108 109 110 111 0
-17091 168 0
-168 17091 0
17091 162 163 164 165 166 167 0
-17092 224 0
-224 17092 0
17092 218 219 220 221 222 223 0
-17093 280 0
-280 17093 0
17093 274 275 276 277 278 279 0
-17094 336 0
-336 17094 0
17094 330 331 332 333 334 335 0
-17088 17095 0
-17089 17096 0
-17095 17096 0
-17089 -17095 0
-17090 17097 0
-17096 17097 0
-17090 -17096 0
-17091 17098 0
-17097 17098 0
-17091 -17097 0
-17092 17099 0
-17098 17099 0
-17092 -17098 0
-17093 17100 0
-17099 17100 0
-17093 -17099 0
-17094 -17100 0
-43 17102 0
-50 17103 0
-17102 17103 0
-50 -17102 0
-106 17104 0
-17103 17104 0
-106 -17103 0
-162 17105 0
-17104 17105 0
-162 -17104 0
-218 17106 0
-17105 17106 0
-218 -17105 0
-274 17107 0
-17106 17107 0
-274 -17106 0
-330 -17107 0
43 50 106 162 218 274 330 0
-44 17109 0
-51 17110 0
-17109 17110 0
-51 -17109 0
-107 17111 0
-17110 17111 0
-107 -17110 0
-163 17112 0
-17111 17112 0
-163 -17111 0
-219 17113 0
-17112 17113 0
-219 -17112 0
-275 17114 0
-17113 17114 0
-275 -17113 0
-331 -17114 0
44 51 107 163 219 275 331 0
-45 17116 0
-52 17117 0
-17116 17117 0
-52 -17116 0
-108 17118 0
-17117 17118 0
-108 -17117 0
-164 17119 0
-17118 17119 0
-164 -17118 0
-220 17120 0
-17119 17120 0
-220 -17119 0
-276 17121 0
-17120 17121 0
-276 -17120 0
-332 -17121 0
45 52 108 164 220 276 332 0
-46 17123 0
-53 17124 0
-17123 17124 0
-53 -17123 0
-109 17125 0
-17124 17125 0
-109 -17124 0
-165 17126 0
-17125 17126 0
-165 -17125 0
-221 17127 0
-17126 17127 0
-221 -17126 0
-277 17128 0
-17127 17128 0
-277 -17127 0
-333 -17128 0
46 53 109 165 221 277 333 0
-47 17130 0
-54 17131 0
-17130 17131 0
-54 -17130 0
-110 17132 0
-17131 17132 0
-110 -17131 0
-166 17133 0
-17132 17133 0
-166 -17132 0
-222 17134 0
-17133 17134 0
-222 -17133 0
-278 17135 0
-17134 17135 0
-278 -17134 0
-334 -17135 0
47 54 110 166 222 278 334 0
-48 17137 0
-55 17138 0
-17137 17138 0
-55 -17137 0
-111 17139 0
-17138 17139 0
-111 -17138 0
-167 17140 0
-17139 17140 0
-167 -17139 0
-223 17141 0
-17140 17141 0
-223 -17140 0
-279 17142 0
-17141 17142 0
-279 -17141 0
-335 -17142 0
48 55 111 167 223 279 335 0
-49 17144 0
-56 17145 0
-17144 17145 0
-56 -17144 0
-112 17146 0
-17145 17146 0
-112 -17145 0
-168 17147 0
-17146 17147 0
-168 -17146 0
-224 17148 0
-17147 17148 0
-224 -17147 0
-280 17149 0
-17148 17149 0
-280 -17148 0
-336 -17149 0
49 56 112 168 224 280 336 0
-17151 1 0
-1 17151 0
17151 2 3 4 5 6 7 0
-17152 92 0
-92 17152 0
17152 93 94 95 96 97 98 0
-17153 134 0
-134 17153 0
17153 135 136 137 138 139 140 0
-17154 176 0
-176 17154 0
17154 177 178 179 180 181 182 0
-17155 218 0
-218 17155 0
17155 219 220 221 222 223 224 0
-17156 260 0
-260 17156 0
17156 261 262 263 264 265 266 0
-17157 302 0
-302 17157 0
17157 303 304 305 306 307 308 0
-17151 17158 0
-17152 17159 0
-17158 17159 0
-17152 -17158 0
-17153 17160 0
-17159 17160 0
-17153 -17159 0
-17154 17161 0
-17160 17161 0
-17154 -17160 0
-17155 17162 0
-17161 17162 0
-17155 -17161 0
-17156 17163 0
-17162 17163 0
-17156 -17162 0
-17157 -17163 0
-17165 1 2 0
-1 17165 0
-2 17165 0
17165 3 4 5 6 7 0
-17166 92 93 0
-92 17166 0
-93 17166 0
17166 94 95 96 97 98 0
-17167 134 135 0
-134 17167 0
-135 17167 0
17167 136 137 138 139 140 0
-17168 176 177 0
-176 17168 0
-177 17168 0
17168 178 179 180 181 182 0
-17169 218 219 0
-218 17169 0
-219 17169 0
17169 220 221 222 223 224 0
-17170 260 261 0
-260 17170 0
-261 17170 0
17170 262 263 264 265 266 0
-17171 302 303 0
-302 17171 0
-303 17171 0
17171 304 305 306 307 308 0
-17165 17172 0
-17173 0
-17166 17174 0
-17172 17174 0
-17166 -17172 17175 0
-17173 17175 0
-17166 -17173 0
-17167 17176 0
-17174 17176 0
-17167 -17174 17177 0
-17175 17177 0
-17167 -17175 0
-17168 17178 0
-17176 17178 0
-17168 -17176 17179 0
-17177 17179 0
-17168 -17177 0
-17169 17180 0
-17178 17180 0
-17169 -17178 17181 0
-17179 17181 0
-17169 -17179 0
-17170 17182 0
-17180 17182 0
-17170 -17180 17183 0
-17181 17183 0
-17170 -17181 0
-17171 -17183 0
-17186 1 2 3 0
-1 17186 0
-2 17186 0
-3 17186 0
17186 4 5 6 7 0
-17187 92 93 94 0
-92 17187 0
-93 17187 0
-94 17187 0
17187 95 96 97 98 0
-17188 134 135 136 0
-134 17188 0
-135 17188 0
-136 17188 0
17188 137 138 139 140 0
-17189 176 177 178 0
-176 17189 0
-177 17189 0
-178 17189 0
17189 179 180 181 182 0
-17190 218 219 220 0
-218 17190 0
-219 17190 0
-220 17190 0
17190 221 222 223 224 0
-17191 260 261 262 0
-260 17191 0
-261 17191 0
-262 17191 0
17191 263 264 265 266 0
-17192 302 303 304 0
-302 17192 0
-303 17192 0
-304 17192 0
17192 305 306 307 308 0
-17186 17193 0
-17194 0
-17195 0
-17187 17196 0
-17193 17196 0
-17187 -17193 17197 0
-17194 17197 0
-17187 -17194 17198 0
-17195 17198 0
-17187 -17195 0
-17188 17199 0
-17196 17199 0
-17188 -17196 17200 0
-17197 17200 0
-17188 -17197 17201 0
-17198 17201 0
-17188 -17198 0
-17189 17202 0
-17199 17202 0
-17189 -17199 17203 0
-17200 17203 0
-17189 -17200 17204 0
-17201 17204 0
-17189 -17201 0
-17190 17205 0
-17202 17205 0
-17190 -17202 17206 0
-17203 17206 0
-17190 -17203 17207 0
-17204 17207 0
-17190 -17204 0
-17191 17208 0
-17205 17208 0
-17191 -17205 17209 0
-17206 17209 0
-17191 -17206 17210 0
-17207 17210 0
-17191 -17207 0
-17192 -17210 0
-17214 1 2 3 4 0
-1 17214 0
-2 17214 0
-3 17214 0
-4 17214 0
17214 5 6 7 0
-17215 92 93 94 95 0
-92 17215 0
-93 17215 0
-94 17215 0
-95 17215 0
17215 96 97 98 0
-17216 134 135 136 137 0
-134 17216 0
-135 17216 0
-136 17216 0
-137 17216 0
17216 138 139 140 0
-17217 176 177 178 179 0
-176 17217 0
-177 17217 0
-178 17217 0
-179 17217 0
17217 180 181 182 0
-17218 218 219 220 221 0
-218 17218 0
-219 17218 0
-220 17218 0
-221 17218 0
17218 222 223 224 0
-17219 260 261 262 263 0
-260 17219 0
-261 17219 0
-262 17219 0
-263 17219 0
17219 264 265 266 0
-17220 302 303 304 305 0
-302 17220 0
-303 17220 0
-304 17220 0
-305 17220 0
17220 306 307 308 0
-17214 17221 0
-17222 0
-17223 0
-17224 0
-17215 17225 0
-17221 17225 0
-17215 -17221 17226 0
-17222 17226 0
-17215 -17222 17227 0
-17223 17227 0
-17215 -17223 17228 0
-17224 17228 0
-17215 -17224 0
-17216 17229 0
-17225 17229 0
-17216 -17225 17230 0
-17226 17230 0
-17216 -17226 17231 0
-17227 17231 0
-17216 -17227 17232 0
-17228 17232 0
-17216 -17228 0
-17217 17233 0
-17229 17233 0
-17217 -17229 17234 0
-17230 17234 0
-17217 -17230 17235 0
-17231 17235 0
-17217 -17231 17236 0
-17232 17236 0
-17217 -17232 0
-17218 17237 0
-17233 17237 0
-17218 -17233 17238 0
-17234 17238 0
-17218 -17234 17239 0
-17235 17239 0
-17218 -17235 17240 0
-17236 17240 0
-17218 -17236 0
-17219 17241 0
-17237 17241 0
-17219 -17237 17242 0
-17238 17242 0
-17219 -17238 17243 0
-17239 17243 0
-17219 -17239 17244 0
-17240 17244 0
-17219 -17240 0
-17220 -17244 0
-17249 1 2 3 4 5 0
-1 17249 0
-2 17249 0
-3 17249 0
-4 17249 0
-5 17249 0
17249 6 7 0
-17250 92 93 94 95 96 0
-92 17250 0
-93 17250 0
-94 17250 0
-95 17250 0
-96 17250 0
17250 97 98 0
-17251 134 135 136 137 138 0
-134 17251 0
-135 17251 0
-136 17251 0
-137 17251 0
-138 17251 0
17251 139 140 0
-17252 176 177 178 179 180 0
-176 17252 0
-177 17252 0
-178 17252 0
-179 17252 0
-180 17252 0
17252 181 182 0
-17253 218 219 220 221 222 0
-218 17253 0
-219 17253 0
-220 17253 0
-221 17253 0
-222 17253 0
17253 223 224 0
-17254 260 261 262 263 264 0
-260 17254 0
-261 17254 0
-262 17254 0
-263 17254 0
-264 17254 0
17254 265 266 0
-17255 302 303 304 305 306 0
-302 17255 0
-303 17255 0
-304 17255 0
-305 17255 0
-306 17255 0
17255 307 308 0
-17249 17256 0
-17257 0
-17258 0
-17259 0
-17260 0
-17250 17261 0
-17256 17261 0
-17250 -17256 17262 0
-17257 17262 0
-17250 -17257 17263 0
-17258 17263 0
-17250 -17258 17264 0
-17259 17264 0
-17250 -17259 17265 0
-17260 17265 0
-17250 -17260 0
-17251 17266 0
-17261 17266 0
-17251 -17261 17267 0
-17262 17267 0
-17251 -17262 17268 0
-17263 17268 0
-17251 -17263 17269 0
-17264 17269 0
-17251 -17264 17270 0
-17265 17270 0
-17251 -17265 0
-17252 17271 0
-17266 17271 0
-17252 -17266 17272 0
-17267 17272 0
-17252 -17267 17273 0
-17268 17273 0
-17252 -17268 17274 0
-17269 17274 0
-17252 -17269 17275 0
-17270 17275 0
-17252 -17270 0
-17253 17276 0
-17271 17276 0
-17253 -17271 17277 0
-17272 17277 0
-17253 -17272 17278 0
-17273 17278 0
-17253 -17273 17279 0
-17274 17279 0
-17253 -17274 17280 0
-17275 17280 0
-17253 -17275 0
-17254 17281 0
-17276 17281 0
-17254 -17276 17282 0
-17277 17282 0
-17254 -17277 17283 0
-17278 17283 0
-17254 -17278 17284 0
-17279 17284 0
-17254 -17279 17285 0
-17280 17285 0
-17254 -17280 0
-17255 -17285 0
-17291 1 2 3 4 5 6 0
-1 17291 0
-2 17291 0
-3 17291 0
-4 17291 0
-5 17291 0
-6 17291 0
17291 7 0
-17292 92 93 94 95 96 97 0
-92 17292 0
-93 17292 0
-94 17292 0
-95 17292 0
-96 17292 0
-97 17292 0
17292 98 0
-17293 134 135 136 137 138 139 0
-134 17293 0
-135 17293 0
-136 17293 0
-137 17293 0
-138 17293 0
-139 17293 0
17293 140 0
-17294 176 177 178 179 180 181 0
-176 17294 0
-177 17294 0
-178 17294 0
-179 17294 0
-180 17294 0
-181 17294 0
17294 182 0
-17295 218 219 220 221 222 223 0
-218 17295 0
-219 17295 0
-220 17295 0
-221 17295 0
-222 17295 0
-223 17295 0
17295 224 0
-17296 260 261 262 263 264 265 0
-260 17296 0
-261 17296 0
-262 17296 0
-263 17296 0
-264 17296 0
-265 17296 0
17296 266 0
-17297 302 303 304 305 306 307 0
-302 17297 0
-303 17297 0
-304 17297 0
-305 17297 0
-306 17297 0
-307 17297 0
17297 308 0
-17291 17298 0
-17299 0
-17300 0
-17301 0
-17302 0
-17303 0
-17292 17304 0
-17298 17304 0
-17292 -17298 17305 0
-17299 17305 0
-17292 -17299 17306 0
-17300 17306 0
-17292 -17300 17307 0
-17301 17307 0
-17292 -17301 17308 0
-17302 17308 0
-17292 -17302 17309 0
-17303 17309 0
-17292 -17303 0
-17293 17310 0
-17304 17310 0
-17293 -17304 17311 0
-17305 17311 0
-17293 -17305 17312 0
-17306 17312 0
-17293 -17306 17313 0
-17307 17313 0
-17293 -17307 17314 0
-17308 17314 0
-17293 -17308 17315 0
-17309 17315 0
-17293 -17309 0
-17294 17316 0
-17310 17316 0
-17294 -17310 17317 0
-17311 17317 0
-17294 -17311 17318 0
-17312 17318 0
-17294 -17312 17319 0
-17313 17319 0
-17294 -17313 17320 0
-17314 17320 0
-17294 -17314 17321 0
-17315 17321 0
-17294 -17315 0
-17295 17322 0
-17316 17322 0
-17295 -17316 17323 0
-17317 17323 0
-17295 -17317 17324 0
-17318 17324 0
-17295 -17318 17325 0
-17319 17325 0
-17295 -17319 17326 0
-17320 17326 0
-17295 -17320 17327 0
-17321 17327 0
-17295 -17321 0
-17296 17328 0
-17322 17328 0
-17296 -17322 17329 0
-17323 17329 0
-17296 -17323 17330 0
-17324 17330 0
-17296 -17324 17331 0
-17325 17331 0
-17296 -17325 17332 0
-17326 17332 0
-17296 -17326 17333 0
-17327 17333 0
-17296 -17327 0
-17297 -17333 0
-17340 1 2 3 4 5 6 7 0
-1 17340 0
-2 17340 0
-3 17340 0
-4 17340 0
-5 17340 0
-6 17340 0
-7 17340 0
17340 0
-17341 92 93 94 95 96 97 98 0
-92 17341 0
-93 17341 0
-94 17341 0
-95 17341 0
-96 17341 0
-97 17341 0
-98 17341 0
17341 0
-17342 134 135 136 137 138 139 140 0
-134 17342 0
-135 17342 0
-136 17342 0
-137 17342 0
-138 17342 0
-139 17342 0
-140 17342 0
17342 0
-17343 176 177 178 179 180 181 182 0
-176 17343 0
-177 17343 0
-178 17343 0
-179 17343 0
-180 17343 0
-181 17343 0
-182 17343 0
17343 0
-17344 218 219 220 221 222 223 224 0
-218 17344 0
-219 17344 0
-220 17344 0
-221 17344 0
-222 17344 0
-223 17344 0
-224 17344 0
17344 0
-17345 260 261 262 263 264 265 266 0
-260 17345 0
-261 17345 0
-262 17345 0
-263 17345 0
-264 17345 0
-265 17345 0
-266 17345 0
17345 0
-17346 302 303 304 305 306 307 308 0
-302 17346 0
-303 17346 0
-304 17346 0
-305 17346 0
-306 17346 0
-307 17346 0
-308 17346 0
17346 0
-17347 2 0
-2 17347 0
17347 1 3 4 5 6 7 0
-17348 93 0
-93 17348 0
17348 92 94 95 96 97 98 0
-17349 135 0
-135 17349 0
17349 134 136 137 138 139 140 0
-17350 177 0
-177 17350 0
17350 176 178 179 180 181 182 0
-17351 219 0
-219 17351 0
17351 218 220 221 222 223 224 0
-17352 261 0
-261 17352 0
17352 260 262 263 264 265 266 0
-17353 303 0
-303 17353 0
17353 302 304 305 306 307 308 0
-17347 17354 0
-17348 17355 0
-17354 17355 0
-17348 -17354 0
-17349 17356 0
-17355 17356 0
-17349 -17355 0
-17350 17357 0
-17356 17357 0
-17350 -17356 0
-17351 17358 0
-17357 17358 0
-17351 -17357 0
-17352 17359 0
-17358 17359 0
-17352 -17358 0
-17353 -17359 0
-17361 2 3 0
-2 17361 0
-3 17361 0
17361 1 4 5 6 7 0
-17362 93 94 0
-93 17362 0
-94 17362 0
17362 92 95 96 97 98 0
-17363 135 136 0
-135 17363 0
-136 17363 0
17363 134 137 138 139 140 0
-17364 177 178 0
-177 17364 0
-178 17364 0
17364 176 179 180 181 182 0
-17365 219 220 0
-219 17365 0
-220 17365 0
17365 218 221 222 223 224 0
-17366 261 262 0
-261 17366 0
-262 17366 0
17366 260 263 264 265 266 0
-17367 303 304 0
-303 17367 0
-304 17367 0
17367 302 305 306 307 308 0
-17361 17368 0
-17369 0
-17362 17370 0
-17368 17370 0
-17362 -17368 17371 0
-17369 17371 0
-17362 -17369 0
-17363 17372 0
-17370 17372 0
-17363 -17370 17373 0
-17371 17373 0
-17363 -17371 0
-17364 17374 0
-17372 17374 0
-17364 -17372 17375 0
-17373 17375 0
-17364 -17373 0
-17365 17376 0
-17374 17376 0
-17365 -17374 17377 0
-17375 17377 0
-17365 -17375 0
-17366 17378 0
-17376 17378 0
-17366 -17376 17379 0
-17377 17379 0
-17366 -17377 0
-17367 -17379 0
-17382 2 3 4 0
-2 17382 0
-3 17382 0
-4 17382 0
17382 1 5 6 7 0
-17383 93 94 95 0
-93 17383 0
-94 17383 0
-95 17383 0
17383 92 96 97 98 0
-17384 135 136 137 0
-135 17384 0
-136 17384 0
-137 17384 0
17384 134 138 139 140 0
-17385 177 178 179 0
-177 17385 0
-178 17385 0
-179 17385 0
17385 176 180 181 182 0
-17386 219 220 221 0
-219 17386 0
-220 17386 0
-221 17386 0
17386 218 222 223 224 0
-17387 261 262 263 0
-261 17387 0
-262 17387 0
-263 17387 0
17387 260 264 265 266 0
-17388 303 304 305 0
-303 17388 0
-304 17388 0
-305 17388 0
17388 302 306 307 308 0
-17382 17389 0
-17390 0
-17391 0
-17383 17392 0
-17389 17392 0
-17383 -17389 17393 0
-17390 17393 0
-17383 -17390 17394 0
-17391 17394 0
-17383 -17391 0
-17384 17395 0
-17392 17395 0
-17384 -17392 17396 0
-17393 17396 0
-17384 -17393 17397 0
-17394 17397 0
-17384 -17394 0
-17385 17398 0
-17395 17398 0
-17385 -17395 17399 0
-17396 17399 0
-17385 -17396 17400 0
-17397 17400 0
-17385 -17397 0
-17386 17401 0
-17398 17401 0
-17386 -17398 17402 0
-17399 17402 0
-17386 -17399 17403 0
-17400 17403 0
-17386 -17400 0
-17387 17404 0
-17401 17404 0
-17387 -17401 17405 0
-17402 17405 0
-17387 -17402 17406 0
-17403 17406 0
-17387 -17403 0
-17388 -17406 0
-17410 2 3 4 5 0
-2 17410 0
-3 17410 0
-4 17410 0
-5 17410 0
17410 1 6 7 0
-17411 93 94 95 96 0
-93 17411 0
-94 17411 0
-95 17411 0
-96 17411 0
17411 92 97 98 0
-17412 135 136 137 138 0
-135 17412 0
-136 17412 0
-137 17412 0
-138 17412 0
17412 134 139 140 0
-17413 177 178 179 180 0
-177 17413 0
-178 17413 0
-179 17413 0
-180 17413 0
17413 176 181 182 0
-17414 219 220 221 222 0
-219 17414 0
-220 17414 0
-221 17414 0
-222 17414 0
17414 218 223 224 0
-17415 261 262 263 264 0
-261 17415 0
-262 17415 0
-263 17415 0
-264 17415 0
17415 260 265 266 0
-17416 303 304 305 306 0
-303 17416 0
-304 17416 0
-305 17416 0
-306 17416 0
17416 302 307 308 0
-17410 17417 0
-17418 0
-17419 0
-17420 0
-17411 17421 0
-17417 17421 0
-17411 -17417 17422 0
-17418 17422 0
-17411 -17418 17423 0
-17419 17423 0
-17411 -17419 17424 0
-17420 17424 0
-17411 -17420 0
-17412 17425 0
-17421 17425 0
-17412 -17421 17426 0
-17422 17426 0
-17412 -17422 17427 0
-17423 17427 0
-17412 -17423 17428 0
-17424 17428 0
-17412 -17424 0
-17413 17429 0
-17425 17429 0
-17413 -17425 17430 0
-17426 17430 0
-17413 -17426 17431 0
-17427 17431 0
-17413 -17427 17432 0
-17428 17432 0
-17413 -17428 0
-17414 17433 0
-17429 17433 0
-17414 -17429 17434 0
-17430 17434 0
-17414 -17430 17435 0
-17431 17435 0
-17414 -17431 17436 0
-17432 17436 0
-17414 -17432 0
-17415 17437 0
-17433 17437 0
-17415 -17433 17438 0
-17434 17438 0
-17415 -17434 17439 0
-17435 17439 0
-17415 -17435 17440 0
-17436 17440 0
-17415 -17436 0
-17416 -17440 0
-17445 2 3 4 5 6 0
-2 17445 0
-3 17445 0
-4 17445 0
-5 17445 0
-6 17445 0
17445 1 7 0
-17446 93 94 95 96 97 0
-93 17446 0
-94 17446 0
-95 17446 0
-96 17446 0
-97 17446 0
17446 92 98 0
-17447 135 136 137 138 139 0
-135 17447 0
-136 17447 0
-137 17447 0
-138 17447 0
-139 17447 0
17447 134 140 0
-17448 177 178 179 180 181 0
-177 17448 0
-178 17448 0
-179 17448 0
-180 17448 0
-181 17448 0
17448 176 182 0
-17449 219 220 221 222 223 0
-219 17449 0
-220 17449 0
-221 17449 0
-222 17449 0
-223 17449 0
17449 218 224 0
-17450 261 262 263 264 265 0
-261 17450 0
-262 17450 0
-263 17450 0
-264 17450 0
-265 17450 0
17450 260 266 0
-17451 303 304 305 306 307 0
-303 17451 0
-304 17451 0
-305 17451 0
-306 17451 0
-307 17451 0
17451 302 308 0
-17445 17452 0
-17453 0
-17454 0
-17455 0
-17456 0
-17446 17457 0
-17452 17457 0
-17446 -17452 17458 0
-17453 17458 0
-17446 -17453 17459 0
-17454 17459 0
-17446 -17454 17460 0
-17455 17460 0
-17446 -17455 17461 0
-17456 17461 0
-17446 -17456 0
-17447 17462 0
-17457 17462 0
-17447 -17457 17463 0
-17458 17463 0
-17447 -17458 17464 0
-17459 17464 0
-17447 -17459 17465 0
-17460 17465 0
-17447 -17460 17466 0
-17461 17466 0
-17447 -17461 0
-17448 17467 0
-17462 17467 0
-17448 -17462 17468 0
-17463 17468 0
-17448 -17463 17469 0
-17464 17469 0
-17448 -17464 17470 0
-17465 17470 0
-17448 -17465 17471 0
-17466 17471 0
-17448 -17466 0
-17449 17472 0
-17467 17472 0
-17449 -17467 17473 0
-17468 17473 0
-17449 -17468 17474 0
-17469 17474 0
-17449 -17469 17475 0
-17470 17475 0
-17449 -17470 17476 0
-17471 17476 0
-17449 -17471 0
-17450 17477 0
-17472 17477 0
-17450 -17472 17478 0
-17473 17478 0
-17450 -17473 17479 0
-17474 17479 0
-17450 -17474 17480 0
-17475 17480 0
-17450 -17475 17481 0
-17476 17481 0
-17450 -17476 0
-17451 -17481 0
-17487 2 3 4 5 6 7 0
-2 17487 0
-3 17487 0
-4 17487 0
-5 17487 0
-6 17487 0
-7 17487 0
17487 1 0
-17488 93 94 95 96 97 98 0
-93 17488 0
-94 17488 0
-95 17488 0
-96 17488 0
-97 17488 0
-98 17488 0
17488 92 0
-17489 135 136 137 138 139 140 0
-135 17489 0
-136 17489 0
-137 17489 0
-138 17489 0
-139 17489 0
-140 17489 0
17489 134 0
-17490 177 178 179 180 181 182 0
-177 17490 0
-178 17490 0
-179 17490 0
-180 17490 0
-181 17490 0
-182 17490 0
17490 176 0
-17491 219 220 221 222 223 224 0
-219 17491 0
-220 17491 0
-221 17491 0
-222 17491 0
-223 17491 0
-224 17491 0
17491 218 0
-17492 261 262 263 264 265 266 0
-261 17492 0
-262 17492 0
-263 17492 0
-264 17492 0
-265 17492 0
-266 17492 0
17492 260 0
-17493 303 304 305 306 307 308 0
-303 17493 0
-304 17493 0
-305 17493 0
-306 17493 0
-307 17493 0
-308 17493 0
17493 302 0
-17487 17494 0
-17495 0
-17496 0
-17497 0
-17498 0
-17499 0
-17488 17500 0
-17494 17500 0
-17488 -17494 17501 0
-17495 17501 0
-17488 -17495 17502 0
-17496 17502 0
-17488 -17496 17503 0
-17497 17503 0
-17488 -17497 17504 0
-17498 17504 0
-17488 -17498 17505 0
-17499 17505 0
-17488 -17499 0
-17489 17506 0
-17500 17506 0
-17489 -17500 17507 0
-17501 17507 0
-17489 -17501 17508 0
-17502 17508 0
-17489 -17502 17509 0
-17503 17509 0
-17489 -17503 17510 0
-17504 17510 0
-17489 -17504 17511 0
-17505 17511 0
-17489 -17505 0
-17490 17512 0
-17506 17512 0
-17490 -17506 17513 0
-17507 17513 0
-17490 -17507 17514 0
-17508 17514 0
-17490 -17508 17515 0
-17509 17515 0
-17490 -17509 17516 0
-17510 17516 0
-17490 -17510 17517 0
-17511 17517 0
-17490 -17511 0
-17491 17518 0
-17512 17518 0
-17491 -17512 17519 0
-17513 17519 0
-17491 -17513 17520 0
-17514 17520 0
-17491 -17514 17521 0
-17515 17521 0
-17491 -17515 17522 0
-17516 17522 0
-17491 -17516 17523 0
-17517 17523 0
-17491 -17517 0
-17492 17524 0
-17518 17524 0
-17492 -17518 17525 0
-17519 17525 0
-17492 -17519 17526 0
-17520 17526 0
-17492 -17520 17527 0
-17521 17527 0
-17492 -17521 17528 0
-17522 17528 0
-17492 -17522 17529 0
-17523 17529 0
-17492 -17523 0
-17493 -17529 0
-17536 3 0
-3 17536 0
17536 1 2 4 5 6 7 0
-17537 94 0
-94 17537 0
17537 92 93 95 96 97 98 0
-17538 136 0
-136 17538 0
17538 134 135 137 138 139 140 0
-17539 178 0
-178 17539 0
17539 176 177 179 180 181 182 0
-17540 220 0
-220 17540 0
17540 218 219 221 222 223 224 0
-17541 262 0
-262 17541 0
17541 260 261 263 264 265 266 0
-17542 304 0
-304 17542 0
17542 302 303 305 306 307 308 0
-17536 17543 0
-17537 17544 0
-17543 17544 0
-17537 -17543 0
-17538 17545 0
-17544 17545 0
-17538 -17544 0
-17539 17546 0
-17545 17546 0
-17539 -17545 0
-17540 17547 0
-17546 17547 0
-17540 -17546 0
-17541 17548 0
-17547 17548 0
-17541 -17547 0
-17542 -17548 0
-17550 3 4 0
-3 17550 0
-4 17550 0
17550 1 2 5 6 7 0
-17551 94 95 0
-94 17551 0
-95 17551 0
17551 92 93 96 97 98 0
-17552 136 137 0
-136 17552 0
-137 17552 0
17552 134 135 138 139 140 0
-17553 178 179 0
-178 17553 0
-179 17553 0
17553 176 177 180 181 182 0
-17554 220 221 0
-220 17554 0
-221 17554 0
17554 218 219 222 223 224 0
-17555 262 263 0
-262 17555 0
-263 17555 0
17555 260 261 264 265 266 0
-17556 304 305 0
-304 17556 0
-305 17556 0
17556 302 303 306 307 308 0
-17550 17557 0
-17558 0
-17551 17559 0
-17557 17559 0
-17551 -17557 17560 0
-17558 17560 0
-17551 -17558 0
-17552 17561 0
-17559 17561 0
-17552 -17559 17562 0
-17560 17562 0
-17552 -17560 0
-17553 17563 0
-17561 17563 0
-17553 -17561 17564 0
-17562 17564 0
-17553 -17562 0
-17554 17565 0
-17563 17565 0
-17554 -17563 17566 0
-17564 17566 0
-17554 -17564 0
-17555 17567 0
-17565 17567 0
-17555 -17565 17568 0
-17566 17568 0
-17555 -17566 0
-17556 -17568 0
-17571 3 4 5 0
-3 17571 0
-4 17571 0
-5 17571 0
17571 1 2 6 7 0
-17572 94 95 96 0
-94 17572 0
-95 17572 0
-96 17572 0
17572 92 93 97 98 0
-17573 136 137 138 0
-136 17573 0
-137 17573 0
-138 17573 0
17573 134 135 139 140 0
-17574 178 179 180 0
-178 17574 0
-179 17574 0
-180 17574 0
17574 176 177 181 182 0
-17575 220 221 222 0
-220 17575 0
-221 17575 0
-222 17575 0
17575 218 219 223 224 0
-17576 262 263 264 0
-262 17576 0
-263 17576 0
-264 17576 0
17576 260 261 265 266 0
-17577 304 305 306 0
-304 17577 0
-305 17577 0
-306 17577 0
17577 302 303 307 308 0
-17571 17578 0
-17579 0
-17580 0
-17572 17581 0
-17578 17581 0
-17572 -17578 17582 0
-17579 17582 0
-17572 -17579 17583 0
-17580 17583 0
-17572 -17580 0
-17573 17584 0
-17581 17584 0
-17573 -17581 17585 0
-17582 17585 0
-17573 -17582 17586 0
-17583 17586 0
-17573 -17583 0
-17574 17587 0
-17584 17587 0
-17574 -17584 17588 0
-17585 17588 0
-17574 -17585 17589 0
-17586 17589 0
-17574 -17586 0
-17575 17590 0
-17587 17590 0
-17575 -17587 17591 0
-17588 17591 0
-17575 -17588 17592 0
-17589 17592 0
-17575 -17589 0
-17576 17593 0
-17590 17593 0
-17576 -17590 17594 0
-17591 17594 0
-17576 -17591 17595 0
-17592 17595 0
-17576 -17592 0
-17577 -17595 0
-17599 3 4 5 6 0
-3 17599 0
-4 17599 0
-5 17599 0
-6 17599 0
17599 1 2 7 0
-17600 94 95 96 97 0
-94 17600 0
-95 17600 0
-96 17600 0
-97 17600 0
17600 92 93 98 0
-17601 136 137 138 139 0
-136 17601 0
-137 17601 0
-138 17601 0
-139 17601 0
17601 134 135 140 0
-17602 178 179 180 181 0
-178 17602 0
-179 17602 0
-180 17602 0
-181 17602 0
17602 176 177 182 0
-17603 220 221 222 223 0
-220 17603 0
-221 17603 0
-222 17603 0
-223 17603 0
17603 218 219 224 0
-17604 262 263 264 265 0
-262 17604 0
-263 17604 0
-264 17604 0
-265 17604 0
17604 260 261 266 0
-17605 304 305 306 307 0
-304 17605 0
-305 17605 0
-306 17605 0
-307 17605 0
17605 302 303 308 0
-17599 17606 0
-17607 0
-17608 0
-17609 0
-17600 17610 0
-17606 17610 0
-17600 -17606 17611 0
-17607 17611 0
-17600 -17607 17612 0
-17608 17612 0
-17600 -17608 17613 0
-17609 17613 0
-17600 -17609 0
-17601 17614 0
-17610 17614 0
-17601 -17610 17615 0
-17611 17615 0
-17601 -17611 17616 0
-17612 17616 0
-17601 -17612 17617 0
-17613 17617 0
-17601 -17613 0
-17602 17618 0
-17614 17618 0
-17602 -17614 17619 0
-17615 17619 0
-17602 -17615 17620 0
-17616 17620 0
-17602 -17616 17621 0
-17617 17621 0
-17602 -17617 0
-17603 17622 0
-17618 17622 0
-17603 -17618 17623 0
-17619 17623 0
-17603 -17619 17624 0
-17620 17624 0
-17603 -17620 17625 0
-17621 17625 0
-17603 -17621 0
-17604 17626 0
-17622 17626 0
-17604 -17622 17627 0
-17623 17627 0
-17604 -17623 17628 0
-17624 17628 0
-17604 -17624 17629 0
-17625 17629 0
-17604 -17625 0
-17605 -17629 0
-17634 3 4 5 6 7 0
-3 17634 0
-4 17634 0
-5 17634 0
-6 17634 0
-7 17634 0
17634 1 2 0
-17635 94 95 96 97 98 0
-94 17635 0
-95 17635 0
-96 17635 0
-97 17635 0
-98 17635 0
17635 92 93 0
-17636 136 137 138 139 140 0
-136 17636 0
-137 17636 0
-138 17636 0
-139 17636 0
-140 17636 0
17636 134 135 0
-17637 178 179 180 181 182 0
-178 17637 0
-179 17637 0
-180 17637 0
-181 17637 0
-182 17637 0
17637 176 177 0
-17638 220 221 222 223 224 0
-220 17638 0
-221 17638 0
-222 17638 0
-223 17638 0
-224 17638 0
17638 218 219 0
-17639 262 263 264 265 266 0
-262 17639 0
-263 17639 0
-264 17639 0
-265 17639 0
-266 17639 0
17639 260 261 0
-17640 304 305 306 307 308 0
-304 17640 0
-305 17640 0
-306 17640 0
-307 17640 0
-308 17640 0
17640 302 303 0
-17634 17641 0
-17642 0
-17643 0
-17644 0
-17645 0
-17635 17646 0
-17641 17646 0
-17635 -17641 17647 0
-17642 17647 0
-17635 -17642 17648 0
-17643 17648 0
-17635 -17643 17649 0
-17644 17649 0
-17635 -17644 17650 0
-17645 17650 0
-17635 -17645 0
-17636 17651 0
-17646 17651 0
-17636 -17646 17652 0
-17647 17652 0
-17636 -17647 17653 0
-17648 17653 0
-17636 -17648 17654 0
-17649 17654 0
-17636 -17649 17655 0
-17650 17655 0
-17636 -17650 0
-17637 17656 0
-17651 17656 0
-17637 -17651 17657 0
-17652 17657 0
-17637 -17652 17658 0
-17653 17658 0
-17637 -17653 17659 0
-17654 17659 0
-17637 -17654 17660 0
-17655 17660 0
-17637 -17655 0
-17638 17661 0
-17656 17661 0
-17638 -17656 17662 0
-17657 17662 0
-17638 -17657 17663 0
-17658 17663 0
-17638 -17658 17664 0
-17659 17664 0
-17638 -17659 17665 0
-17660 17665 0
-17638 -17660 0
-17639 17666 0
-17661 17666 0
-17639 -17661 17667 0
-17662 17667 0
-17639 -17662 17668 0
-17663 17668 0
-17639 -17663 17669 0
-17664 17669 0
-17639 -17664 17670 0
-17665 17670 0
-17639 -17665 0
-17640 -17670 0
-17676 4 0
-4 17676 0
17676 1 2 3 5 6 7 0
-17677 95 0
-95 17677 0
17677 92 93 94 96 97 98 0
-17678 137 0
-137 17678 0
17678 134 135 136 138 139 140 0
-17679 179 0
-179 17679 0
17679 176 177 178 180 181 182 0
-17680 221 0
-221 17680 0
17680 218 219 220 222 223 224 0
-17681 263 0
-263 17681 0
17681 260 261 262 264 265 266 0
-17682 305 0
-305 17682 0
17682 302 303 304 306 307 308 0
-17676 17683 0
-17677 17684 0
-17683 17684 0
-17677 -17683 0
-17678 17685 0
-17684 17685 0
-17678 -17684 0
-17679 17686 0
-17685 17686 0
-17679 -17685 0
-17680 17687 0
-17686 17687 0
-17680 -17686 0
-17681 17688 0
-17687 17688 0
-17681 -17687 0
-17682 -17688 0
-17690 4 5 0
-4 17690 0
-5 17690 0
17690 1 2 3 6 7 0
-17691 95 96 0
-95 17691 0
-96 17691 0
17691 92 93 94 97 98 0
-17692 137 138 0
-137 17692 0
-138 17692 0
17692 134 135 136 139 140 0
-17693 179 180 0
-179 17693 0
-180 17693 0
17693 176 177 178 181 182 0
-17694 221 222 0
-221 17694 0
-222 17694 0
17694 218 219 220 223 224 0
-17695 263 264 0
-263 17695 0
-264 17695 0
17695 260 261 262 265 266 0
-17696 305 306 0
-305 17696 0
-306 17696 0
17696 302 303 304 307 308 0
-17690 17697 0
-17698 0
-17691 17699 0
-17697 17699 0
-17691 -17697 17700 0
-17698 17700 0
-17691 -17698 0
-17692 17701 0
-17699 17701 0
-17692 -17699 17702 0
-17700 17702 0
-17692 -17700 0
-17693 17703 0
-17701 17703 0
-17693 -17701 17704 0
-17702 17704 0
-17693 -17702 0
-17694 17705 0
-17703 17705 0
-17694 -17703 17706 0
-17704 17706 0
-17694 -17704 0
-17695 17707 0
-17705 17707 0
-17695 -17705 17708 0
-17706 17708 0
-17695 -17706 0
-17696 -17708 0
-17711 4 5 6 0
-4 17711 0
-5 17711 0
-6 17711 0
17711 1 2 3 7 0
-17712 95 96 97 0
-95 17712 0
-96 17712 0
-97 17712 0
17712 92 93 94 98 0
-17713 137 138 139 0
-137 17713 0
-138 17713 0
-139 17713 0
17713 134 135 136 140 0
-17714 179 180 181 0
-179 17714 0
-180 17714 0
-181 17714 0
17714 176 177 178 182 0
-17715 221 222 223 0
-221 17715 0
-222 17715 0
-223 17715 0
17715 218 219 220 224 0
-17716 263 264 265 0
-263 17716 0
-264 17716 0
-265 17716 0
17716 260 261 262 266 0
-17717 305 306 307 0
-305 17717 0
-306 17717 0
-307 17717 0
17717 302 303 304 308 0
-17711 17718 0
-17719 0
-17720 0
-17712 17721 0
-17718 17721 0
-17712 -17718 17722 0
-17719 17722 0
-17712 -17719 17723 0
-17720 17723 0
-17712 -17720 0
-17713 17724 0
-17721 17724 0
-17713 -17721 17725 0
-17722 17725 0
-17713 -17722 17726 0
-17723 17726 0
-17713 -17723 0
-17714 17727 0
-17724 17727 0
-17714 -17724 17728 0
-17725 17728 0
-17714 -17725 17729 0
-17726 17729 0
-17714 -17726 0
-17715 17730 0
-17727 17730 0
-17715 -17727 17731 0
-17728 17731 0
-17715 -17728 17732 0
-17729 17732 0
-17715 -17729 0
-17716 17733 0
-17730 17733 0
-17716 -17730 17734 0
-17731 17734 0
-17716 -17731 17735 0
-17732 17735 0
-17716 -17732 0
-17717 -17735 0
-17739 4 5 6 7 0
-4 17739 0
-5 17739 0
-6 17739 0
-7 17739 0
17739 1 2 3 0
-17740 95 96 97 98 0
-95 17740 0
-96 17740 0
-97 17740 0
-98 17740 0
17740 92 93 94 0
-17741 137 138 139 140 0
-137 17741 0
-138 17741 0
-139 17741 0
-140 17741 0
17741 134 135 136 0
-17742 179 180 181 182 0
-179 17742 0
-180 17742 0
-181 17742 0
-182 17742 0
17742 176 177 178 0
-17743 221 222 223 224 0
-221 17743 0
-222 17743 0
-223 17743 0
-224 17743 0
17743 218 219 220 0
-17744 263 264 265 266 0
-263 17744 0
-264 17744 0
-265 17744 0
-266 17744 0
17744 260 261 262 0
-17745 305 306 307 308 0
-305 17745 0
-306 17745 0
-307 17745 0
-308 17745 0
17745 302 303 304 0
-17739 17746 0
-17747 0
-17748 0
-17749 0
-17740 17750 0
-17746 17750 0
-17740 -17746 17751 0
-17747 17751 0
-17740 -17747 17752 0
-17748 17752 0
-17740 -17748 17753 0
-17749 17753 0
-17740 -17749 0
-17741 17754 0
-17750 17754 0
-17741 -17750 17755 0
-17751 17755 0
-17741 -17751 17756 0
-17752 17756 0
-17741 -17752 17757 0
-17753 17757 0
-17741 -17753 0
-17742 17758 0
-17754 17758 0
-17742 -17754 17759 0
-17755 17759 0
-17742 -17755 17760 0
-17756 17760 0
-17742 -17756 17761 0
-17757 17761 0
-17742 -17757 0
-17743 17762 0
-17758 17762 0
-17743 -17758 17763 0
-17759 17763 0
-17743 -17759 17764 0
-17760 17764 0
-17743 -17760 17765 0
-17761 17765 0
-17743 -17761 0
-17744 17766 0
-17762 17766 0
-17744 -17762 17767 0
-17763 17767 0
-17744 -17763 17768 0
-17764 17768 0
-17744 -17764 17769 0
-17765 17769 0
-17744 -17765 0
-17745 -17769 0
-17774 5 0
-5 17774 0
17774 1 2 3 4 6 7 0
-17775 96 0
-96 17775 0
17775 92 93 94 95 97 98 0
-17776 138 0
-138 17776 0
17776 134 135 136 137 139 140 0
-17777 180 0
-180 17777 0
17777 176 177 178 179 181 182 0
-17778 222 0
-222 17778 0
17778 218 219 220 221 223 224 0
-17779 264 0
-264 17779 0
17779 260 261 262 263 265 266 0
-17780 306 0
-306 17780 0
17780 302 303 304 305 307 308 0
-17774 17781 0
-17775 17782 0
-17781 17782 0
-17775 -17781 0
-17776 17783 0
-17782 17783 0
-17776 -17782 0
-17777 17784 0
-17783 17784 0
-17777 -17783 0
-17778 17785 0
-17784 17785 0
-17778 -17784 0
-17779 17786 0
-17785 17786 0
-17779 -17785 0
-17780 -17786 0
-17788 5 6 0
-5 17788 0
-6 17788 0
17788 1 2 3 4 7 0
-17789 96 97 0
-96 17789 0
-97 17789 0
17789 92 93 94 95 98 0
-17790 138 139 0
-138 17790 0
-139 17790 0
17790 134 135 136 137 140 0
-17791 180 181 0
-180 17791 0
-181 17791 0
17791 176 177 178 179 182 0
-17792 222 223 0
-222 17792 0
-223 17792 0
17792 218 219 220 221 224 0
-17793 264 265 0
-264 17793 0
-265 17793 0
17793 260 261 262 263 266 0
-17794 306 307 0
-306 17794 0
-307 17794 0
17794 302 303 304 305 308 0
-17788 17795 0
-17796 0
-17789 17797 0
-17795 17797 0
-17789 -17795 17798 0
-17796 17798 0
-17789 -17796 0
-17790 17799 0
-17797 17799 0
-17790 -17797 17800 0
-17798 17800 0
-17790 -17798 0
-17791 17801 0
-17799 17801 0
-17791 -17799 17802 0
-17800 17802 0
-17791 -17800 0
-17792 17803 0
-17801 17803 0
-17792 -17801 17804 0
-17802 17804 0
-17792 -17802 0
-17793 17805 0
-17803 17805 0
-17793 -17803 17806 0
-17804 17806 0
-17793 -17804 0
-17794 -17806 0
-17809 5 6 7 0
-5 17809 0
-6 17809 0
-7 17809 0
17809 1 2 3 4 0
-17810 96 97 98 0
-96 17810 0
-97 17810 0
-98 17810 0
17810 92 93 94 95 0
-17811 138 139 140 0
-138 17811 0
-139 17811 0
-140 17811 0
17811 134 135 136 137 0
-17812 180 181 182 0
-180 17812 0
-181 17812 0
-182 17812 0
17812 176 177 178 179 0
-17813 222 223 224 0
-222 17813 0
-223 17813 0
-224 17813 0
17813 218 219 220 221 0
-17814 264 265 266 0
-264 17814 0
-265 17814 0
-266 17814 0
17814 260 261 262 263 0
-17815 306 307 308 0
-306 17815 0
-307 17815 0
-308 17815 0
17815 302 303 304 305 0
-17809 17816 0
-17817 0
-17818 0
-17810 17819 0
-17816 17819 0
-17810 -17816 17820 0
-17817 17820 0
-17810 -17817 17821 0
-17818 17821 0
-17810 -17818 0
-17811 17822 0
-17819 17822 0
-17811 -17819 17823 0
-17820 17823 0
-17811 -17820 17824 0
-17821 17824 0
-17811 -17821 0
-17812 17825 0
-17822 17825 0
-17812 -17822 17826 0
-17823 17826 0
-17812 -17823 17827 0
-17824 17827 0
-17812 -17824 0
-17813 17828 0
-17825 17828 0
-17813 -17825 17829 0
-17826 17829 0
-17813 -17826 17830 0
-17827 17830 0
-17813 -17827 0
-17814 17831 0
-17828 17831 0
-17814 -17828 17832 0
-17829 17832 0
-17814 -17829 17833 0
-17830 17833 0
-17814 -17830 0
-17815 -17833 0
-17837 6 0
-6 17837 0
17837 1 2 3 4 5 7 0
-17838 97 0
-97 17838 0
17838 92 93 94 95 96 98 0
-17839 139 0
-139 17839 0
17839 134 135 136 137 138 140 0
-17840 181 0
-181 17840 0
17840 176 177 178 179 180 182 0
-17841 223 0
-223 17841 0
17841 218 219 220 221 222 224 0
-17842 265 0
-265 17842 0
17842 260 261 262 263 264 266 0
-17843 307 0
-307 17843 0
17843 302 303 304 305 306 308 0
-17837 17844 0
-17838 17845 0
-17844 17845 0
-17838 -17844 0
-17839 17846 0
-17845 17846 0
-17839 -17845 0
-17840 17847 0
-17846 17847 0
-17840 -17846 0
-17841 17848 0
-17847 17848 0
-17841 -17847 0
-17842 17849 0
-17848 17849 0
-17842 -17848 0
-17843 -17849 0
-17851 6 7 0
-6 17851 0
-7 17851 0
17851 1 2 3 4 5 0
-17852 97 98 0
-97 17852 0
-98 17852 0
17852 92 93 94 95 96 0
-17853 139 140 0
-139 17853 0
-140 17853 0
17853 134 135 136 137 138 0
-17854 181 182 0
-181 17854 0
-182 17854 0
17854 176 177 178 179 180 0
-17855 223 224 0
-223 17855 0
-224 17855 0
17855 218 219 220 221 222 0
-17856 265 266 0
-265 17856 0
-266 17856 0
17856 260 261 262 263 264 0
-17857 307 308 0
-307 17857 0
-308 17857 0
17857 302 303 304 305 306 0
-17851 17858 0
-17859 0
-17852 17860 0
-17858 17860 0
-17852 -17858 17861 0
-17859 17861 0
-17852 -17859 0
-17853 17862 0
-17860 17862 0
-17853 -17860 17863 0
-17861 17863 0
-17853 -17861 0
-17854 17864 0
-17862 17864 0
-17854 -17862 17865 0
-17863 17865 0
-17854 -17863 0
-17855 17866 0
-17864 17866 0
-17855 -17864 17867 0
-17865 17867 0
-17855 -17865 0
-17856 17868 0
-17866 17868 0
-17856 -17866 17869 0
-17867 17869 0
-17856 -17867 0
-17857 -17869 0
-17872 7 0
-7 17872 0
17872 1 2 3 4 5 6 0
-17873 98 0
-98 17873 0
17873 92 93 94 95 96 97 0
-17874 140 0
-140 17874 0
17874 134 135 136 137 138 139 0
-17875 182 0
-182 17875 0
17875 176 177 178 179 180 181 0
-17876 224 0
-224 17876 0
17876 218 219 220 221 222 223 0
-17877 266 0
-266 17877 0
17877 260 261 262 263 264 265 0
-17878 308 0
-308 17878 0
17878 302 303 304 305 306 307 0
-17872 17879 0
-17873 17880 0
-17879 17880 0
-17873 -17879 0
-17874 17881 0
-17880 17881 0
-17874 -17880 0
-17875 17882 0
-17881 17882 0
-17875 -17881 0
-17876 17883 0
-17882 17883 0
-17876 -17882 0
-17877 17884 0
-17883 17884 0
-17877 -17883 0
-17878 -17884 0
-1 17886 0
-92 17887 0
-17886 17887 0
-92 -17886 0
-134 17888 0
-17887 17888 0
-134 -17887 0
-176 17889 0
-17888 17889 0
-176 -17888 0
-218 17890 0
-17889 17890 0
-218 -17889 0
-260 17891 0
-17890 17891 0
-260 -17890 0
-302 -17891 0
1 92 134 176 218 260 302 0
-2 17893 0
-93 17894 0
-17893 17894 0
-93 -17893 0
-135 17895 0
-17894 17895 0
-135 -17894 0
-177 17896 0
-17895 17896 0
-177 -17895 0
-219 17897 0
-17896 17897 0
-219 -17896 0
-261 17898 0
-17897 17898 0
-261 -17897 0
-303 -17898 0
2 93 135 177 219 261 303 0
-3 17900 0
-94 17901 0
-17900 17901 0
-94 -17900 0
-136 17902 0
-17901 17902 0
-136 -17901 0
-178 17903 0
-17902 17903 0
-178 -17902 0
-220 17904 0
-17903 17904 0
-220 -17903 0
-262 17905 0
-17904 17905 0
-262 -17904 0
-304 -17905 0
3 94 136 178 220 262 304 0
-4 17907 0
-95 17908 0
-17907 17908 0
-95 -17907 0
-137 17909 0
-17908 17909 0
-137 -17908 0
-179 17910 0
-17909 17910 0
-179 -17909 0
-221 17911 0
-17910 17911 0
-221 -17910 0
-263 17912 0
-17911 17912 0
-263 -17911 0
-305 -17912 0
4 95 137 179 221 263 305 0
-5 17914 0
-96 17915 0
-17914 17915 0
-96 -17914 0
-138 17916 0
-17915 17916 0
-138 -17915 0
-180 17917 0
-17916 17917 0
-180 -17916 0
-222 17918 0
-17917 17918 0
-222 -17917 0
-264 17919 0
-17918 17919 0
-264 -17918 0
-306 -17919 0
5 96 138 180 222 264 306 0
-6 17921 0
-97 17922 0
-17921 17922 0
-97 -17921 0
-139 17923 0
-17922 17923 0
-139 -17922 0
-181 17924 0
-17923 17924 0
-181 -17923 0
-223 17925 0
-17924 17925 0
-223 -17924 0
-265 17926 0
-17925 17926 0
-265 -17925 0
-307 -17926 0
6 97 139 181 223 265 307 0
-7 17928 0
-98 17929 0
-17928 17929 0
-98 -17928 0
-140 17930 0
-17929 17930 0
-140 -17929 0
-182 17931 0
-17930 17931 0
-182 -17930 0
-224 17932 0
-17931 17932 0
-224 -17931 0
-266 17933 0
-17932 17933 0
-266 -17932 0
-308 -17933 0
7 98 140 182 224 266 308 0
-17935 8 0
-8 17935 0
17935 9 10 11 12 13 14 0
-17936 50 0
-50 17936 0
17936 51 52 53 54 55 56 0
-17937 141 0
-141 17937 0
17937 142 143 144 145 146 147 0
-17938 183 0
-183 17938 0
17938 184 185 186 187 188 189 0
-17939 225 0
-225 17939 0
17939 226 227 228 229 230 231 0
-17940 267 0
-267 17940 0
17940 268 269 270 271 272 273 0
-17941 309 0
-309 17941 0
17941 310 311 312 313 314 315 0
-17935 17942 0
-17936 17943 0
-17942 17943 0
-17936 -17942 0
-17937 17944 0
-17943 17944 0
-17937 -17943 0
-17938 17945 0
-17944 17945 0
-17938 -17944 0
-17939 17946 0
-17945 17946 0
-17939 -17945 0
-17940 17947 0
-17946 17947 0
-17940 -17946 0
-17941 -17947 0
-17949 8 9 0
-8 17949 0
-9 17949 0
17949 10 11 12 13 14 0
-17950 50 51 0
-50 17950 0
-51 17950 0
17950 52 53 54 55 56 0
-17951 141 142 0
-141 17951 0
-142 17951 0
17951 143 144 145 146 147 0
-17952 183 184 0
-183 17952 0
-184 17952 0
17952 185 186 187 188 189 0
-17953 225 226 0
-225 17953 0
-226 17953 0
17953 227 228 229 230 231 0
-17954 267 268 0
-267 17954 0
-268 17954 0
17954 269 270 271 272 273 0
-17955 309 310 0
-309 17955 0
-310 17955 0
17955 311 312 313 314 315 0
-17949 17956 0
-17957 0
-17950 17958 0
-17956 17958 0
-17950 -17956 17959 0
-17957 17959 0
-17950 -17957 0
-17951 17960 0
-17958 17960 0
-17951 -17958 17961 0
-17959 17961 0
-17951 -17959 0
-17952 17962 0
-17960 17962 0
-17952 -17960 17963 0
-17961 17963 0
-17952 -17961 0
-17953 17964 0
-17962 17964 0
-17953 -17962 17965 0
-17963 17965 0
-17953 -17963 0
-17954 17966 0
-17964 17966 0
-17954 -17964 17967 0
-17965 17967 0
-17954 -17965 0
-17955 -17967 0
-17970 8 9 10 0
-8 17970 0
-9 17970 0
-10 17970 0
17970 11 12 13 14 0
-17971 50 51 52 0
-50 17971 0
-51 17971 0
-52 17971 0
17971 53 54 55 56 0
-17972 141 142 143 0
-141 17972 0
-142 17972 0
-143 17972 0
17972 144 145 146 147 0
-17973 183 184 185 0
-183 17973 0
-184 17973 0
-185 17973 0
17973 186 187 188 189 0
-17974 225 226 227 0
-225 17974 0
-226 17974 0
-227 17974 0
17974 228 229 230 231 0
-17975 267 268 269 0
-267 17975 0
-268 17975 0
-269 17975 0
17975 270 271 272 273 0
-17976 309 310 311 0
-309 17976 0
-310 17976 0
-311 17976 0
17976 312 313 314 315 0
-17970 17977 0
-17978 0
-17979 0
-17971 17980 0
-17977 17980 0
-17971 -17977 17981 0
-17978 17981 0
-17971 -17978 17982 0
-17979 17982 0
-17971 -17979 0
-17972 17983 0
-17980 17983 0
-17972 -17980 17984 0
-17981 17984 0
-17972 -17981 17985 0
-17982 17985 0
-17972 -17982 0
-17973 17986 0
-17983 17986 0
-17973 -17983 17987 0
-17984 17987 0
-17973 -17984 17988 0
-17985 17988 0
-17973 -17985 0
-17974 17989 0
-17986 17989 0
-17974 -17986 17990 0
-17987 17990 0
-17974 -17987 17991 0
-17988 17991 0
-17974 -17988 0
-17975 17992 0
-17989 17992 0
-17975 -17989 17993 0
-17990 17993 0
-17975 -17990 17994 0
-17991 17994 0
-17975 -17991 0
-17976 -17994 0
-17998 8 9 10 11 0
-8 17998 0
-9 17998 0
-10 17998 0
-11 17998 0
17998 12 13 14 0
-17999 50 51 52 53 0
-50 17999 0
-51 17999 0
-52 17999 0
-53 17999 0
17999 54 55 56 0
-18000 141 142 143 144 0
-141 18000 0
-142 18000 0
-143 18000 0
-144 18000 0
18000 145 146 147 0
-18001 183 184 185 186 0
-183 18001 0
-184 18001 0
-185 18001 0
-186 18001 0
18001 187 188 189 0
-18002 225 226 227 228 0
-225 18002 0
-226 18002 0
-227 18002 0
-228 18002 0
18002 229 230 231 0
-18003 267 268 269 270 0
-267 18003 0
-268 18003 0
-269 18003 0
-270 18003 0
18003 271 272 273 0
-18004 309 310 311 312 0
-309 18004 0
-310 18004 0
-311 18004 0
-312 18004 0
18004 313 314 315 0
-17998 18005 0
-18006 0
-18007 0
-18008 0
-17999 18009 0
-18005 18009 0
-17999 -18005 18010 0
-18006 18010 0
-17999 -18006 18011 0
-18007 18011 0
-17999 -18007 18012 0
-18008 18012 0
-17999 -18008 0
-18000 18013 0
-18009 18013 0
-18000 -18009 18014 0
-18010 18014 0
-18000 -18010 18015 0
-18011 18015 0
-18000 -18011 18016 0
-18012 18016 0
-18000 -18012 0
-18001 18017 0
-18013 18017 0
-18001 -18013 18018 0
-18014 18018 0
-18001 -18014 18019 0
-18015 18019 0
-18001 -18015 18020 0
-18016 18020 0
-18001 -18016 0
-18002 18021 0
-18017 18021 0
-18002 -18017 18022 0
-18018 18022 0
-18002 -18018 18023 0
-18019 18023 0
-18002 -18019 18024 0
-18020 18024 0
-18002 -18020 0
-18003 18025 0
-18021 18025 0
-18003 -18021 18026 0
-18022 18026 0
-18003 -18022 18027 0
-18023 18027 0
-18003 -18023 18028 0
-18024 18028 0
-18003 -18024 0
-18004 -18028 0
-18033 8 9 10 11 12 0
-8 18033 0
-9 18033 0
-10 18033 0
-11 18033 0
-12 18033 0
18033 13 14 0
-18034 50 51 52 53 54 0
-50 18034 0
-51 18034 0
-52 18034 0
-53 18034 0
-54 18034 0
18034 55 56 0
-18035 141 142 143 144 145 0
-141 18035 0
-142 18035 0
-143 18035 0
-144 18035 0
-145 18035 0
18035 146 147 0
-18036 183 184 185 186 187 0
-183 18036 0
-184 18036 0
-185 18036 0
-186 18036 0
-187 18036 0
18036 188 189 0
-18037 225 226 227 228 229 0
-225 18037 0
-226 18037 0
-227 18037 0
-228 18037 0
-229 18037 0
18037 230 231 0
-18038 267 268 269 270 271 0
-267 18038 0
-268 18038 0
-269 18038 0
-270 18038 0
-271 18038 0
18038 272 273 0
-18039 309 310 311 312 313 0
-309 18039 0
-310 18039 0
-311 18039 0
-312 18039 0
-313 18039 0
18039 314 315 0
-18033 18040 0
-18041 0
-18042 0
-18043 0
-18044 0
-18034 18045 0
-18040 18045 0
-18034 -18040 18046 0
-18041 18046 0
-18034 -18041 18047 0
-18042 18047 0
-18034 -18042 18048 0
-18043 18048 0
-18034 -18043 18049 0
-18044 18049 0
-18034 -18044 0
-18035 18050 0
-18045 18050 0
-18035 -18045 18051 0
-18046 18051 0
-18035 -18046 18052 0
-18047 18052 0
-18035 -18047 18053 0
-18048 18053 0
-18035 -18048 18054 0
-18049 18054 0
-18035 -18049 0
-18036 18055 0
-18050 18055 0
-18036 -18050 18056 0
-18051 18056 0
-18036 -18051 18057 0
-18052 18057 0
-18036 -18052 18058 0
-18053 18058 0
-18036 -18053 18059 0
-18054 18059 0
-18036 -18054 0
-18037 18060 0
-18055 18060 0
-18037 -18055 18061 0
-18056 18061 0
-18037 -18056 18062 0
-18057 18062 0
-18037 -18057 18063 0
-18058 18063 0
-18037 -18058 18064 0
-18059 18064 0
-18037 -18059 0
-18038 18065 0
-18060 18065 0
-18038 -18060 18066 0
-18061 18066 0
-18038 -18061 18067 0
-18062 18067 0
-18038 -18062 18068 0
-18063 18068 0
-18038 -18063 18069 0
-18064 18069 0
-18038 -18064 0
-18039 -18069 0
-18075 8 9 10 11 12 13 0
-8 18075 0
-9 18075 0
-10 18075 0
-11 18075 0
-12 18075 0
-13 18075 0
18075 14 0
-18076 50 51 52 53 54 55 0
-50 18076 0
-51 18076 0
-52 18076 0
-53 18076 0
-54 18076 0
-55 18076 0
18076 56 0
-18077 141 142 143 144 145 146 0
-141 18077 0
-142 18077 0
-143 18077 0
-144 18077 0
-145 18077 0
-146 18077 0
18077 147 0
-18078 183 184 185 186 187 188 0
-183 18078 0
-184 18078 0
-185 18078 0
-186 18078 0
-187 18078 0
-188 18078 0
18078 189 0
-18079 225 226 227 228 229 230 0
-225 18079 0
-226 18079 0
-227 18079 0
-228 18079 0
-229 18079 0
-230 18079 0
18079 231 0
-18080 267 268 269 270 271 272 0
-267 18080 0
-268 18080 0
-269 18080 0
-270 18080 0
-271 18080 0
-272 18080 0
18080 273 0
-18081 309 310 311 312 313 314 0
-309 18081 0
-310 18081 0
-311 18081 0
-312 18081 0
-313 18081 0
-314 18081 0
18081 315 0
-18075 18082 0
-18083 0
-18084 0
-18085 0
-18086 0
-18087 0
-18076 18088 0
-18082 18088 0
-18076 -18082 18089 0
-18083 18089 0
-18076 -18083 18090 0
-18084 18090 0
-18076 -18084 18091 0
-18085 18091 0
-18076 -18085 18092 0
-18086 18092 0
-18076 -18086 18093 0
-18087 18093 0
-18076 -18087 0
-18077 18094 0
-18088 18094 0
-18077 -18088 18095 0
-18089 18095 0
-18077 -18089 18096 0
-18090 18096 0
-18077 -18090 18097 0
-18091 18097 0
-18077 -18091 18098 0
-18092 18098 0
-18077 -18092 18099 0
-18093 18099 0
-18077 -18093 0
-18078 18100 0
-18094 18100 0
-18078 -18094 18101 0
-18095 18101 0
-18078 -18095 18102 0
-18096 18102 0
-18078 -18096 18103 0
-18097 18103 0
-18078 -18097 18104 0
-18098 18104 0
-18078 -18098 18105 0
-18099 18105 0
-18078 -18099 0
-18079 18106 0
-18100 18106 0
-18079 -18100 18107 0
-18101 18107 0
-18079 -18101 18108 0
-18102 18108 0
-18079 -18102 18109 0
-18103 18109 0
-18079 -18103 18110 0
-18104 18110 0
-18079 -18104 18111 0
-18105 18111 0
-18079 -18105 0
-18080 18112 0
-18106 18112 0
-18080 -18106 18113 0
-18107 18113 0
-18080 -18107 18114 0
-18108 18114 0
-18080 -18108 18115 0
-18109 18115 0
-18080 -18109 18116 0
-18110 18116 0
-18080 -18110 18117 0
-18111 18117 0
-18080 -18111 0
-18081 -18117 0
-18124 8 9 10 11 12 13 14 0
-8 18124 0
-9 18124 0
-10 18124 0
-11 18124 0
-12 18124 0
-13 18124 0
-14 18124 0
18124 0
-18125 50 51 52 53 54 55 56 0
-50 18125 0
-51 18125 0
-52 18125 0
-53 18125 0
-54 18125 0
-55 18125 0
-56 18125 0
18125 0
-18126 141 142 143 144 145 146 147 0
-141 18126 0
-142 18126 0
-143 18126 0
-144 18126 0
-145 18126 0
-146 18126 0
-147 18126 0
18126 0
-18127 183 184 185 186 187 188 189 0
-183 18127 0
-184 18127 0
-185 18127 0
-186 18127 0
-187 18127 0
-188 18127 0
-189 18127 0
18127 0
-18128 225 226 227 228 229 230 231 0
-225 18128 0
-226 18128 0
-227 18128 0
-228 18128 0
-229 18128 0
-230 18128 0
-231 18128 0
18128 0
-18129 267 268 269 270 271 272 273 0
-267 18129 0
-268 18129 0
-269 18129 0
-270 18129 0
-271 18129 0
-272 18129 0
-273 18129 0
18129 0
-18130 309 310 311 312 313 314 315 0
-309 18130 0
-310 18130 0
-311 18130 0
-312 18130 0
-313 18130 0
-314 18130 0
-315 18130 0
18130 0
-18131 9 0
-9 18131 0
18131 8 10 11 12 13 14 0
-18132 51 0
-51 18132 0
18132 50 52 53 54 55 56 0
-18133 142 0
-142 18133 0
18133 141 143 144 145 146 147 0
-18134 184 0
-184 18134 0
18134 183 185 186 187 188 189 0
-18135 226 0
-226 18135 0
18135 225 227 228 229 230 231 0
-18136 268 0
-268 18136 0
18136 267 269 270 271 272 273 0
-18137 310 0
-310 18137 0
18137 309 311 312 313 314 315 0
-18131 18138 0
-18132 18139 0
-18138 18139 0
-18132 -18138 0
-18133 18140 0
-18139 18140 0
-18133 -18139 0
-18134 18141 0
-18140 18141 0
-18134 -18140 0
-18135 18142 0
-18141 18142 0
-18135 -18141 0
-18136 18143 0
-18142 18143 0
-18136 -18142 0
-18137 -18143 0
-18145 9 10 0
-9 18145 0
-10 18145 0
18145 8 11 12 13 14 0
-18146 51 52 0
-51 18146 0
-52 18146 0
18146 50 53 54 55 56 0
-18147 142 143 0
-142 18147 0
-143 18147 0
18147 141 144 145 146 147 0
-18148 184 185 0
-184 18148 0
-185 18148 0
18148 183 186 187 188 189 0
-18149 226 227 0
-226 18149 0
-227 18149 0
18149 225 228 229 230 231 0
-18150 268 269 0
-268 18150 0
-269 18150 0
18150 267 270 271 272 273 0
-18151 310 311 0
-310 18151 0
-311 18151 0
18151 309 312 313 314 315 0
-18145 18152 0
-18153 0
-18146 18154 0
-18152 18154 0
-18146 -18152 18155 0
-18153 18155 0
-18146 -18153 0
-18147 18156 0
-18154 18156 0
-18147 -18154 18157 0
-18155 18157 0
-18147 -18155 0
-18148 18158 0
-18156 18158 0
-18148 -18156 18159 0
-18157 18159 0
-18148 -18157 0
-18149 18160 0
-18158 18160 0
-18149 -18158 18161 0
-18159 18161 0
-18149 -18159 0
-18150 18162 0
-18160 18162 0
-18150 -18160 18163 0
-18161 18163 0
-18150 -18161 0
-18151 -18163 0
-18166 9 10 11 0
-9 18166 0
-10 18166 0
-11 18166 0
18166 8 12 13 14 0
-18167 51 52 53 0
-51 18167 0
-52 18167 0
-53 18167 0
18167 50 54 55 56 0
-18168 142 143 144 0
-142 18168 0
-143 18168 0
-144 18168 0
18168 141 145 146 147 0
-18169 184 185 186 0
-184 18169 0
-185 18169 0
-186 18169 0
18169 183 187 188 189 0
-18170 226 227 228 0
-226 18170 0
-227 18170 0
-228 18170 0
18170 225 229 230 231 0
-18171 268 269 270 0
-268 18171 0
-269 18171 0
-270 18171 0
18171 267 271 272 273 0
-18172 310 311 312 0
-310 18172 0
-311 18172 0
-312 18172 0
18172 309 313 314 315 0
-18166 18173 0
-18174 0
-18175 0
-18167 18176 0
-18173 18176 0
-18167 -18173 18177 0
-18174 18177 0
-18167 -18174 18178 0
-18175 18178 0
-18167 -18175 0
-18168 18179 0
-18176 18179 0
-18168 -18176 18180 0
-18177 18180 0
-18168 -18177 18181 0
-18178 18181 0
-18168 -18178 0
-18169 18182 0
-18179 18182 0
-18169 -18179 18183 0
-18180 18183 0
-18169 -18180 18184 0
-18181 18184 0
-18169 -18181 0
-18170 18185 0
-18182 18185 0
-18170 -18182 18186 0
-18183 18186 0
-18170 -18183 18187 0
-18184 18187 0
-18170 -18184 0
-18171 18188 0
-18185 18188 0
-18171 -18185 18189 0
-18186 18189 0
-18171 -18186 18190 0
-18187 18190 0
-18171 -18187 0
-18172 -18190 0
-18194 9 10 11 12 0
-9 18194 0
-10 18194 0
-11 18194 0
-12 18194 0
18194 8 13 14 0
-18195 51 52 53 54 0
-51 18195 0
-52 18195 0
-53 18195 0
-54 18195 0
18195 50 55 56 0
-18196 142 143 144 145 0
-142 18196 0
-143 18196 0
-144 18196 0
-145 18196 0
18196 141 146 147 0
-18197 184 185 186 187 0
-184 18197 0
-185 18197 0
-186 18197 0
-187 18197 0
18197 183 188 189 0
-18198 226 227 228 229 0
-226 18198 0
-227 18198 0
-228 18198 0
-229 18198 0
18198 225 230 231 0
-18199 268 269 270 271 0
-268 18199 0
-269 18199 0
-270 18199 0
-271 18199 0
18199 267 272 273 0
-18200 310 311 312 313 0
-310 18200 0
-311 18200 0
-312 18200 0
-313 18200 0
18200 309 314 315 0
-18194 18201 0
-18202 0
-18203 0
-18204 0
-18195 18205 0
-18201 18205 0
-18195 -18201 18206 0
-18202 18206 0
-18195 -18202 18207 0
-18203 18207 0
-18195 -18203 18208 0
-18204 18208 0
-18195 -18204 0
-18196 18209 0
-18205 18209 0
-18196 -18205 18210 0
-18206 18210 0
-18196 -18206 18211 0
-18207 18211 0
-18196 -18207 18212 0
-18208 18212 0
-18196 -18208 0
-18197 18213 0
-18209 18213 0
-18197 -18209 18214 0
-18210 18214 0
-18197 -18210 18215 0
-18211 18215 0
-18197 -18211 18216 0
-18212 18216 0
-18197 -18212 0
-18198 18217 0
-18213 18217 0
-18198 -18213 18218 0
-18214 18218 0
-18198 -18214 18219 0
-18215 18219 0
-18198 -18215 18220 0
-18216 18220 0
-18198 -18216 0
-18199 18221 0
-18217 18221 0
-18199 -18217 18222 0
-18218 18222 0
-18199 -18218 18223 0
-18219 18223 0
-18199 -18219 18224 0
-18220 18224 0
-18199 -18220 0
-18200 -18224 0
-18229 9 10 11 12 13 0
-9 18229 0
-10 18229 0
-11 18229 0
-12 18229 0
-13 18229 0
18229 8 14 0
-18230 51 52 53 54 55 0
-51 18230 0
-52 18230 0
-53 18230 0
-54 18230 0
-55 18230 0
18230 50 56 0
-18231 142 143 144 145 146 0
-142 18231 0
-143 18231 0
-144 18231 0
-145 18231 0
-146 18231 0
18231 141 147 0
-18232 184 185 186 187 188 0
-184 18232 0
-185 18232 0
-186 18232 0
-187 18232 0
-188 18232 0
18232 183 189 0
-18233 226 227 228 229 230 0
-226 18233 0
-227 18233 0
-228 18233 0
-229 18233 0
-230 18233 0
18233 225 231 0
-18234 268 269 270 271 272 0
-268 18234 0
-269 18234 0
-270 18234 0
-271 18234 0
-272 18234 0
18234 267 273 0
-18235 310 311 312 313 314 0
-310 18235 0
-311 18235 0
-312 18235 0
-313 18235 0
-314 18235 0
18235 309 315 0
-18229 18236 0
-18237 0
-18238 0
-18239 0
-18240 0
-18230 18241 0
-18236 18241 0
-18230 -18236 18242 0
-18237 18242 0
-18230 -18237 18243 0
-18238 18243 0
-18230 -18238 18244 0
-18239 18244 0
-18230 -18239 18245 0
-18240 18245 0
-18230 -18240 0
-18231 18246 0
-18241 18246 0
-18231 -18241 18247 0
-18242 18247 0
-18231 -18242 18248 0
-18243 18248 0
-18231 -18243 18249 0
-18244 18249 0
-18231 -18244 18250 0
-18245 18250 0
-18231 -18245 0
-18232 18251 0
-18246 18251 0
-18232 -18246 18252 0
-18247 18252 0
-18232 -18247 18253 0
-18248 18253 0
-18232 -18248 18254 0
-18249 18254 0
-18232 -18249 18255 0
-18250 18255 0
-18232 -18250 0
-18233 18256 0
-18251 18256 0
-18233 -18251 18257 0
-18252 18257 0
-18233 -18252 18258 0
-18253 18258 0
-18233 -18253 18259 0
-18254 18259 0
-18233 -18254 18260 0
-18255 18260 0
-18233 -18255 0
-18234 18261 0
-18256 18261 0
-18234 -18256 18262 0
-18257 18262 0
-18234 -18257 18263 0
-18258 18263 0
-18234 -18258 18264 0
-18259 18264 0
-18234 -18259 18265 0
-18260 18265 0
-18234 -18260 0
-18235 -18265 0
-18271 9 10 11 12 13 14 0
-9 18271 0
-10 18271 0
-11 18271 0
-12 18271 0
-13 18271 0
-14 18271 0
18271 8 0
-18272 51 52 53 54 55 56 0
-51 18272 0
-52 18272 0
-53 18272 0
-54 18272 0
-55 18272 0
-56 18272 0
18272 50 0
-18273 142 143 144 145 146 147 0
-142 18273 0
-143 18273 0
-144 18273 0
-145 18273 0
-146 18273 0
-147 18273 0
18273 141 0
-18274 184 185 186 187 188 189 0
-184 18274 0
-185 18274 0
-186 18274 0
-187 18274 0
-188 18274 0
-189 18274 0
18274 183 0
-18275 226 227 228 229 230 231 0
-226 18275 0
-227 18275 0
-228 18275 0
-229 18275 0
-230 18275 0
-231 18275 0
18275 225 0
-18276 268 269 270 271 272 273 0
-268 18276 0
-269 18276 0
-270 18276 0
-271 18276 0
-272 18276 0
-273 18276 0
18276 267 0
-18277 310 311 312 313 314 315 0
-310 18277 0
-311 18277 0
-312 18277 0
-313 18277 0
-314 18277 0
-315 18277 0
18277 309 0
-18271 18278 0
-18279 0
-18280 0
-18281 0
-18282 0
-18283 0
-18272 18284 0
-18278 18284 0
-18272 -18278 18285 0
-18279 18285 0
-18272 -18279 18286 0
-18280 18286 0
-18272 -18280 18287 0
-18281 18287 0
-18272 -18281 18288 0
-18282 18288 0
-18272 -18282 18289 0
-18283 18289 0
-18272 -18283 0
-18273 18290 0
-18284 18290 0
-18273 -18284 18291 0
-18285 18291 0
-18273 -18285 18292 0
-18286 18292 0
-18273 -18286 18293 0
-18287 18293 0
-18273 -18287 18294 0
-18288 18294 0
-18273 -18288 18295 0
-18289 18295 0
-18273 -18289 0
-18274 18296 0
-18290 18296 0
-18274 -18290 18297 0
-18291 18297 0
-18274 -18291 18298 0
-18292 18298 0
-18274 -18292 18299 0
-18293 18299 0
-18274 -18293 18300 0
-18294 18300 0
-18274 -18294 18301 0
-18295 18301 0
-18274 -18295 0
-18275 18302 0
-18296 18302 0
-18275 -18296 18303 0
-18297 18303 0
-18275 -18297 18304 0
-18298 18304 0
-18275 -18298 18305 0
-18299 18305 0
-18275 -18299 18306 0
-18300 18306 0
-18275 -18300 18307 0
-18301 18307 0
-18275 -18301 0
-18276 18308 0
-18302 18308 0
-18276 -18302 18309 0
-18303 18309 0
-18276 -18303 18310 0
-18304 18310 0
-18276 -18304 18311 0
-18305 18311 0
-18276 -18305 18312 0
-18306 18312 0
-18276 -18306 18313 0
-18307 18313 0
-18276 -18307 0
-18277 -18313 0
-18320 10 0
-10 18320 0
18320 8 9 11 12 13 14 0
-18321 52 0
-52 18321 0
18321 50 51 53 54 55 56 0
-18322 143 0
-143 18322 0
18322 141 142 144 145 146 147 0
-18323 185 0
-185 18323 0
18323 183 184 186 187 188 189 0
-18324 227 0
-227 18324 0
18324 225 226 228 229 230 231 0
-18325 269 0
-269 18325 0
18325 267 268 270 271 272 273 0
-18326 311 0
-311 18326 0
18326 309 310 312 313 314 315 0
-18320 18327 0
-18321 18328 0
-18327 18328 0
-18321 -18327 0
-18322 18329 0
-18328 18329 0
-18322 -18328 0
-18323 18330 0
-18329 18330 0
-18323 -18329 0
-18324 18331 0
-18330 18331 0
-18324 -18330 0
-18325 18332 0
-18331 18332 0
-18325 -18331 0
-18326 -18332 0
-18334 10 11 0
-10 18334 0
-11 18334 0
18334 8 9 12 13 14 0
-18335 52 53 0
-52 18335 0
-53 18335 0
18335 50 51 54 55 56 0
-18336 143 144 0
-143 18336 0
-144 18336 0
18336 141 142 145 146 147 0
-18337 185 186 0
-185 18337 0
-186 18337 0
18337 183 184 187 188 189 0
-18338 227 228 0
-227 18338 0
-228 18338 0
18338 225 226 229 230 231 0
-18339 269 270 0
-269 18339 0
-270 18339 0
18339 267 268 271 272 273 0
-18340 311 312 0
-311 18340 0
-312 18340 0
18340 309 310 313 314 315 0
-18334 18341 0
-18342 0
-18335 18343 0
-18341 18343 0
-18335 -18341 18344 0
-18342 18344 0
-18335 -18342 0
-18336 18345 0
-18343 18345 0
-18336 -18343 18346 0
-18344 18346 0
-18336 -18344 0
-18337 18347 0
-18345 18347 0
-18337 -18345 18348 0
-18346 18348 0
-18337 -18346 0
-18338 18349 0
-18347 18349 0
-18338 -18347 18350 0
-18348 18350 0
-18338 -18348 0
-18339 18351 0
-18349 18351 0
-18339 -18349 18352 0
-18350 18352 0
-18339 -18350 0
-18340 -18352 0
-18355 10 11 12 0
-10 18355 0
-11 18355 0
-12 18355 0
18355 8 9 13 14 0
-18356 52 53 54 0
-52 18356 0
-53 18356 0
-54 18356 0
18356 50 51 55 56 0
-18357 143 144 145 0
-143 18357 0
-144 18357 0
-145 18357 0
18357 141 142 146 147 0
-18358 185 186 187 0
-185 18358 0
-186 18358 0
-187 18358 0
18358 183 184 188 189 0
-18359 227 228 229 0
-227 18359 0
-228 18359 0
-229 18359 0
18359 225 226 230 231 0
-18360 269 270 271 0
-269 18360 0
-270 18360 0
-271 18360 0
18360 267 268 272 273 0
-18361 311 312 313 0
-311 18361 0
-312 18361 0
-313 18361 0
18361 309 310 314 315 0
-18355 18362 0
-18363 0
-18364 0
-18356 18365 0
-18362 18365 0
-18356 -18362 18366 0
-18363 18366 0
-18356 -18363 18367 0
-18364 18367 0
-18356 -18364 0
-18357 18368 0
-18365 18368 0
-18357 -18365 18369 0
-18366 18369 0
-18357 -18366 18370 0
-18367 18370 0
-18357 -18367 0
-18358 18371 0
-18368 18371 0
-18358 -18368 18372 0
-18369 18372 0
-18358 -18369 18373 0
-18370 18373 0
-18358 -18370 0
-18359 18374 0
-18371 18374 0
-18359 -18371 18375 0
-18372 18375 0
-18359 -18372 18376 0
-18373 18376 0
-18359 -18373 0
-18360 18377 0
-18374 18377 0
-18360 -18374 18378 0
-18375 18378 0
-18360 -18375 18379 0
-18376 18379 0
-18360 -18376 0
-18361 -18379 0
-18383 10 11 12 13 0
-10 18383 0
-11 18383 0
-12 18383 0
-13 18383 0
18383 8 9 14 0
-18384 52 53 54 55 0
-52 18384 0
-53 18384 0
-54 18384 0
-55 18384 0
18384 50 51 56 0
-18385 143 144 145 146 0
-143 18385 0
-144 18385 0
-145 18385 0
-146 18385 0
18385 141 142 147 0
-18386 185 186 187 188 0
-185 18386 0
-186 18386 0
-187 18386 0
-188 18386 0
18386 183 184 189 0
-18387 227 228 229 230 0
-227 18387 0
-228 18387 0
-229 18387 0
-230 18387 0
18387 225 226 231 0
-18388 269 270 271 272 0
-269 18388 0
-270 18388 0
-271 18388 0
-272 18388 0
18388 267 268 273 0
-18389 311 312 313 314 0
-311 18389 0
-312 18389 0
-313 18389 0
-314 18389 0
18389 309 310 315 0
-18383 18390 0
-18391 0
-18392 0
-18393 0
-18384 18394 0
-18390 18394 0
-18384 -18390 18395 0
-18391 18395 0
-18384 -18391 18396 0
-18392 18396 0
-18384 -18392 18397 0
-18393 18397 0
-18384 -18393 0
-18385 18398 0
-18394 18398 0
-18385 -18394 18399 0
-18395 18399 0
-18385 -18395 18400 0
-18396 18400 0
-18385 -18396 18401 0
-18397 18401 0
-18385 -18397 0
-18386 18402 0
-18398 18402 0
-18386 -18398 18403 0
-18399 18403 0
-18386 -18399 18404 0
-18400 18404 0
-18386 -18400 18405 0
-18401 18405 0
-18386 -18401 0
-18387 18406 0
-18402 18406 0
-18387 -18402 18407 0
-18403 18407 0
-18387 -18403 18408 0
-18404 18408 0
-18387 -18404 18409 0
-18405 18409 0
-18387 -18405 0
-18388 18410 0
-18406 18410 0
-18388 -18406 18411 0
-18407 18411 0
-18388 -18407 18412 0
-18408 18412 0
-18388 -18408 18413 0
-18409 18413 0
-18388 -18409 0
-18389 -18413 0
-18418 10 11 12 13 14 0
-10 18418 0
-11 18418 0
-12 18418 0
-13 18418 0
-14 18418 0
18418 8 9 0
-18419 52 53 54 55 56 0
-52 18419 0
-53 18419 0
-54 18419 0
-55 18419 0
-56 18419 0
18419 50 51 0
-18420 143 144 145 146 147 0
-143 18420 0
-144 18420 0
-145 18420 0
-146 18420 0
-147 18420 0
18420 141 142 0
-18421 185 186 187 188 189 0
-185 18421 0
-186 18421 0
-187 18421 0
-188 18421 0
-189 18421 0
18421 183 184 0
-18422 227 228 229 230 231 0
-227 18422 0
-228 18422 0
-229 18422 0
-230 18422 0
-231 18422 0
18422 225 226 0
-18423 269 270 271 272 273 0
-269 18423 0
-270 18423 0
-271 18423 0
-272 18423 0
-273 18423 0
18423 267 268 0
-18424 311 312 313 314 315 0
-311 18424 0
-312 18424 0
-313 18424 0
-314 18424 0
-315 18424 0
18424 309 310 0
-18418 18425 0
-18426 0
-18427 0
-18428 0
-18429 0
-18419 18430 0
-18425 18430 0
-18419 -18425 18431 0
-18426 18431 0
-18419 -18426 18432 0
-18427 18432 0
-18419 -18427 18433 0
-18428 18433 0
-18419 -18428 18434 0
-18429 18434 0
-18419 -18429 0
-18420 18435 0
-18430 18435 0
-18420 -18430 18436 0
-18431 18436 0
-18420 -18431 18437 0
-18432 18437 0
-18420 -18432 18438 0
-18433 18438 0
-18420 -18433 18439 0
-18434 18439 0
-18420 -18434 0
-18421 18440 0
-18435 18440 0
-18421 -18435 18441 0
-18436 18441 0
-18421 -18436 18442 0
-18437 18442 0
-18421 -18437 18443 0
-18438 18443 0
-18421 -18438 18444 0
-18439 18444 0
-18421 -18439 0
-18422 18445 0
-18440 18445 0
-18422 -18440 18446 0
-18441 18446 0
-18422 -18441 18447 0
-18442 18447 0
-18422 -18442 18448 0
-18443 18448 0
-18422 -18443 18449 0
-18444 18449 0
-18422 -18444 0
-18423 18450 0
-18445 18450 0
-18423 -18445 18451 0
-18446 18451 0
-18423 -18446 18452 0
-18447 18452 0
-18423 -18447 18453 0
-18448 18453 0
-18423 -18448 18454 0
-18449 18454 0
-18423 -18449 0
-18424 -18454 0
-18460 11 0
-11 18460 0
18460 8 9 10 12 13 14 0
-18461 53 0
-53 18461 0
18461 50 51 52 54 55 56 0
-18462 144 0
-144 18462 0
18462 141 142 143 145 146 147 0
-18463 186 0
-186 18463 0
18463 183 184 185 187 188 189 0
-18464 228 0
-228 18464 0
18464 225 226 227 229 230 231 0
-18465 270 0
-270 18465 0
18465 267 268 269 271 272 273 0
-18466 312 0
-312 18466 0
18466 309 310 311 313 314 315 0
-18460 18467 0
-18461 18468 0
-18467 18468 0
-18461 -18467 0
-18462 18469 0
-18468 18469 0
-18462 -18468 0
-18463 18470 0
-18469 18470 0
-18463 -18469 0
-18464 18471 0
-18470 18471 0
-18464 -18470 0
-18465 18472 0
-18471 18472 0
-18465 -18471 0
-18466 -18472 0
-18474 11 12 0
-11 18474 0
-12 18474 0
18474 8 9 10 13 14 0
-18475 53 54 0
-53 18475 0
-54 18475 0
18475 50 51 52 55 56 0
-18476 144 145 0
-144 18476 0
-145 18476 0
18476 141 142 143 146 147 0
-18477 186 187 0
-186 18477 0
-187 18477 0
18477 183 184 185 188 189 0
-18478 228 229 0
-228 18478 0
-229 18478 0
18478 225 226 227 230 231 0
-18479 270 271 0
-270 18479 0
-271 18479 0
18479 267 268 269 272 273 0
-18480 312 313 0
-312 18480 0
-313 18480 0
18480 309 310 311 314 315 0
-18474 18481 0
-18482 0
-18475 18483 0
-18481 18483 0
-18475 -18481 18484 0
-18482 18484 0
-18475 -18482 0
-18476 18485 0
-18483 18485 0
-18476 -18483 18486 0
-18484 18486 0
-18476 -18484 0
-18477 18487 0
-18485 18487 0
-18477 -18485 18488 0
-18486 18488 0
-18477 -18486 0
-18478 18489 0
-18487 18489 0
-18478 -18487 18490 0
-18488 18490 0
-18478 -18488 0
-18479 18491 0
-18489 18491 0
-18479 -18489 18492 0
-18490 18492 0
-18479 -18490 0
-18480 -18492 0
-18495 11 12 13 0
-11 18495 0
-12 18495 0
-13 18495 0
18495 8 9 10 14 0
-18496 53 54 55 0
-53 18496 0
-54 18496 0
-55 18496 0
18496 50 51 52 56 0
-18497 144 145 146 0
-144 18497 0
-145 18497 0
-146 18497 0
18497 141 142 143 147 0
-18498 186 187 188 0
-186 18498 0
-187 18498 0
-188 18498 0
18498 183 184 185 189 0
-18499 228 229 230 0
-228 18499 0
-229 18499 0
-230 18499 0
18499 225 226 227 231 0
-18500 270 271 272 0
-270 18500 0
-271 18500 0
-272 18500 0
18500 267 268 269 273 0
-18501 312 313 314 0
-312 18501 0
-313 18501 0
-314 18501 0
18501 309 310 311 315 0
-18495 18502 0
-18503 0
-18504 0
-18496 18505 0
-18502 18505 0
-18496 -18502 18506 0
-18503 18506 0
-18496 -18503 18507 0
-18504 18507 0
-18496 -18504 0
-18497 18508 0
-18505 18508 0
-18497 -18505 18509 0
-18506 18509 0
-18497 -18506 18510 0
-18507 18510 0
-18497 -18507 0
-18498 18511 0
-18508 18511 0
-18498 -18508 18512 0
-18509 18512 0
-18498 -18509 18513 0
-18510 18513 0
-18498 -18510 0
-18499 18514 0
-18511 18514 0
-18499 -18511 18515 0
-18512 18515 0
-18499 -18512 18516 0
-18513 18516 0
-18499 -18513 0
-18500 18517 0
-18514 18517 0
-18500 -18514 18518 0
-18515 18518 0
-18500 -18515 18519 0
-18516 18519 0
-18500 -18516 0
-18501 -18519 0
-18523 11 12 13 14 0
-11 18523 0
-12 18523 0
-13 18523 0
-14 18523 0
18523 8 9 10 0
-18524 53 54 55 56 0
-53 18524 0
-54 18524 0
-55 18524 0
-56 18524 0
18524 50 51 52 0
-18525 144 145 146 147 0
-144 18525 0
-145 18525 0
-146 18525 0
-147 18525 0
18525 141 142 143 0
-18526 186 187 188 189 0
-186 18526 0
-187 18526 0
-188 18526 0
-189 18526 0
18526 183 184 185 0
-18527 228 229 230 231 0
-228 18527 0
-229 18527 0
-230 18527 0
-231 18527 0
18527 225 226 227 0
-18528 270 271 272 273 0
-270 18528 0
-271 18528 0
-272 18528 0
-273 18528 0
18528 267 268 269 0
-18529 312 313 314 315 0
-312 18529 0
-313 18529 0
-314 18529 0
-315 18529 0
18529 309 310 311 0
-18523 18530 0
-18531 0
-18532 0
-18533 0
-18524 18534 0
-18530 18534 0
-18524 -18530 18535 0
-18531 18535 0
-18524 -18531 18536 0
-18532 18536 0
-18524 -18532 18537 0
-18533 18537 0
-18524 -18533 0
-18525 18538 0
-18534 18538 0
-18525 -18534 18539 0
-18535 18539 0
-18525 -18535 18540 0
-18536 18540 0
-18525 -18536 18541 0
-18537 18541 0
-18525 -18537 0
-18526 18542 0
-18538 18542 0
-18526 -18538 18543 0
-18539 18543 0
-18526 -18539 18544 0
-18540 18544 0
-18526 -18540 18545 0
-18541 18545 0
-18526 -18541 0
-18527 18546 0
-18542 18546 0
-18527 -18542 18547 0
-18543 18547 0
-18527 -18543 18548 0
-18544 18548 0
-18527 -18544 18549 0
-18545 18549 0
-18527 -18545 0
-18528 18550 0
-18546 18550 0
-18528 -18546 18551 0
-18547 18551 0
-18528 -18547 18552 0
-18548 18552 0
-18528 -18548 18553 0
-18549 18553 0
-18528 -18549 0
-18529 -18553 0
-18558 12 0
-12 18558 0
18558 8 9 10 11 13 14 0
-18559 54 0
-54 18559 0
18559 50 51 52 53 55 56 0
-18560 145 0
-145 18560 0
18560 141 142 143 144 146 147 0
-18561 187 0
-187 18561 0
18561 183 184 185 186 188 189 0
-18562 229 0
-229 18562 0
18562 225 226 227 228 230 231 0
-18563 271 0
-271 18563 0
18563 267 268 269 270 272 273 0
-18564 313 0
-313 18564 0
18564 309 310 311 312 314 315 0
-18558 18565 0
-18559 18566 0
-18565 18566 0
-18559 -18565 0
-18560 18567 0
-18566 18567 0
-18560 -18566 0
-18561 18568 0
-18567 18568 0
-18561 -18567 0
-18562 18569 0
-18568 18569 0
-18562 -18568 0
-18563 18570 0
-18569 18570 0
-18563 -18569 0
-18564 -18570 0
-18572 12 13 0
-12 18572 0
-13 18572 0
18572 8 9 10 11 14 0
-18573 54 55 0
-54 18573 0
-55 18573 0
18573 50 51 52 53 56 0
-18574 145 146 0
-145 18574 0
-146 18574 0
18574 141 142 143 144 147 0
-18575 187 188 0
-187 18575 0
-188 18575 0
18575 183 184 185 186 189 0
-18576 229 230 0
-229 18576 0
-230 18576 0
18576 225 226 227 228 231 0
-18577 271 272 0
-271 18577 0
-272 18577 0
18577 267 268 269 270 273 0
-18578 313 314 0
-313 18578 0
-314 18578 0
18578 309 310 311 312 315 0
-18572 18579 0
-18580 0
-18573 18581 0
-18579 18581 0
-18573 -18579 18582 0
-18580 18582 0
-18573 -18580 0
-18574 18583 0
-18581 18583 0
-18574 -18581 18584 0
-18582 18584 0
-18574 -18582 0
-18575 18585 0
-18583 18585 0
-18575 -18583 18586 0
-18584 18586 0
-18575 -18584 0
-18576 18587 0
-18585 18587 0
-18576 -18585 18588 0
-18586 18588 0
-18576 -18586 0
-18577 18589 0
-18587 18589 0
-18577 -18587 18590 0
-18588 18590 0
-18577 -18588 0
-18578 -18590 0
-18593 12 13 14 0
-12 18593 0
-13 18593 0
-14 18593 0
18593 8 9 10 11 0
-18594 54 55 56 0
-54 18594 0
-55 18594 0
-56 18594 0
18594 50 51 52 53 0
-18595 145 146 147 0
-145 18595 0
-146 18595 0
-147 18595 0
18595 141 142 143 144 0
-18596 187 188 189 0
-187 18596 0
-188 18596 0
-189 18596 0
18596 183 184 185 186 0
-18597 229 230 231 0
-229 18597 0
-230 18597 0
-231 18597 0
18597 225 226 227 228 0
-18598 271 272 273 0
-271 18598 0
-272 18598 0
-273 18598 0
18598 267 268 269 270 0
-18599 313 314 315 0
-313 18599 0
-314 18599 0
-315 18599 0
18599 309 310 311 312 0
-18593 18600 0
-18601 0
-18602 0
-18594 18603 0
-18600 18603 0
-18594 -18600 18604 0
-18601 18604 0
-18594 -18601 18605 0
-18602 18605 0
-18594 -18602 0
-18595 18606 0
-18603 18606 0
-18595 -18603 18607 0
-18604 18607 0
-18595 -18604 18608 0
-18605 18608 0
-18595 -18605 0
-18596 18609 0
-18606 18609 0
-18596 -18606 18610 0
-18607 18610 0
-18596 -18607 18611 0
-18608 18611 0
-18596 -18608 0
-18597 18612 0
-18609 18612 0
-18597 -18609 18613 0
-18610 18613 0
-18597 -18610 18614 0
-18611 18614 0
-18597 -18611 0
-18598 18615 0
-18612 18615 0
-18598 -18612 18616 0
-18613 18616 0
-18598 -18613 18617 0
-18614 18617 0
-18598 -18614 0
-18599 -18617 0
-18621 13 0
-13 18621 0
18621 8 9 10 11 12 14 0
-18622 55 0
-55 18622 0
18622 50 51 52 53 54 56 0
-18623 146 0
-146 18623 0
18623 141 142 143 144 145 147 0
-18624 188 0
-188 18624 0
18624 183 184 185 186 187 189 0
-18625 230 0
-230 18625 0
18625 225 226 227 228 229 231 0
-18626 272 0
-272 18626 0
18626 267 268 269 270 271 273 0
-18627 314 0
-314 18627 0
18627 309 310 311 312 313 315 0
-18621 18628 0
-18622 18629 0
-18628 18629 0
-18622 -18628 0
-18623 18630 0
-18629 18630 0
-18623 -18629 0
-18624 18631 0
-18630 18631 0
-18624 -18630 0
-18625 18632 0
-18631 18632 0
-18625 -18631 0
-18626 18633 0
-18632 18633 0
-18626 -18632 0
-18627 -18633 0
-18635 13 14 0
-13 18635 0
-14 18635 0
18635 8 9 10 11 12 0
-18636 55 56 0
-55 18636 0
-56 18636 0
18636 50 51 52 53 54 0
-18637 146 147 0
-146 18637 0
-147 18637 0
18637 141 142 143 144 145 0
-18638 188 189 0
-188 18638 0
-189 18638 0
18638 183 184 185 186 187 0
-18639 230 231 0
-230 18639 0
-231 18639 0
18639 225 226 227 228 229 0
-18640 272 273 0
-272 18640 0
-273 18640 0
18640 267 268 269 270 271 0
-18641 314 315 0
-314 18641 0
-315 18641 0
18641 309 310 311 312 313 0
-18635 18642 0
-18643 0
-18636 18644 0
-18642 18644 0
-18636 -18642 18645 0
-18643 18645 0
-18636 -18643 0
-18637 18646 0
-18644 18646 0
-18637 -18644 18647 0
-18645 18647 0
-18637 -18645 0
-18638 18648 0
-18646 18648 0
-18638 -18646 18649 0
-18647 18649 0
-18638 -18647 0
-18639 18650 0
-18648 18650 0
-18639 -18648 18651 0
-18649 18651 0
-18639 -18649 0
-18640 18652 0
-18650 18652 0
-18640 -18650 18653 0
-18651 18653 0
-18640 -18651 0
-18641 -18653 0
-18656 14 0
-14 18656 0
18656 8 9 10 11 12 13 0
-18657 56 0
-56 18657 0
18657 50 51 52 53 54 55 0
-18658 147 0
-147 18658 0
18658 141 142 143 144 145 146 0
-18659 189 0
-189 18659 0
18659 183 184 185 186 187 188 0
-18660 231 0
-231 18660 0
18660 225 226 227 228 229 230 0
-18661 273 0
-273 18661 0
18661 267 268 269 270 271 272 0
-18662 315 0
-315 18662 0
18662 309 310 311 312 313 314 0
-18656 18663 0
-18657 18664 0
-18663 18664 0
-18657 -18663 0
-18658 18665 0
-18664 18665 0
-18658 -18664 0
-18659 18666 0
-18665 18666 0
-18659 -18665 0
-18660 18667 0
-18666 18667 0
-18660 -18666 0
-18661 18668 0
-18667 18668 0
-18661 -18667 0
-18662 -18668 0
-8 18670 0
-50 18671 0
-18670 18671 0
-50 -18670 0
-141 18672 0
-18671 18672 0
-141 -18671 0
-183 18673 0
-18672 18673 0
-183 -18672 0
-225 18674 0
-18673 18674 0
-225 -18673 0
-267 18675 0
-18674 18675 0
-267 -18674 0
-309 -18675 0
8 50 141 183 225 267 309 0
-9 18677 0
-51 18678 0
-18677 18678 0
-51 -18677 0
-142 18679 0
-18678 18679 0
-142 -18678 0
-184 18680 0
-18679 18680 0
-184 -18679 0
-226 18681 0
-18680 18681 0
-226 -18680 0
-268 18682 0
-18681 18682 0
-268 -18681 0
-310 -18682 0
9 51 142 184 226 268 310 0
-10 18684 0
-52 18685 0
-18684 18685 0
-52 -18684 0
-143 18686 0
-18685 18686 0
-143 -18685 0
-185 18687 0
-18686 18687 0
-185 -18686 0
-227 18688 0
-18687 18688 0
-227 -18687 0
-269 18689 0
-18688 18689 0
-269 -18688 0
-311 -18689 0
10 52 143 185 227 269 311 0
-11 18691 0
-53 18692 0
-18691 18692 0
-53 -18691 0
-144 18693 0
-18692 18693 0
-144 -18692 0
-186 18694 0
-18693 18694 0
-186 -18693 0
-228 18695 0
-18694 18695 0
-228 -18694 0
-270 18696 0
-18695 18696 0
-270 -18695 0
-312 -18696 0
11 53 144 186 228 270 312 0
-12 18698 0
-54 18699 0
-18698 18699 0
-54 -18698 0
-145 18700 0
-18699 18700 0
-145 -18699 0
-187 18701 0
-18700 18701 0
-187 -18700 0
-229 18702 0
-18701 18702 0
-229 -18701 0
-271 18703 0
-18702 18703 0
-271 -18702 0
-313 -18703 0
12 54 145 187 229 271 313 0
-13 18705 0
-55 18706 0
-18705 18706 0
-55 -18705 0
-146 18707 0
-18706 18707 0
-146 -18706 0
-188 18708 0
-18707 18708 0
-188 -18707 0
-230 18709 0
-18708 18709 0
-230 -18708 0
-272 18710 0
-18709 18710 0
-272 -18709 0
-314 -18710 0
13 55 146 188 230 272 314 0
-14 18712 0
-56 18713 0
-18712 18713 0
-56 -18712 0
-147 18714 0
-18713 18714 0
-147 -18713 0
-189 18715 0
-18714 18715 0
-189 -18714 0
-231 18716 0
-18715 18716 0
-231 -18715 0
-273 18717 0
-18716 18717 0
-273 -18716 0
-315 -18717 0
14 56 147 189 231 273 315 0
-18719 15 0
-15 18719 0
18719 16 17 18 19 20 21 0
-18720 57 0
-57 18720 0
18720 58 59 60 61 62 63 0
-18721 99 0
-99 18721 0
18721 100 101 102 103 104 105 0
-18722 190 0
-190 18722 0
18722 191 192 193 194 195 196 0
-18723 232 0
-232 18723 0
18723 233 234 235 236 237 238 0
-18724 274 0
-274 18724 0
18724 275 276 277 278 279 280 0
-18725 316 0
-316 18725 0
18725 317 318 319 320 321 322 0
-18719 18726 0
-18720 18727 0
-18726 18727 0
-18720 -18726 0
-18721 18728 0
-18727 18728 0
-18721 -18727 0
-18722 18729 0
-18728 18729 0
-18722 -18728 0
-18723 18730 0
-18729 18730 0
-18723 -18729 0
-18724 18731 0
-18730 18731 0
-18724 -18730 0
-18725 -18731 0
-18733 15 16 0
-15 18733 0
-16 18733 0
18733 17 18 19 20 21 0
-18734 57 58 0
-57 18734 0
-58 18734 0
18734 59 60 61 62 63 0
-18735 99 100 0
-99 18735 0
-100 18735 0
18735 101 102 103 104 105 0
-18736 190 191 0
-190 18736 0
-191 18736 0
18736 192 193 194 195 196 0
-18737 232 233 0
-232 18737 0
-233 18737 0
18737 234 235 236 237 238 0
-18738 274 275 0
-274 18738 0
-275 18738 0
18738 276 277 278 279 280 0
-18739 316 317 0
-316 18739 0
-317 18739 0
18739 318 319 320 321 322 0
-18733 18740 0
-18741 0
-18734 18742 0
-18740 18742 0
-18734 -18740 18743 0
-18741 18743 0
-18734 -18741 0
-18735 18744 0
-18742 18744 0
-18735 -18742 18745 0
-18743 18745 0
-18735 -18743 0
-18736 18746 0
-18744 18746 0
-18736 -18744 18747 0
-18745 18747 0
-18736 -18745 0
-18737 18748 0
-18746 18748 0
-18737 -18746 18749 0
-18747 18749 0
-18737 -18747 0
-18738 18750 0
-18748 18750 0
-18738 -18748 18751 0
-18749 18751 0
-18738 -18749 0
-18739 -18751 0
-18754 15 16 17 0
-15 18754 0
-16 18754 0
-17 18754 0
18754 18 19 20 21 0
-18755 57 58 59 0
-57 18755 0
-58 18755 0
-59 18755 0
18755 60 61 62 63 0
-18756 99 100 101 0
-99 18756 0
-100 18756 0
-101 18756 0
18756 102 103 104 105 0
-18757 190 191 192 0
-190 18757 0
-191 18757 0
-192 18757 0
18757 193 194 195 196 0
-18758 232 233 234 0
-232 18758 0
-233 18758 0
-234 18758 0
18758 235 236 237 238 0
-18759 274 275 276 0
-274 18759 0
-275 18759 0
-276 18759 0
18759 277 278 279 280 0
-18760 316 317 318 0
-316 18760 0
-317 18760 0
-318 18760 0
18760 319 320 321 322 0
-18754 18761 0
-18762 0
-18763 0
-18755 18764 0
-18761 18764 0
-18755 -18761 18765 0
-18762 18765 0
-18755 -18762 18766 0
-18763 18766 0
-18755 -18763 0
-18756 18767 0
-18764 18767 0
-18756 -18764 18768 0
-18765 18768 0
-18756 -18765 18769 0
-18766 18769 0
-18756 -18766 0
-18757 18770 0
-18767 18770 0
-18757 -18767 18771 0
-18768 18771 0
-18757 -18768 18772 0
-18769 18772 0
-18757 -18769 0
-18758 18773 0
-18770 18773 0
-18758 -18770 18774 0
-18771 18774 0
-18758 -18771 18775 0
-18772 18775 0
-18758 -18772 0
-18759 18776 0
-18773 18776 0
-18759 -18773 18777 0
-18774 18777 0
-18759 -18774 18778 0
-18775 18778 0
-18759 -18775 0
-18760 -18778 0
-18782 15 16 17 18 0
-15 18782 0
-16 18782 0
-17 18782 0
-18 18782 0
18782 19 20 21 0
-18783 57 58 59 60 0
-57 18783 0
-58 18783 0
-59 18783 0
-60 18783 0
18783 61 62 63 0
-18784 99 100 101 102 0
-99 18784 0
-100 18784 0
-101 18784 0
-102 18784 0
18784 103 104 105 0
-18785 190 191 192 193 0
-190 18785 0
-191 18785 0
-192 18785 0
-193 18785 0
18785 194 195 196 0
-18786 232 233 234 235 0
-232 18786 0
-233 18786 0
-234 18786 0
-235 18786 0
18786 236 237 238 0
-18787 274 275 276 277 0
-274 18787 0
-275 18787 0
-276 18787 0
-277 18787 0
18787 278 279 280 0
-18788 316 317 318 319 0
-316 18788 0
-317 18788 0
-318 18788 0
-319 18788 0
18788 320 321 322 0
-18782 18789 0
-18790 0
-18791 0
-18792 0
-18783 18793 0
-18789 18793 0
-18783 -18789 18794 0
-18790 18794 0
-18783 -18790 18795 0
-18791 18795 0
-18783 -18791 18796 0
-18792 18796 0
-18783 -18792 0
-18784 18797 0
-18793 18797 0
-18784 -18793 18798 0
-18794 18798 0
-18784 -18794 18799 0
-18795 18799 0
-18784 -18795 18800 0
-18796 18800 0
-18784 -18796 0
-18785 18801 0
-18797 18801 0
-18785 -18797 18802 0
-18798 18802 0
-18785 -18798 18803 0
-18799 18803 0
-18785 -18799 18804 0
-18800 18804 0
-18785 -18800 0
-18786 18805 0
-18801 18805 0
-18786 -18801 18806 0
-18802 18806 0
-18786 -18802 18807 0
-18803 18807 0
-18786 -18803 18808 0
-18804 18808 0
-18786 -18804 0
-18787 18809 0
-18805 18809 0
-18787 -18805 18810 0
-18806 18810 0
-18787 -18806 18811 0
-18807 18811 0
-18787 -18807 18812 0
-18808 18812 0
-18787 -18808 0
-18788 -18812 0
-18817 15 16 17 18 19 0
-15 18817 0
-16 18817 0
-17 18817 0
-18 18817 0
-19 18817 0
18817 20 21 0
-18818 57 58 59 60 61 0
-57 18818 0
-58 18818 0
-59 18818 0
-60 18818 0
-61 18818 0
18818 62 63 0
-18819 99 100 101 102 103 0
-99 18819 0
-100 18819 0
-101 18819 0
-102 18819 0
-103 18819 0
18819 104 105 0
-18820 190 191 192 193 194 0
-190 18820 0
-191 18820 0
-192 18820 0
-193 18820 0
-194 18820 0
18820 195 196 0
-18821 232 233 234 235 236 0
-232 18821 0
-233 18821 0
-234 18821 0
-235 18821 0
-236 18821 0
18821 237 238 0
-18822 274 275 276 277 278 0
-274 18822 0
-275 18822 0
-276 18822 0
-277 18822 0
-278 18822 0
18822 279 280 0
-18823 316 317 318 319 320 0
-316 18823 0
-317 18823 0
-318 18823 0
-319 18823 0
-320 18823 0
18823 321 322 0
-18817 18824 0
-18825 0
-18826 0
-18827 0
-18828 0
-18818 18829 0
-18824 18829 0
-18818 -18824 18830 0
-18825 18830 0
-18818 -18825 18831 0
-18826 18831 0
-18818 -18826 18832 0
-18827 18832 0
-18818 -18827 18833 0
-18828 18833 0
-18818 -18828 0
-18819 18834 0
-18829 18834 0
-18819 -18829 18835 0
-18830 18835 0
-18819 -18830 18836 0
-18831 18836 0
-18819 -18831 18837 0
-18832 18837 0
-18819 -18832 18838 0
-18833 18838 0
-18819 -18833 0
-18820 18839 0
-18834 18839 0
-18820 -18834 18840 0
-18835 18840 0
-18820 -18835 18841 0
-18836 18841 0
-18820 -18836 18842 0
-18837 18842 0
-18820 -18837 18843 0
-18838 18843 0
-18820 -18838 0
-18821 18844 0
-18839 18844 0
-18821 -18839 18845 0
-18840 18845 0
-18821 -18840 18846 0
-18841 18846 0
-18821 -18841 18847 0
-18842 18847 0
-18821 -18842 18848 0
-18843 18848 0
-18821 -18843 0
-18822 18849 0
-18844 18849 0
-18822 -18844 18850 0
-18845 18850 0
-18822 -18845 18851 0
-18846 18851 0
-18822 -18846 18852 0
-18847 18852 0
-18822 -18847 18853 0
-18848 18853 0
-18822 -18848 0
-18823 -18853 0
-18859 15 16 17 18 19 20 0
-15 18859 0
-16 18859 0
-17 18859 0
-18 18859 0
-19 18859 0
-20 18859 0
18859 21 0
-18860 57 58 59 60 61 62 0
-57 18860 0
-58 18860 0
-59 18860 0
-60 18860 0
-61 18860 0
-62 18860 0
18860 63 0
-18861 99 100 101 102 103 104 0
-99 18861 0
-100 18861 0
-101 18861 0
-102 18861 0
-103 18861 0
-104 18861 0
18861 105 0
-18862 190 191 192 193 194 195 0
-190 18862 0
-191 18862 0
-192 18862 0
-193 18862 0
-194 18862 0
-195 18862 0
18862 196 0
-18863 232 233 234 235 236 237 0
-232 18863 0
-233 18863 0
-234 18863 0
-235 18863 0
-236 18863 0
-237 18863 0
18863 238 0
-18864 274 275 276 277 278 279 0
-274 18864 0
-275 18864 0
-276 18864 0
-277 18864 0
-278 18864 0
-279 18864 0
18864 280 0
-18865 316 317 318 319 320 321 0
-316 18865 0
-317 18865 0
-318 18865 0
-319 18865 0
-320 18865 0
-321 18865 0
18865 322 0
-18859 18866 0
-18867 0
-18868 0
-18869 0
-18870 0
-18871 0
-18860 18872 0
-18866 18872 0
-18860 -18866 18873 0
-18867 18873 0
-18860 -18867 18874 0
-18868 18874 0
-18860 -18868 18875 0
-18869 18875 0
-18860 -18869 18876 0
-18870 18876 0
-18860 -18870 18877 0
-18871 18877 0
-18860 -18871 0
-18861 18878 0
-18872 18878 0
-18861 -18872 18879 0
-18873 18879 0
-18861 -18873 18880 0
-18874 18880 0
-18861 -18874 18881 0
-18875 18881 0
-18861 -18875 18882 0
-18876 18882 0
-18861 -18876 18883 0
-18877 18883 0
-18861 -18877 0
-18862 18884 0
-18878 18884 0
-18862 -18878 18885 0
-18879 18885 0
-18862 -18879 18886 0
-18880 18886 0
-18862 -18880 18887 0
-18881 18887 0
-18862 -18881 18888 0
-18882 18888 0
-18862 -18882 18889 0
-18883 18889 0
-18862 -18883 0
-18863 18890 0
-18884 18890 0
-18863 -18884 18891 0
-18885 18891 0
-18863 -18885 18892 0
-18886 18892 0
-18863 -18886 18893 0
-18887 18893 0
-18863 -18887 18894 0
-18888 18894 0
-18863 -18888 18895 0
-18889 18895 0
-18863 -18889 0
-18864 18896 0
-18890 18896 0
-18864 -18890 18897 0
-18891 18897 0
-18864 -18891 18898 0
-18892 18898 0
-18864 -18892 18899 0
-18893 18899 0
-18864 -18893 18900 0
-18894 18900 0
-18864 -18894 18901 0
-18895 18901 0
-18864 -18895 0
-18865 -18901 0
-18908 15 16 17 18 19 20 21 0
-15 18908 0
-16 18908 0
-17 18908 0
-18 18908 0
-19 18908 0
-20 18908 0
-21 18908 0
18908 0
-18909 57 58 59 60 61 62 63 0
-57 18909 0
-58 18909 0
-59 18909 0
-60 18909 0
-61 18909 0
-62 18909 0
-63 18909 0
18909 0
-18910 99 100 101 102 103 104 105 0
-99 18910 0
-100 18910 0
-101 18910 0
-102 18910 0
-103 18910 0
-104 18910 0
-105 18910 0
18910 0
-18911 190 191 192 193 194 195 196 0
-190 18911 0
-191 18911 0
-192 18911 0
-193 18911 0
-194 18911 0
-195 18911 0
-196 18911 0
18911 0
-18912 232 233 234 235 236 237 238 0
-232 18912 0
-233 18912 0
-234 18912 0
-235 18912 0
-236 18912 0
-237 18912 0
-238 18912 0
18912 0
-18913 274 275 276 277 278 279 280 0
-274 18913 0
-275 18913 0
-276 18913 0
-277 18913 0
-278 18913 0
-279 18913 0
-280 18913 0
18913 0
-18914 316 317 318 319 320 321 322 0
-316 18914 0
-317 18914 0
-318 18914 0
-319 18914 0
-320 18914 0
-321 18914 0
-322 18914 0
18914 0
-18915 16 0
-16 18915 0
18915 15 17 18 19 20 21 0
-18916 58 0
-58 18916 0
18916 57 59 60 61 62 63 0
-18917 100 0
-100 18917 0
18917 99 101 102 103 104 105 0
-18918 191 0
-191 18918 0
18918 190 192 193 194 195 196 0
-18919 233 0
-233 18919 0
18919 232 234 235 236 237 238 0
-18920 275 0
-275 18920 0
18920 274 276 277 278 279 280 0
-18921 317 0
-317 18921 0
18921 316 318 319 320 321 322 0
-18915 18922 0
-18916 18923 0
-18922 18923 0
-18916 -18922 0
-18917 18924 0
-18923 18924 0
-18917 -18923 0
-18918 18925 0
-18924 18925 0
-18918 -18924 0
-18919 18926 0
-18925 18926 0
-18919 -18925 0
-18920 18927 0
-18926 18927 0
-18920 -18926 0
-18921 -18927 0
-18929 16 17 0
-16 18929 0
-17 18929 0
18929 15 18 19 20 21 0
-18930 58 59 0
-58 18930 0
-59 18930 0
18930 57 60 61 62 63 0
-18931 100 101 0
-100 18931 0
-101 18931 0
18931 99 102 103 104 105 0
-18932 191 192 0
-191 18932 0
-192 18932 0
18932 190 193 194 195 196 0
-18933 233 234 0
-233 18933 0
-234 18933 0
18933 232 235 236 237 238 0
-18934 275 276 0
-275 18934 0
-276 18934 0
18934 274 277 278 279 280 0
-18935 317 318 0
-317 18935 0
-318 18935 0
18935 316 319 320 321 322 0
-18929 18936 0
-18937 0
-18930 18938 0
-18936 18938 0
-18930 -18936 18939 0
-18937 18939 0
-18930 -18937 0
-18931 18940 0
-18938 18940 0
-18931 -18938 18941 0
-18939 18941 0
-18931 -18939 0
-18932 18942 0
-18940 18942 0
-18932 -18940 18943 0
-18941 18943 0
-18932 -18941 0
-18933 18944 0
-18942 18944 0
-18933 -18942 18945 0
-18943 18945 0
-18933 -18943 0
-18934 18946 0
-18944 18946 0
-18934 -18944 18947 0
-18945 18947 0
-18934 -18945 0
-18935 -18947 0
-18950 16 17 18 0
-16 18950 0
-17 18950 0
-18 18950 0
18950 15 19 20 21 0
-18951 58 59 60 0
-58 18951 0
-59 18951 0
-60 18951 0
18951 57 61 62 63 0
-18952 100 101 102 0
-100 18952 0
-101 18952 0
-102 18952 0
18952 99 103 104 105 0
-18953 191 192 193 0
-191 18953 0
-192 18953 0
-193 18953 0
18953 190 194 195 196 0
-18954 233 234 235 0
-233 18954 0
-234 18954 0
-235 18954 0
18954 232 236 237 238 0
-18955 275 276 277 0
-275 18955 0
-276 18955 0
-277 18955 0
18955 274 278 279 280 0
-18956 317 318 319 0
-317 18956 0
-318 18956 0
-319 18956 0
18956 316 320 321 322 0
-18950 18957 0
-18958 0
-18959 0
-18951 18960 0
-18957 18960 0
-18951 -18957 18961 0
-18958 18961 0
-18951 -18958 18962 0
-18959 18962 0
-18951 -18959 0
-18952 18963 0
-18960 18963 0
-18952 -18960 18964 0
-18961 18964 0
-18952 -18961 18965 0
-18962 18965 0
-18952 -18962 0
-18953 18966 0
-18963 18966 0
-18953 -18963 18967 0
-18964 18967 0
-18953 -18964 18968 0
-18965 18968 0
-18953 -18965 0
-18954 18969 0
-18966 18969 0
-18954 -18966 18970 0
-18967 18970 0
-18954 -18967 18971 0
-18968 18971 0
-18954 -18968 0
-18955 18972 0
-18969 18972 0
-18955 -18969 18973 0
-18970 18973 0
-18955 -18970 18974 0
-18971 18974 0
-18955 -18971 0
-18956 -18974 0
-18978 16 17 18 19 0
-16 18978 0
-17 18978 0
-18 18978 0
-19 18978 0
18978 15 20 21 0
-18979 58 59 60 61 0
-58 18979 0
-59 18979 0
-60 18979 0
-61 18979 0
18979 57 62 63 0
-18980 100 101 102 103 0
-100 18980 0
-101 18980 0
-102 18980 0
-103 18980 0
18980 99 104 105 0
-18981 191 192 193 194 0
-191 18981 0
-192 18981 0
-193 18981 0
-194 18981 0
18981 190 195 196 0
-18982 233 234 235 236 0
-233 18982 0
-234 18982 0
-235 18982 0
-236 18982 0
18982 232 237 238 0
-18983 275 276 277 278 0
-275 18983 0
-276 18983 0
-277 18983 0
-278 18983 0
18983 274 279 280 0
-18984 317 318 319 320 0
-317 18984 0
-318 18984 0
-319 18984 0
-320 18984 0
18984 316 321 322 0
-18978 18985 0
-18986 0
-18987 0
-18988 0
-18979 18989 0
-18985 18989 0
-18979 -18985 18990 0
-18986 18990 0
-18979 -18986 18991 0
-18987 18991 0
-18979 -18987 18992 0
-18988 18992 0
-18979 -18988 0
-18980 18993 0
-18989 18993 0
-18980 -18989 18994 0
-18990 18994 0
-18980 -18990 18995 0
-18991 18995 0
-18980 -18991 18996 0
-18992 18996 0
-18980 -18992 0
-18981 18997 0
-18993 18997 0
-18981 -18993 18998 0
-18994 18998 0
-18981 -18994 18999 0
-18995 18999 0
-18981 -18995 19000 0
-18996 19000 0
-18981 -18996 0
-18982 19001 0
-18997 19001 0
-18982 -18997 19002 0
-18998 19002 0
-18982 -18998 19003 0
-18999 19003 0
-18982 -18999 19004 0
-19000 19004 0
-18982 -19000 0
-18983 19005 0
-19001 19005 0
-18983 -19001 19006 0
-19002 19006 0
-18983 -19002 19007 0
-19003 19007 0
-18983 -19003 19008 0
-19004 19008 0
-18983 -19004 0
-18984 -19008 0
-19013 16 17 18 19 20 0
-16 19013 0
-17 19013 0
-18 19013 0
-19 19013 0
-20 19013 0
19013 15 21 0
-19014 58 59 60 61 62 0
-58 19014 0
-59 19014 0
-60 19014 0
-61 19014 0
-62 19014 0
19014 57 63 0
-19015 100 101 102 103 104 0
-100 19015 0
-101 19015 0
-102 19015 0
-103 19015 0
-104 19015 0
19015 99 105 0
-19016 191 192 193 194 195 0
-191 19016 0
-192 19016 0
-193 19016 0
-194 19016 0
-195 19016 0
19016 190 196 0
-19017 233 234 235 236 237 0
-233 19017 0
-234 19017 0
-235 19017 0
-236 19017 0
-237 19017 0
19017 232 238 0
-19018 275 276 277 278 279 0
-275 19018 0
-276 19018 0
-277 19018 0
-278 19018 0
-279 19018 0
19018 274 280 0
-19019 317 318 319 320 321 0
-317 19019 0
-318 19019 0
-319 19019 0
-320 19019 0
-321 19019 0
19019 316 322 0
-19013 19020 0
-19021 0
-19022 0
-19023 0
-19024 0
-19014 19025 0
-19020 19025 0
-19014 -19020 19026 0
-19021 19026 0
-19014 -19021 19027 0
-19022 19027 0
-19014 -19022 19028 0
-19023 19028 0
-19014 -19023 19029 0
-19024 19029 0
-19014 -19024 0
-19015 19030 0
-19025 19030 0
-19015 -19025 19031 0
-19026 19031 0
-19015 -19026 19032 0
-19027 19032 0
-19015 -19027 19033 0
-19028 19033 0
-19015 -19028 19034 0
-19029 19034 0
-19015 -19029 0
-19016 19035 0
-19030 19035 0
-19016 -19030 19036 0
-19031 19036 0
-19016 -19031 19037 0
-19032 19037 0
-19016 -19032 19038 0
-19033 19038 0
-19016 -19033 19039 0
-19034 19039 0
-19016 -19034 0
-19017 19040 0
-19035 19040 0
-19017 -19035 19041 0
-19036 19041 0
-19017 -19036 19042 0
-19037 19042 0
-19017 -19037 19043 0
-19038 19043 0
-19017 -19038 19044 0
-19039 19044 0
-19017 -19039 0
-19018 19045 0
-19040 19045 0
-19018 -19040 19046 0
-19041 19046 0
-19018 -19041 19047 0
-19042 19047 0
-19018 -19042 19048 0
-19043 19048 0
-19018 -19043 19049 0
-19044 19049 0
-19018 -19044 0
-19019 -19049 0
-19055 16 17 18 19 20 21 0
-16 19055 0
-17 19055 0
-18 19055 0
-19 19055 0
-20 19055 0
-21 19055 0
19055 15 0
-19056 58 59 60 61 62 63 0
-58 19056 0
-59 19056 0
-60 19056 0
-61 19056 0
-62 19056 0
-63 19056 0
19056 57 0
-19057 100 101 102 103 104 105 0
-100 19057 0
-101 19057 0
-102 19057 0
-103 19057 0
-104 19057 0
-105 19057 0
19057 99 0
-19058 191 192 193 194 195 196 0
-191 19058 0
-192 19058 0
-193 19058 0
-194 19058 0
-195 19058 0
-196 19058 0
19058 190 0
-19059 233 234 235 236 237 238 0
-233 19059 0
-234 19059 0
-235 19059 0
-236 19059 0
-237 19059 0
-238 19059 0
19059 232 0
-19060 275 276 277 278 279 280 0
-275 19060 0
-276 19060 0
-277 19060 0
-278 19060 0
-279 19060 0
-280 19060 0
19060 274 0
-19061 317 318 319 320 321 322 0
-317 19061 0
-318 19061 0
-319 19061 0
-320 19061 0
-321 19061 0
-322 19061 0
19061 316 0
-19055 19062 0
-19063 0
-19064 0
-19065 0
-19066 0
-19067 0
-19056 19068 0
-19062 19068 0
-19056 -19062 19069 0
-19063 19069 0
-19056 -19063 19070 0
-19064 19070 0
-19056 -19064 19071 0
-19065 19071 0
-19056 -19065 19072 0
-19066 19072 0
-19056 -19066 19073 0
-19067 19073 0
-19056 -19067 0
-19057 19074 0
-19068 19074 0
-19057 -19068 19075 0
-19069 19075 0
-19057 -19069 19076 0
-19070 19076 0
-19057 -19070 19077 0
-19071 19077 0
-19057 -19071 19078 0
-19072 19078 0
-19057 -19072 19079 0
-19073 19079 0
-19057 -19073 0
-19058 19080 0
-19074 19080 0
-19058 -19074 19081 0
-19075 19081 0
-19058 -19075 19082 0
-19076 19082 0
-19058 -19076 19083 0
-19077 19083 0
-19058 -19077 19084 0
-19078 19084 0
-19058 -19078 19085 0
-19079 19085 0
-19058 -19079 0
-19059 19086 0
-19080 19086 0
-19059 -19080 19087 0
-19081 19087 0
-19059 -19081 19088 0
-19082 19088 0
-19059 -19082 19089 0
-19083 19089 0
-19059 -19083 19090 0
-19084 19090 0
-19059 -19084 19091 0
-19085 19091 0
-19059 -19085 0
-19060 19092 0
-19086 19092 0
-19060 -19086 19093 0
-19087 19093 0
-19060 -19087 19094 0
-19088 19094 0
-19060 -19088 19095 0
-19089 19095 0
-19060 -19089 19096 0
-19090 19096 0
-19060 -19090 19097 0
-19091 19097 0
-19060 -19091 0
-19061 -19097 0
-19104 17 0
-17 19104 0
19104 15 16 18 19 20 21 0
-19105 59 0
-59 19105 0
19105 57 58 60 61 62 63 0
-19106 101 0
-101 19106 0
19106 99 100 102 103 104 105 0
-19107 192 0
-192 19107 0
19107 190 191 193 194 195 196 0
-19108 234 0
-234 19108 0
19108 232 233 235 236 237 238 0
-19109 276 0
-276 19109 0
19109 274 275 277 278 279 280 0
-19110 318 0
-318 19110 0
19110 316 317 319 320 321 322 0
-19104 19111 0
-19105 19112 0
-19111 19112 0
-19105 -19111 0
-19106 19113 0
-19112 19113 0
-19106 -19112 0
-19107 19114 0
-19113 19114 0
-19107 -19113 0
-19108 19115 0
-19114 19115 0
-19108 -19114 0
-19109 19116 0
-19115 19116 0
-19109 -19115 0
-19110 -19116 0
-19118 17 18 0
-17 19118 0
-18 19118 0
19118 15 16 19 20 21 0
-19119 59 60 0
-59 19119 0
-60 19119 0
19119 57 58 61 62 63 0
-19120 101 102 0
-101 19120 0
-102 19120 0
19120 99 100 103 104 105 0
-19121 192 193 0
-192 19121 0
-193 19121 0
19121 190 191 194 195 196 0
-19122 234 235 0
-234 19122 0
-235 19122 0
19122 232 233 236 237 238 0
-19123 276 277 0
-276 19123 0
-277 19123 0
19123 274 275 278 279 280 0
-19124 318 319 0
-318 19124 0
-319 19124 0
19124 316 317 320 321 322 0
-19118 19125 0
-19126 0
-19119 19127 0
-19125 19127 0
-19119 -19125 19128 0
-19126 19128 0
-19119 -19126 0
-19120 19129 0
-19127 19129 0
-19120 -19127 19130 0
-19128 19130 0
-19120 -19128 0
-19121 19131 0
-19129 19131 0
-19121 -19129 19132 0
-19130 19132 0
-19121 -19130 0
-19122 19133 0
-19131 19133 0
-19122 -19131 19134 0
-19132 19134 0
-19122 -19132 0
-19123 19135 0
-19133 19135 0
-19123 -19133 19136 0
-19134 19136 0
-19123 -19134 0
-19124 -19136 0
-19139 17 18 19 0
-17 19139 0
-18 19139 0
-19 19139 0
19139 15 16 20 21 0
-19140 59 60 61 0
-59 19140 0
-60 19140 0
-61 19140 0
19140 57 58 62 63 0
-19141 101 102 103 0
-101 19141 0
-102 19141 0
-103 19141 0
19141 99 100 104 105 0
-19142 192 193 194 0
-192 19142 0
-193 19142 0
-194 19142 0
19142 190 191 195 196 0
-19143 234 235 236 0
-234 19143 0
-235 19143 0
-236 19143 0
19143 232 233 237 238 0
-19144 276 277 278 0
-276 19144 0
-277 19144 0
-278 19144 0
19144 274 275 279 280 0
-19145 318 319 320 0
-318 19145 0
-319 19145 0
-320 19145 0
19145 316 317 321 322 0
-19139 19146 0
-19147 0
-19148 0
-19140 19149 0
-19146 19149 0
-19140 -19146 19150 0
-19147 19150 0
-19140 -19147 19151 0
-19148 19151 0
-19140 -19148 0
-19141 19152 0
-19149 19152 0
-19141 -19149 19153 0
-19150 19153 0
-19141 -19150 19154 0
-19151 19154 0
-19141 -19151 0
-19142 19155 0
-19152 19155 0
-19142 -19152 19156 0
-19153 19156 0
-19142 -19153 19157 0
-19154 19157 0
-19142 -19154 0
-19143 19158 0
-19155 19158 0
-19143 -19155 19159 0
-19156 19159 0
-19143 -19156 19160 0
-19157 19160 0
-19143 -19157 0
-19144 19161 0
-19158 19161 0
-19144 -19158 19162 0
-19159 19162 0
-19144 -19159 19163 0
-19160 19163 0
-19144 -19160 0
-19145 -19163 0
-19167 17 18 19 20 0
-17 19167 0
-18 19167 0
-19 19167 0
-20 19167 0
19167 15 16 21 0
-19168 59 60 61 62 0
-59 19168 0
-60 19168 0
-61 19168 0
-62 19168 0
19168 57 58 63 0
-19169 101 102 103 104 0
-101 19169 0
-102 19169 0
-103 19169 0
-104 19169 0
19169 99 100 105 0
-19170 192 193 194 195 0
-192 19170 0
-193 19170 0
-194 19170 0
-195 19170 0
19170 190 191 196 0
-19171 234 235 236 237 0
-234 19171 0
-235 19171 0
-236 19171 0
-237 19171 0
19171 232 233 238 0
-19172 276 277 278 279 0
-276 19172 0
-277 19172 0
-278 19172 0
-279 19172 0
19172 274 275 280 0
-19173 318 319 320 321 0
-318 19173 0
-319 19173 0
-320 19173 0
-321 19173 0
19173 316 317 322 0
-19167 19174 0
-19175 0
-19176 0
-19177 0
-19168 19178 0
-19174 19178 0
-19168 -19174 19179 0
-19175 19179 0
-19168 -19175 19180 0
-19176 19180 0
-19168 -19176 19181 0
-19177 19181 0
-19168 -19177 0
-19169 19182 0
-19178 19182 0
-19169 -19178 19183 0
-19179 19183 0
-19169 -19179 19184 0
-19180 19184 0
-19169 -19180 19185 0
-19181 19185 0
-19169 -19181 0
-19170 19186 0
-19182 19186 0
-19170 -19182 19187 0
-19183 19187 0
-19170 -19183 19188 0
-19184 19188 0
-19170 -19184 19189 0
-19185 19189 0
-19170 -19185 0
-19171 19190 0
-19186 19190 0
-19171 -19186 19191 0
-19187 19191 0
-19171 -19187 19192 0
-19188 19192 0
-19171 -19188 19193 0
-19189 19193 0
-19171 -19189 0
-19172 19194 0
-19190 19194 0
-19172 -19190 19195 0
-19191 19195 0
-19172 -19191 19196 0
-19192 19196 0
-19172 -19192 19197 0
-19193 19197 0
-19172 -19193 0
-19173 -19197 0
-19202 17 18 19 20 21 0
-17 19202 0
-18 19202 0
-19 19202 0
-20 19202 0
-21 19202 0
19202 15 16 0
-19203 59 60 61 62 63 0
-59 19203 0
-60 19203 0
-61 19203 0
-62 19203 0
-63 19203 0
19203 57 58 0
-19204 101 102 103 104 105 0
-101 19204 0
-102 19204 0
-103 19204 0
-104 19204 0
-105 19204 0
19204 99 100 0
-19205 192 193 194 195 196 0
-192 19205 0
-193 19205 0
-194 19205 0
-195 19205 0
-196 19205 0
19205 190 191 0
-19206 234 235 236 237 238 0
-234 19206 0
-235 19206 0
-236 19206 0
-237 19206 0
-238 19206 0
19206 232 233 0
-19207 276 277 278 279 280 0
-276 19207 0
-277 19207 0
-278 19207 0
-279 19207 0
-280 19207 0
19207 274 275 0
-19208 318 319 320 321 322 0
-318 19208 0
-319 19208 0
-320 19208 0
-321 19208 0
-322 19208 0
19208 316 317 0
-19202 19209 0
-19210 0
-19211 0
-19212 0
-19213 0
-19203 19214 0
-19209 19214 0
-19203 -19209 19215 0
-19210 19215 0
-19203 -19210 19216 0
-19211 19216 0
-19203 -19211 19217 0
-19212 19217 0
-19203 -19212 19218 0
-19213 19218 0
-19203 -19213 0
-19204 19219 0
-19214 19219 0
-19204 -19214 19220 0
-19215 19220 0
-19204 -19215 19221 0
-19216 19221 0
-19204 -19216 19222 0
-19217 19222 0
-19204 -19217 19223 0
-19218 19223 0
-19204 -19218 0
-19205 19224 0
-19219 19224 0
-19205 -19219 19225 0
-19220 19225 0
-19205 -19220 19226 0
-19221 19226 0
-19205 -19221 19227 0
-19222 19227 0
-19205 -19222 19228 0
-19223 19228 0
-19205 -19223 0
-19206 19229 0
-19224 19229 0
-19206 -19224 19230 0
-19225 19230 0
-19206 -19225 19231 0
-19226 19231 0
-19206 -19226 19232 0
-19227 19232 0
-19206 -19227 19233 0
-19228 19233 0
-19206 -19228 0
-19207 19234 0
-19229 19234 0
-19207 -19229 19235 0
-19230 19235 0
-19207 -19230 19236 0
-19231 19236 0
-19207 -19231 19237 0
-19232 19237 0
-19207 -19232 19238 0
-19233 19238 0
-19207 -19233 0
-19208 -19238 0
-19244 18 0
-18 19244 0
19244 15 16 17 19 20 21 0
-19245 60 0
-60 19245 0
19245 57 58 59 61 62 63 0
-19246 102 0
-102 19246 0
19246 99 100 101 103 104 105 0
-19247 193 0
-193 19247 0
19247 190 191 192 194 195 196 0
-19248 235 0
-235 19248 0
19248 232 233 234 236 237 238 0
-19249 277 0
-277 19249 0
19249 274 275 276 278 279 280 0
-19250 319 0
-319 19250 0
19250 316 317 318 320 321 322 0
-19244 19251 0
-19245 19252 0
-19251 19252 0
-19245 -19251 0
-19246 19253 0
-19252 19253 0
-19246 -19252 0
-19247 19254 0
-19253 19254 0
-19247 -19253 0
-19248 19255 0
-19254 19255 0
-19248 -19254 0
-19249 19256 0
-19255 19256 0
-19249 -19255 0
-19250 -19256 0
-19258 18 19 0
-18 19258 0
-19 19258 0
19258 15 16 17 20 21 0
-19259 60 61 0
-60 19259 0
-61 19259 0
19259 57 58 59 62 63 0
-19260 102 103 0
-102 19260 0
-103 19260 0
19260 99 100 101 104 105 0
-19261 193 194 0
-193 19261 0
-194 19261 0
19261 190 191 192 195 196 0
-19262 235 236 0
-235 19262 0
-236 19262 0
19262 232 233 234 237 238 0
-19263 277 278 0
-277 19263 0
-278 19263 0
19263 274 275 276 279 280 0
-19264 319 320 0
-319 19264 0
-320 19264 0
19264 316 317 318 321 322 0
-19258 19265 0
-19266 0
-19259 19267 0
-19265 19267 0
-19259 -19265 19268 0
-19266 19268 0
-19259 -19266 0
-19260 19269 0
-19267 19269 0
-19260 -19267 19270 0
-19268 19270 0
-19260 -19268 0
-19261 19271 0
-19269 19271 0
-19261 -19269 19272 0
-19270 19272 0
-19261 -19270 0
-19262 19273 0
-19271 19273 0
-19262 -19271 19274 0
-19272 19274 0
-19262 -19272 0
-19263 19275 0
-19273 19275 0
-19263 -19273 19276 0
-19274 19276 0
-19263 -19274 0
-19264 -19276 0
-19279 18 19 20 0
-18 19279 0
-19 19279 0
-20 19279 0
19279 15 16 17 21 0
-19280 60 61 62 0
-60 19280 0
-61 19280 0
-62 19280 0
19280 57 58 59 63 0
-19281 102 103 104 0
-102 19281 0
-103 19281 0
-104 19281 0
19281 99 100 101 105 0
-19282 193 194 195 0
-193 19282 0
-194 19282 0
-195 19282 0
19282 190 191 192 196 0
-19283 235 236 237 0
-235 19283 0
-236 19283 0
-237 19283 0
19283 232 233 234 238 0
-19284 277 278 279 0
-277 19284 0
-278 19284 0
-279 19284 0
19284 274 275 276 280 0
-19285 319 320 321 0
-319 19285 0
-320 19285 0
-321 19285 0
19285 316 317 318 322 0
-19279 19286 0
-19287 0
-19288 0
-19280 19289 0
-19286 19289 0
-19280 -19286 19290 0
-19287 19290 0
-19280 -19287 19291 0
-19288 19291 0
-19280 -19288 0
-19281 19292 0
-19289 19292 0
-19281 -19289 19293 0
-19290 19293 0
-19281 -19290 19294 0
-19291 19294 0
-19281 -19291 0
-19282 19295 0
-19292 19295 0
-19282 -19292 19296 0
-19293 19296 0
-19282 -19293 19297 0
-19294 19297 0
-19282 -19294 0
-19283 19298 0
-19295 19298 0
-19283 -19295 19299 0
-19296 19299 0
-19283 -19296 19300 0
-19297 19300 0
-19283 -19297 0
-19284 19301 0
-19298 19301 0
-19284 -19298 19302 0
-19299 19302 0
-19284 -19299 19303 0
-19300 19303 0
-19284 -19300 0
-19285 -19303 0
-19307 18 19 20 21 0
-18 19307 0
-19 19307 0
-20 19307 0
-21 19307 0
19307 15 16 17 0
-19308 60 61 62 63 0
-60 19308 0
-61 19308 0
-62 19308 0
-63 19308 0
19308 57 58 59 0
-19309 102 103 104 105 0
-102 19309 0
-103 19309 0
-104 19309 0
-105 19309 0
19309 99 100 101 0
-19310 193 194 195 196 0
-193 19310 0
-194 19310 0
-195 19310 0
-196 19310 0
19310 190 191 192 0
-19311 235 236 237 238 0
-235 19311 0
-236 19311 0
-237 19311 0
-238 19311 0
19311 232 233 234 0
-19312 277 278 279 280 0
-277 19312 0
-278 19312 0
-279 19312 0
-280 19312 0
19312 274 275 276 0
-19313 319 320 321 322 0
-319 19313 0
-320 19313 0
-321 19313 0
-322 19313 0
19313 316 317 318 0
-19307 19314 0
-19315 0
-19316 0
-19317 0
-19308 19318 0
-19314 19318 0
-19308 -19314 19319 0
-19315 19319 0
-19308 -19315 19320 0
-19316 19320 0
-19308 -19316 19321 0
-19317 19321 0
-19308 -19317 0
-19309 19322 0
-19318 19322 0
-19309 -19318 19323 0
-19319 19323 0
-19309 -19319 19324 0
-19320 19324 0
-19309 -19320 19325 0
-19321 19325 0
-19309 -19321 0
-19310 19326 0
-19322 19326 0
-19310 -19322 19327 0
-19323 19327 0
-19310 -19323 19328 0
-19324 19328 0
-19310 -19324 19329 0
-19325 19329 0
-19310 -19325 0
-19311 19330 0
-19326 19330 0
-19311 -19326 19331 0
-19327 19331 0
-19311 -19327 19332 0
-19328 19332 0
-19311 -19328 19333 0
-19329 19333 0
-19311 -19329 0
-19312 19334 0
-19330 19334 0
-19312 -19330 19335 0
-19331 19335 0
-19312 -19331 19336 0
-19332 19336 0
-19312 -19332 19337 0
-19333 19337 0
-19312 -19333 0
-19313 -19337 0
-19342 19 0
-19 19342 0
19342 15 16 17 18 20 21 0
-19343 61 0
-61 19343 0
19343 57 58 59 60 62 63 0
-19344 103 0
-103 19344 0
19344 99 100 101 102 104 105 0
-19345 194 0
-194 19345 0
19345 190 191 192 193 195 196 0
-19346 236 0
-236 19346 0
19346 232 233 234 235 237 238 0
-19347 278 0
-278 19347 0
19347 274 275 276 277 279 280 0
-19348 320 0
-320 19348 0
19348 316 317 318 319 321 322 0
-19342 19349 0
-19343 19350 0
-19349 19350 0
-19343 -19349 0
-19344 19351 0
-19350 19351 0
-19344 -19350 0
-19345 19352 0
-19351 19352 0
-19345 -19351 0
-19346 19353 0
-19352 19353 0
-19346 -19352 0
-19347 19354 0
-19353 19354 0
-19347 -19353 0
-19348 -19354 0
-19356 19 20 0
-19 19356 0
-20 19356 0
19356 15 16 17 18 21 0
-19357 61 62 0
-61 19357 0
-62 19357 0
19357 57 58 59 60 63 0
-19358 103 104 0
-103 19358 0
-104 19358 0
19358 99 100 101 102 105 0
-19359 194 195 0
-194 19359 0
-195 19359 0
19359 190 191 192 193 196 0
-19360 236 237 0
-236 19360 0
-237 19360 0
19360 232 233 234 235 238 0
-19361 278 279 0
-278 19361 0
-279 19361 0
19361 274 275 276 277 280 0
-19362 320 321 0
-320 19362 0
-321 19362 0
19362 316 317 318 319 322 0
-19356 19363 0
-19364 0
-19357 19365 0
-19363 19365 0
-19357 -19363 19366 0
-19364 19366 0
-19357 -19364 0
-19358 19367 0
-19365 19367 0
-19358 -19365 19368 0
-19366 19368 0
-19358 -19366 0
-19359 19369 0
-19367 19369 0
-19359 -19367 19370 0
-19368 19370 0
-19359 -19368 0
-19360 19371 0
-19369 19371 0
-19360 -19369 19372 0
-19370 19372 0
-19360 -19370 0
-19361 19373 0
-19371 19373 0
-19361 -19371 19374 0
-19372 19374 0
-19361 -19372 0
-19362 -19374 0
-19377 19 20 21 0
-19 19377 0
-20 19377 0
-21 19377 0
19377 15 16 17 18 0
-19378 61 62 63 0
-61 19378 0
-62 19378 0
-63 19378 0
19378 57 58 59 60 0
-19379 103 104 105 0
-103 19379 0
-104 19379 0
-105 19379 0
19379 99 100 101 102 0
-19380 194 195 196 0
-194 19380 0
-195 19380 0
-196 19380 0
19380 190 191 192 193 0
-19381 236 237 238 0
-236 19381 0
-237 19381 0
-238 19381 0
19381 232 233 234 235 0
-19382 278 279 280 0
-278 19382 0
-279 19382 0
-280 19382 0
19382 274 275 276 277 0
-19383 320 321 322 0
-320 19383 0
-321 19383 0
-322 19383 0
19383 316 317 318 319 0
-19377 19384 0
-19385 0
-19386 0
-19378 19387 0
-19384 19387 0
-19378 -19384 19388 0
-19385 19388 0
-19378 -19385 19389 0
-19386 19389 0
-19378 -19386 0
-19379 19390 0
-19387 19390 0
-19379 -19387 19391 0
-19388 19391 0
-19379 -19388 19392 0
-19389 19392 0
-19379 -19389 0
-19380 19393 0
-19390 19393 0
-19380 -19390 19394 0
-19391 19394 0
-19380 -19391 19395 0
-19392 19395 0
-19380 -19392 0
-19381 19396 0
-19393 19396 0
-19381 -19393 19397 0
-19394 19397 0
-19381 -19394 19398 0
-19395 19398 0
-19381 -19395 0
-19382 19399 0
-19396 19399 0
-19382 -19396 19400 0
-19397 19400 0
-19382 -19397 19401 0
-19398 19401 0
-19382 -19398 0
-19383 -19401 0
-19405 20 0
-20 19405 0
19405 15 16 17 18 19 21 0
-19406 62 0
-62 19406 0
19406 57 58 59 60 61 63 0
-19407 104 0
-104 19407 0
19407 99 100 101 102 103 105 0
-19408 195 0
-195 19408 0
19408 190 191 192 193 194 196 0
-19409 237 0
-237 19409 0
19409 232 233 234 235 236 238 0
-19410 279 0
-279 19410 0
19410 274 275 276 277 278 280 0
-19411 321 0
-321 19411 0
19411 316 317 318 319 320 322 0
-19405 19412 0
-19406 19413 0
-19412 19413 0
-19406 -19412 0
-19407 19414 0
-19413 19414 0
-19407 -19413 0
-19408 19415 0
-19414 19415 0
-19408 -19414 0
-19409 19416 0
-19415 19416 0
-19409 -19415 0
-19410 19417 0
-19416 19417 0
-19410 -19416 0
-19411 -19417 0
-19419 20 21 0
-20 19419 0
-21 19419 0
19419 15 16 17 18 19 0
-19420 62 63 0
-62 19420 0
-63 19420 0
19420 57 58 59 60 61 0
-19421 104 105 0
-104 19421 0
-105 19421 0
19421 99 100 101 102 103 0
-19422 195 196 0
-195 19422 0
-196 19422 0
19422 190 191 192 193 194 0
-19423 237 238 0
-237 19423 0
-238 19423 0
19423 232 233 234 235 236 0
-19424 279 280 0
-279 19424 0
-280 19424 0
19424 274 275 276 277 278 0
-19425 321 322 0
-321 19425 0
-322 19425 0
19425 316 317 318 319 320 0
-19419 19426 0
-19427 0
-19420 19428 0
-19426 19428 0
-19420 -19426 19429 0
-19427 19429 0
-19420 -19427 0
-19421 19430 0
-19428 19430 0
-19421 -19428 19431 0
-19429 19431 0
-19421 -19429 0
-19422 19432 0
-19430 19432 0
-19422 -19430 19433 0
-19431 19433 0
-19422 -19431 0
-19423 19434 0
-19432 19434 0
-19423 -19432 19435 0
-19433 19435 0
-19423 -19433 0
-19424 19436 0
-19434 19436 0
-19424 -19434 19437 0
-19435 19437 0
-19424 -19435 0
-19425 -19437 0
-19440 21 0
-21 19440 0
19440 15 16 17 18 19 20 0
-19441 63 0
-63 19441 0
19441 57 58 59 60 61 62 0
-19442 105 0
-105 19442 0
19442 99 100 101 102 103 104 0
-19443 196 0
-196 19443 0
19443 190 191 192 193 194 195 0
-19444 238 0
-238 19444 0
19444 232 233 234 235 236 237 0
-19445 280 0
-280 19445 0
19445 274 275 276 277 278 279 0
-19446 322 0
-322 19446 0
19446 316 317 318 319 320 321 0
-19440 19447 0
-19441 19448 0
-19447 19448 0
-19441 -19447 0
-19442 19449 0
-19448 19449 0
-19442 -19448 0
-19443 19450 0
-19449 19450 0
-19443 -19449 0
-19444 19451 0
-19450 19451 0
-19444 -19450 0
-19445 19452 0
-19451 19452 0
-19445 -19451 0
-19446 -19452 0
-15 19454 0
-57 19455 0
-19454 19455 0
-57 -19454 0
-99 19456 0
-19455 19456 0
-99 -19455 0
-190 19457 0
-19456 19457 0
-190 -19456 0
-232 19458 0
-19457 19458 0
-232 -19457 0
-274 19459 0
-19458 19459 0
-274 -19458 0
-316 -19459 0
15 57 99 190 232 274 316 0
-16 19461 0
-58 19462 0
-19461 19462 0
-58 -19461 0
-100 19463 0
-19462 19463 0
-100 -19462 0
-191 19464 0
-19463 19464 0
-191 -19463 0
-233 19465 0
-19464 19465 0
-233 -19464 0
-275 19466 0
-19465 19466 0
-275 -19465 0
-317 -19466 0
16 58 100 191 233 275 317 0
-17 19468 0
-59 19469 0
-19468 19469 0
-59 -19468 0
-101 19470 0
-19469 19470 0
-101 -19469 0
-192 19471 0
-19470 19471 0
-192 -19470 0
-234 19472 0
-19471 19472 0
-234 -19471 0
-276 19473 0
-19472 19473 0
-276 -19472 0
-318 -19473 0
17 59 101 192 234 276 318 0
-18 19475 0
-60 19476 0
-19475 19476 0
-60 -19475 0
-102 19477 0
-19476 19477 0
-102 -19476 0
-193 19478 0
-19477 19478 0
-193 -19477 0
-235 19479 0
-19478 19479 0
-235 -19478 0
-277 19480 0
-19479 19480 0
-277 -19479 0
-319 -19480 0
18 60 102 193 235 277 319 0
-19 19482 0
-61 19483 0
-19482 19483 0
-61 -19482 0
-103 19484 0
-19483 19484 0
-103 -19483 0
-194 19485 0
-19484 19485 0
-194 -19484 0
-236 19486 0
-19485 19486 0
-236 -19485 0
-278 19487 0
-19486 19487 0
-278 -19486 0
-320 -19487 0
19 61 103 194 236 278 320 0
-20 19489 0
-62 19490 0
-19489 19490 0
-62 -19489 0
-104 19491 0
-19490 19491 0
-104 -19490 0
-195 19492 0
-19491 19492 0
-195 -19491 0
-237 19493 0
-19492 19493 0
-237 -19492 0
-279 19494 0
-19493 19494 0
-279 -19493 0
-321 -19494 0
20 62 104 195 237 279 321 0
-21 19496 0
-63 19497 0
-19496 19497 0
-63 -19496 0
-105 19498 0
-19497 19498 0
-105 -19497 0
-196 19499 0
-19498 19499 0
-196 -19498 0
-238 19500 0
-19499 19500 0
-238 -19499 0
-280 19501 0
-19500 19501 0
-280 -19500 0
-322 -19501 0
21 63 105 196 238 280 322 0
-19503 22 0
-22 19503 0
19503 23 24 25 26 27 28 0
-19504 64 0
-64 19504 0
19504 65 66 67 68 69 70 0
-19505 106 0
-106 19505 0
19505 107 108 109 110 111 112 0
-19506 148 0
-148 19506 0
19506 149 150 151 152 153 154 0
-19507 239 0
-239 19507 0
19507 240 241 242 243 244 245 0
-19508 281 0
-281 19508 0
19508 282 283 284 285 286 287 0
-19509 323 0
-323 19509 0
19509 324 325 326 327 328 329 0
-19503 19510 0
-19504 19511 0
-19510 19511 0
-19504 -19510 0
-19505 19512 0
-19511 19512 0
-19505 -19511 0
-19506 19513 0
-19512 19513 0
-19506 -19512 0
-19507 19514 0
-19513 19514 0
-19507 -19513 0
-19508 19515 0
-19514 19515 0
-19508 -19514 0
-19509 -19515 0
-19517 22 23 0
-22 19517 0
-23 19517 0
19517 24 25 26 27 28 0
-19518 64 65 0
-64 19518 0
-65 19518 0
19518 66 67 68 69 70 0
-19519 106 107 0
-106 19519 0
-107 19519 0
19519 108 109 110 111 112 0
-19520 148 149 0
-148 19520 0
-149 19520 0
19520 150 151 152 153 154 0
-19521 239 240 0
-239 19521 0
-240 19521 0
19521 241 242 243 244 245 0
-19522 281 282 0
-281 19522 0
-282 19522 0
19522 283 284 285 286 287 0
-19523 323 324 0
-323 19523 0
-324 19523 0
19523 325 326 327 328 329 0
-19517 19524 0
-19525 0
-19518 19526 0
-19524 19526 0
-19518 -19524 19527 0
-19525 19527 0
-19518 -19525 0
-19519 19528 0
-19526 19528 0
-19519 -19526 19529 0
-19527 19529 0
-19519 -19527 0
-19520 19530 0
-19528 19530 0
-19520 -19528 19531 0
-19529 19531 0
-19520 -19529 0
-19521 19532 0
-19530 19532 0
-19521 -19530 19533 0
-19531 19533 0
-19521 -19531 0
-19522 19534 0
-19532 19534 0
-19522 -19532 19535 0
-19533 19535 0
-19522 -19533 0
-19523 -19535 0
-19538 22 23 24 0
-22 19538 0
-23 19538 0
-24 19538 0
19538 25 26 27 28 0
-19539 64 65 66 0
-64 19539 0
-65 19539 0
-66 19539 0
19539 67 68 69 70 0
-19540 106 107 108 0
-106 19540 0
-107 19540 0
-108 19540 0
19540 109 110 111 112 0
-19541 148 149 150 0
-148 19541 0
-149 19541 0
-150 19541 0
19541 151 152 153 154 0
-19542 239 240 241 0
-239 19542 0
-240 19542 0
-241 19542 0
19542 242 243 244 245 0
-19543 281 282 283 0
-281 19543 0
-282 19543 0
-283 19543 0
19543 284 285 286 287 0
-19544 323 324 325 0
-323 19544 0
-324 19544 0
-325 19544 0
19544 326 327 328 329 0
-19538 19545 0
-19546 0
-19547 0
-19539 19548 0
-19545 19548 0
-19539 -19545 19549 0
-19546 19549 0
-19539 -19546 19550 0
-19547 19550 0
-19539 -19547 0
-19540 19551 0
-19548 19551 0
-19540 -19548 19552 0
-19549 19552 0
-19540 -19549 19553 0
-19550 19553 0
-19540 -19550 0
-19541 19554 0
-19551 19554 0
-19541 -19551 19555 0
-19552 19555 0
-19541 -19552 19556 0
-19553 19556 0
-19541 -19553 0
-19542 19557 0
-19554 19557 0
-19542 -19554 19558 0
-19555 19558 0
-19542 -19555 19559 0
-19556 19559 0
-19542 -19556 0
-19543 19560 0
-19557 19560 0
-19543 -19557 19561 0
-19558 19561 0
-19543 -19558 19562 0
-19559 19562 0
-19543 -19559 0
-19544 -19562 0
-19566 22 23 24 25 0
-22 19566 0
-23 19566 0
-24 19566 0
-25 19566 0
19566 26 27 28 0
-19567 64 65 66 67 0
-64 19567 0
-65 19567 0
-66 19567 0
-67 19567 0
19567 68 69 70 0
-19568 106 107 108 109 0
-106 19568 0
-107 19568 0
-108 19568 0
-109 19568 0
19568 110 111 112 0
-19569 148 149 150 151 0
-148 19569 0
-149 19569 0
-150 19569 0
-151 19569 0
19569 152 153 154 0
-19570 239 240 241 242 0
-239 19570 0
-240 19570 0
-241 19570 0
-242 19570 0
19570 243 244 245 0
-19571 281 282 283 284 0
-281 19571 0
-282 19571 0
-283 19571 0
-284 19571 0
19571 285 286 287 0
-19572 323 324 325 326 0
-323 19572 0
-324 19572 0
-325 19572 0
-326 19572 0
19572 327 328 329 0
-19566 19573 0
-19574 0
-19575 0
-19576 0
-19567 19577 0
-19573 19577 0
-19567 -19573 19578 0
-19574 19578 0
-19567 -19574 19579 0
-19575 19579 0
-19567 -19575 19580 0
-19576 19580 0
-19567 -19576 0
-19568 19581 0
-19577 19581 0
-19568 -19577 19582 0
-19578 19582 0
-19568 -19578 19583 0
-19579 19583 0
-19568 -19579 19584 0
-19580 19584 0
-19568 -19580 0
-19569 19585 0
-19581 19585 0
-19569 -19581 19586 0
-19582 19586 0
-19569 -19582 19587 0
-19583 19587 0
-19569 -19583 19588 0
-19584 19588 0
-19569 -19584 0
-19570 19589 0
-19585 19589 0
-19570 -19585 19590 0
-19586 19590 0
-19570 -19586 19591 0
-19587 19591 0
-19570 -19587 19592 0
-19588 19592 0
-19570 -19588 0
-19571 19593 0
-19589 19593 0
-19571 -19589 19594 0
-19590 19594 0
-19571 -19590 19595 0
-19591 19595 0
-19571 -19591 19596 0
-19592 19596 0
-19571 -19592 0
-19572 -19596 0
-19601 22 23 24 25 26 0
-22 19601 0
-23 19601 0
-24 19601 0
-25 19601 0
-26 19601 0
19601 27 28 0
-19602 64 65 66 67 68 0
-64 19602 0
-65 19602 0
-66 19602 0
-67 19602 0
-68 19602 0
19602 69 70 0
-19603 106 107 108 109 110 0
-106 19603 0
-107 19603 0
-108 19603 0
-109 19603 0
-110 19603 0
19603 111 112 0
-19604 148 149 150 151 152 0
-148 19604 0
-149 19604 0
-150 19604 0
-151 19604 0
-152 19604 0
19604 153 154 0
-19605 239 240 241 242 243 0
-239 19605 0
-240 19605 0
-241 19605 0
-242 19605 0
-243 19605 0
19605 244 245 0
-19606 281 282 283 284 285 0
-281 19606 0
-282 19606 0
-283 19606 0
-284 19606 0
-285 19606 0
19606 286 287 0
-19607 323 324 325 326 327 0
-323 19607 0
-324 19607 0
-325 19607 0
-326 19607 0
-327 19607 0
19607 328 329 0
-19601 19608 0
-19609 0
-19610 0
-19611 0
-19612 0
-19602 19613 0
-19608 19613 0
-19602 -19608 19614 0
-19609 19614 0
-19602 -19609 19615 0
-19610 19615 0
-19602 -19610 19616 0
-19611 19616 0
-19602 -19611 19617 0
-19612 19617 0
-19602 -19612 0
-19603 19618 0
-19613 19618 0
-19603 -19613 19619 0
-19614 19619 0
-19603 -19614 19620 0
-19615 19620 0
-19603 -19615 19621 0
-19616 19621 0
-19603 -19616 19622 0
-19617 19622 0
-19603 -19617 0
-19604 19623 0
-19618 19623 0
-19604 -19618 19624 0
-19619 19624 0
-19604 -19619 19625 0
-19620 19625 0
-19604 -19620 19626 0
-19621 19626 0
-19604 -19621 19627 0
-19622 19627 0
-19604 -19622 0
-19605 19628 0
-19623 19628 0
-19605 -19623 19629 0
-19624 19629 0
-19605 -19624 19630 0
-19625 19630 0
-19605 -19625 19631 0
-19626 19631 0
-19605 -19626 19632 0
-19627 19632 0
-19605 -19627 0
-19606 19633 0
-19628 19633 0
-19606 -19628 19634 0
-19629 19634 0
-19606 -19629 19635 0
-19630 19635 0
-19606 -19630 19636 0
-19631 19636 0
-19606 -19631 19637 0
-19632 19637 0
-19606 -19632 0
-19607 -19637 0
-19643 22 23 24 25 26 27 0
-22 19643 0
-23 19643 0
-24 19643 0
-25 19643 0
-26 19643 0
-27 19643 0
19643 28 0
-19644 64 65 66 67 68 69 0
-64 19644 0
-65 19644 0
-66 19644 0
-67 19644 0
-68 19644 0
-69 19644 0
19644 70 0
-19645 106 107 108 109 110 111 0
-106 19645 0
-107 19645 0
-108 19645 0
-109 19645 0
-110 19645 0
-111 19645 0
19645 112 0
-19646 148 149 150 151 152 153 0
-148 19646 0
-149 19646 0
-150 19646 0
-151 19646 0
-152 19646 0
-153 19646 0
19646 154 0
-19647 239 240 241 242 243 244 0
-239 19647 0
-240 19647 0
-241 19647 0
-242 19647 0
-243 19647 0
-244 19647 0
19647 245 0
-19648 281 282 283 284 285 286 0
-281 19648 0
-282 19648 0
-283 19648 0
-284 19648 0
-285 19648 0
-286 19648 0
19648 287 0
-19649 323 324 325 326 327 328 0
-323 19649 0
-324 19649 0
-325 19649 0
-326 19649 0
-327 19649 0
-328 19649 0
19649 329 0
-19643 19650 0
-19651 0
-19652 0
-19653 0
-19654 0
-19655 0
-19644 19656 0
-19650 19656 0
-19644 -19650 19657 0
-19651 19657 0
-19644 -19651 19658 0
-19652 19658 0
-19644 -19652 19659 0
-19653 19659 0
-19644 -19653 19660 0
-19654 19660 0
-19644 -19654 19661 0
-19655 19661 0
-19644 -19655 0
-19645 19662 0
-19656 19662 0
-19645 -19656 19663 0
-19657 19663 0
-19645 -19657 19664 0
-19658 19664 0
-19645 -19658 19665 0
-19659 19665 0
-19645 -19659 19666 0
-19660 19666 0
-19645 -19660 19667 0
-19661 19667 0
-19645 -19661 0
-19646 19668 0
-19662 19668 0
-19646 -19662 19669 0
-19663 19669 0
-19646 -19663 19670 0
-19664 19670 0
-19646 -19664 19671 0
-19665 19671 0
-19646 -19665 19672 0
-19666 19672 0
-19646 -19666 19673 0
-19667 19673 0
-19646 -19667 0
-19647 19674 0
-19668 19674 0
-19647 -19668 19675 0
-19669 19675 0
-19647 -19669 19676 0
-19670 19676 0
-19647 -19670 19677 0
-19671 19677 0
-19647 -19671 19678 0
-19672 19678 0
-19647 -19672 19679 0
-19673 19679 0
-19647 -19673 0
-19648 19680 0
-19674 19680 0
-19648 -19674 19681 0
-19675 19681 0
-19648 -19675 19682 0
-19676 19682 0
-19648 -19676 19683 0
-19677 19683 0
-19648 -19677 19684 0
-19678 19684 0
-19648 -19678 19685 0
-19679 19685 0
-19648 -19679 0
-19649 -19685 0
-19692 22 23 24 25 26 27 28 0
-22 19692 0
-23 19692 0
-24 19692 0
-25 19692 0
-26 19692 0
-27 19692 0
-28 19692 0
19692 0
-19693 64 65 66 67 68 69 70 0
-64 19693 0
-65 19693 0
-66 19693 0
-67 19693 0
-68 19693 0
-69 19693 0
-70 19693 0
19693 0
-19694 106 107 108 109 110 111 112 0
-106 19694 0
-107 19694 0
-108 19694 0
-109 19694 0
-110 19694 0
-111 19694 0
-112 19694 0
19694 0
-19695 148 149 150 151 152 153 154 0
-148 19695 0
-149 19695 0
-150 19695 0
-151 19695 0
-152 19695 0
-153 19695 0
-154 19695 0
19695 0
-19696 239 240 241 242 243 244 245 0
-239 19696 0
-240 19696 0
-241 19696 0
-242 19696 0
-243 19696 0
-244 19696 0
-245 19696 0
19696 0
-19697 281 282 283 284 285 286 287 0
-281 19697 0
-282 19697 0
-283 19697 0
-284 19697 0
-285 19697 0
-286 19697 0
-287 19697 0
19697 0
-19698 323 324 325 326 327 328 329 0
-323 19698 0
-324 19698 0
-325 19698 0
-326 19698 0
-327 19698 0
-328 19698 0
-329 19698 0
19698 0
-19699 23 0
-23 19699 0
19699 22 24 25 26 27 28 0
-19700 65 0
-65 19700 0
19700 64 66 67 68 69 70 0
-19701 107 0
-107 19701 0
19701 106 108 109 110 111 112 0
-19702 149 0
-149 19702 0
19702 148 150 151 152 153 154 0
-19703 240 0
-240 19703 0
19703 239 241 242 243 244 245 0
-19704 282 0
-282 19704 0
19704 281 283 284 285 286 287 0
-19705 324 0
-324 19705 0
19705 323 325 326 327 328 329 0
-19699 19706 0
-19700 19707 0
-19706 19707 0
-19700 -19706 0
-19701 19708 0
-19707 19708 0
-19701 -19707 0
-19702 19709 0
-19708 19709 0
-19702 -19708 0
-19703 19710 0
-19709 19710 0
-19703 -19709 0
-19704 19711 0
-19710 19711 0
-19704 -19710 0
-19705 -19711 0
-19713 23 24 0
-23 19713 0
-24 19713 0
19713 22 25 26 27 28 0
-19714 65 66 0
-65 19714 0
-66 19714 0
19714 64 67 68 69 70 0
-19715 107 108 0
-107 19715 0
-108 19715 0
19715 106 109 110 111 112 0
-19716 149 150 0
-149 19716 0
-150 19716 0
19716 148 151 152 153 154 0
-19717 240 241 0
-240 19717 0
-241 19717 0
19717 239 242 243 244 245 0
-19718 282 283 0
-282 19718 0
-283 19718 0
19718 281 284 285 286 287 0
-19719 324 325 0
-324 19719 0
-325 19719 0
19719 323 326 327 328 329 0
-19713 19720 0
-19721 0
-19714 19722 0
-19720 19722 0
-19714 -19720 19723 0
-19721 19723 0
-19714 -19721 0
-19715 19724 0
-19722 19724 0
-19715 -19722 19725 0
-19723 19725 0
-19715 -19723 0
-19716 19726 0
-19724 19726 0
-19716 -19724 19727 0
-19725 19727 0
-19716 -19725 0
-19717 19728 0
-19726 19728 0
-19717 -19726 19729 0
-19727 19729 0
-19717 -19727 0
-19718 19730 0
-19728 19730 0
-19718 -19728 19731 0
-19729 19731 0
-19718 -19729 0
-19719 -19731 0
-19734 23 24 25 0
-23 19734 0
-24 19734 0
-25 19734 0
19734 22 26 27 28 0
-19735 65 66 67 0
-65 19735 0
-66 19735 0
-67 19735 0
19735 64 68 69 70 0
-19736 107 108 109 0
-107 19736 0
-108 19736 0
-109 19736 0
19736 106 110 111 112 0
-19737 149 150 151 0
-149 19737 0
-150 19737 0
-151 19737 0
19737 148 152 153 154 0
-19738 240 241 242 0
-240 19738 0
-241 19738 0
-242 19738 0
19738 239 243 244 245 0
-19739 282 283 284 0
-282 19739 0
-283 19739 0
-284 19739 0
19739 281 285 286 287 0
-19740 324 325 326 0
-324 19740 0
-325 19740 0
-326 19740 0
19740 323 327 328 329 0
-19734 19741 0
-19742 0
-19743 0
-19735 19744 0
-19741 19744 0
-19735 -19741 19745 0
-19742 19745 0
-19735 -19742 19746 0
-19743 19746 0
-19735 -19743 0
-19736 19747 0
-19744 19747 0
-19736 -19744 19748 0
-19745 19748 0
-19736 -19745 19749 0
-19746 19749 0
-19736 -19746 0
-19737 19750 0
-19747 19750 0
-19737 -19747 19751 0
-19748 19751 0
-19737 -19748 19752 0
-19749 19752 0
-19737 -19749 0
-19738 19753 0
-19750 19753 0
-19738 -19750 19754 0
-19751 19754 0
-19738 -19751 19755 0
-19752 19755 0
-19738 -19752 0
-19739 19756 0
-19753 19756 0
-19739 -19753 19757 0
-19754 19757 0
-19739 -19754 19758 0
-19755 19758 0
-19739 -19755 0
-19740 -19758 0
-19762 23 24 25 26 0
-23 19762 0
-24 19762 0
-25 19762 0
-26 19762 0
19762 22 27 28 0
-19763 65 66 67 68 0
-65 19763 0
-66 19763 0
-67 19763 0
-68 19763 0
19763 64 69 70 0
-19764 107 108 109 110 0
-107 19764 0
-108 19764 0
-109 19764 0
-110 19764 0
19764 106 111 112 0
-19765 149 150 151 152 0
-149 19765 0
-150 19765 0
-151 19765 0
-152 19765 0
19765 148 153 154 0
-19766 240 241 242 243 0
-240 19766 0
-241 19766 0
-242 19766 0
-243 19766 0
19766 239 244 245 0
-19767 282 283 284 285 0
-282 19767 0
-283 19767 0
-284 19767 0
-285 19767 0
19767 281 286 287 0
-19768 324 325 326 327 0
-324 19768 0
-325 19768 0
-326 19768 0
-327 19768 0
19768 323 328 329 0
-19762 19769 0
-19770 0
-19771 0
-19772 0
-19763 19773 0
-19769 19773 0
-19763 -19769 19774 0
-19770 19774 0
-19763 -19770 19775 0
-19771 19775 0
-19763 -19771 19776 0
-19772 19776 0
-19763 -19772 0
-19764 19777 0
-19773 19777 0
-19764 -19773 19778 0
-19774 19778 0
-19764 -19774 19779 0
-19775 19779 0
-19764 -19775 19780 0
-19776 19780 0
-19764 -19776 0
-19765 19781 0
-19777 19781 0
-19765 -19777 19782 0
-19778 19782 0
-19765 -19778 19783 0
-19779 19783 0
-19765 -19779 19784 0
-19780 19784 0
-19765 -19780 0
-19766 19785 0
-19781 19785 0
-19766 -19781 19786 0
-19782 19786 0
-19766 -19782 19787 0
-19783 19787 0
-19766 -19783 19788 0
-19784 19788 0
-19766 -19784 0
-19767 19789 0
-19785 19789 0
-19767 -19785 19790 0
-19786 19790 0
-19767 -19786 19791 0
-19787 19791 0
-19767 -19787 19792 0
-19788 19792 0
-19767 -19788 0
-19768 -19792 0
-19797 23 24 25 26 27 0
-23 19797 0
-24 19797 0
-25 19797 0
-26 19797 0
-27 19797 0
19797 22 28 0
-19798 65 66 67 68 69 0
-65 19798 0
-66 19798 0
-67 19798 0
-68 19798 0
-69 19798 0
19798 64 70 0
-19799 107 108 109 110 111 0
-107 19799 0
-108 19799 0
-109 19799 0
-110 19799 0
-111 19799 0
19799 106 112 0
-19800 149 150 151 152 153 0
-149 19800 0
-150 19800 0
-151 19800 0
-152 19800 0
-153 19800 0
19800 148 154 0
-19801 240 241 242 243 244 0
-240 19801 0
-241 19801 0
-242 19801 0
-243 19801 0
-244 19801 0
19801 239 245 0
-19802 282 283 284 285 286 0
-282 19802 0
-283 19802 0
-284 19802 0
-285 19802 0
-286 19802 0
19802 281 287 0
-19803 324 325 326 327 328 0
-324 19803 0
-325 19803 0
-326 19803 0
-327 19803 0
-328 19803 0
19803 323 329 0
-19797 19804 0
-19805 0
-19806 0
-19807 0
-19808 0
-19798 19809 0
-19804 19809 0
-19798 -19804 19810 0
-19805 19810 0
-19798 -19805 19811 0
-19806 19811 0
-19798 -19806 19812 0
-19807 19812 0
-19798 -19807 19813 0
-19808 19813 0
-19798 -19808 0
-19799 19814 0
-19809 19814 0
-19799 -19809 19815 0
-19810 19815 0
-19799 -19810 19816 0
-19811 19816 0
-19799 -19811 19817 0
-19812 19817 0
-19799 -19812 19818 0
-19813 19818 0
-19799 -19813 0
-19800 19819 0
-19814 19819 0
-19800 -19814 19820 0
-19815 19820 0
-19800 -19815 19821 0
-19816 19821 0
-19800 -19816 19822 0
-19817 19822 0
-19800 -19817 19823 0
-19818 19823 0
-19800 -19818 0
-19801 19824 0
-19819 19824 0
-19801 -19819 19825 0
-19820 19825 0
-19801 -19820 19826 0
-19821 19826 0
-19801 -19821 19827 0
-19822 19827 0
-19801 -19822 19828 0
-19823 19828 0
-19801 -19823 0
-19802 19829 0
-19824 19829 0
-19802 -19824 19830 0
-19825 19830 0
-19802 -19825 19831 0
-19826 19831 0
-19802 -19826 19832 0
-19827 19832 0
-19802 -19827 19833 0
-19828 19833 0
-19802 -19828 0
-19803 -19833 0
-19839 23 24 25 26 27 28 0
-23 19839 0
-24 19839 0
-25 19839 0
-26 19839 0
-27 19839 0
-28 19839 0
19839 22 0
-19840 65 66 67 68 69 70 0
-65 19840 0
-66 19840 0
-67 19840 0
-68 19840 0
-69 19840 0
-70 19840 0
19840 64 0
-19841 107 108 109 110 111 112 0
-107 19841 0
-108 19841 0
-109 19841 0
-110 19841 0
-111 19841 0
-112 19841 0
19841 106 0
-19842 149 150 151 152 153 154 0
-149 19842 0
-150 19842 0
-151 19842 0
-152 19842 0
-153 19842 0
-154 19842 0
19842 148 0
-19843 240 241 242 243 244 245 0
-240 19843 0
-241 19843 0
-242 19843 0
-243 19843 0
-244 19843 0
-245 19843 0
19843 239 0
-19844 282 283 284 285 286 287 0
-282 19844 0
-283 19844 0
-284 19844 0
-285 19844 0
-286 19844 0
-287 19844 0
19844 281 0
-19845 324 325 326 327 328 329 0
-324 19845 0
-325 19845 0
-326 19845 0
-327 19845 0
-328 19845 0
-329 19845 0
19845 323 0
-19839 19846 0
-19847 0
-19848 0
-19849 0
-19850 0
-19851 0
-19840 19852 0
-19846 19852 0
-19840 -19846 19853 0
-19847 19853 0
-19840 -19847 19854 0
-19848 19854 0
-19840 -19848 19855 0
-19849 19855 0
-19840 -19849 19856 0
-19850 19856 0
-19840 -19850 19857 0
-19851 19857 0
-19840 -19851 0
-19841 19858 0
-19852 19858 0
-19841 -19852 19859 0
-19853 19859 0
-19841 -19853 19860 0
-19854 19860 0
-19841 -19854 19861 0
-19855 19861 0
-19841 -19855 19862 0
-19856 19862 0
-19841 -19856 19863 0
-19857 19863 0
-19841 -19857 0
-19842 19864 0
-19858 19864 0
-19842 -19858 19865 0
-19859 19865 0
-19842 -19859 19866 0
-19860 19866 0
-19842 -19860 19867 0
-19861 19867 0
-19842 -19861 19868 0
-19862 19868 0
-19842 -19862 19869 0
-19863 19869 0
-19842 -19863 0
-19843 19870 0
-19864 19870 0
-19843 -19864 19871 0
-19865 19871 0
-19843 -19865 19872 0
-19866 19872 0
-19843 -19866 19873 0
-19867 19873 0
-19843 -19867 19874 0
-19868 19874 0
-19843 -19868 19875 0
-19869 19875 0
-19843 -19869 0
-19844 19876 0
-19870 19876 0
-19844 -19870 19877 0
-19871 19877 0
-19844 -19871 19878 0
-19872 19878 0
-19844 -19872 19879 0
-19873 19879 0
-19844 -19873 19880 0
-19874 19880 0
-19844 -19874 19881 0
-19875 19881 0
-19844 -19875 0
-19845 -19881 0
-19888 24 0
-24 19888 0
19888 22 23 25 26 27 28 0
-19889 66 0
-66 19889 0
19889 64 65 67 68 69 70 0
-19890 108 0
-108 19890 0
19890 106 107 109 110 111 112 0
-19891 150 0
-150 19891 0
19891 148 149 151 152 153 154 0
-19892 241 0
-241 19892 0
19892 239 240 242 243 244 245 0
-19893 283 0
-283 19893 0
19893 281 282 284 285 286 287 0
-19894 325 0
-325 19894 0
19894 323 324 326 327 328 329 0
-19888 19895 0
-19889 19896 0
-19895 19896 0
-19889 -19895 0
-19890 19897 0
-19896 19897 0
-19890 -19896 0
-19891 19898 0
-19897 19898 0
-19891 -19897 0
-19892 19899 0
-19898 19899 0
-19892 -19898 0
-19893 19900 0
-19899 19900 0
-19893 -19899 0
-19894 -19900 0
-19902 24 25 0
-24 19902 0
-25 19902 0
19902 22 23 26 27 28 0
-19903 66 67 0
-66 19903 0
-67 19903 0
19903 64 65 68 69 70 0
-19904 108 109 0
-108 19904 0
-109 19904 0
19904 106 107 110 111 112 0
-19905 150 151 0
-150 19905 0
-151 19905 0
19905 148 149 152 153 154 0
-19906 241 242 0
-241 19906 0
-242 19906 0
19906 239 240 243 244 245 0
-19907 283 284 0
-283 19907 0
-284 19907 0
19907 281 282 285 286 287 0
-19908 325 326 0
-325 19908 0
-326 19908 0
19908 323 324 327 328 329 0
-19902 19909 0
-19910 0
-19903 19911 0
-19909 19911 0
-19903 -19909 19912 0
-19910 19912 0
-19903 -19910 0
-19904 19913 0
-19911 19913 0
-19904 -19911 19914 0
-19912 19914 0
-19904 -19912 0
-19905 19915 0
-19913 19915 0
-19905 -19913 19916 0
-19914 19916 0
-19905 -19914 0
-19906 19917 0
-19915 19917 0
-19906 -19915 19918 0
-19916 19918 0
-19906 -19916 0
-19907 19919 0
-19917 19919 0
-19907 -19917 19920 0
-19918 19920 0
-19907 -19918 0
-19908 -19920 0
-19923 24 25 26 0
-24 19923 0
-25 19923 0
-26 19923 0
19923 22 23 27 28 0
-19924 66 67 68 0
-66 19924 0
-67 19924 0
-68 19924 0
19924 64 65 69 70 0
-19925 108 109 110 0
-108 19925 0
-109 19925 0
-110 19925 0
19925 106 107 111 112 0
-19926 150 151 152 0
-150 19926 0
-151 19926 0
-152 19926 0
19926 148 149 153 154 0
-19927 241 242 243 0
-241 19927 0
-242 19927 0
-243 19927 0
19927 239 240 244 245 0
-19928 283 284 285 0
-283 19928 0
-284 19928 0
-285 19928 0
19928 281 282 286 287 0
-19929 325 326 327 0
-325 19929 0
-326 19929 0
-327 19929 0
19929 323 324 328 329 0
-19923 19930 0
-19931 0
-19932 0
-19924 19933 0
-19930 19933 0
-19924 -19930 19934 0
-19931 19934 0
-19924 -19931 19935 0
-19932 19935 0
-19924 -19932 0
-19925 19936 0
-19933 19936 0
-19925 -19933 19937 0
-19934 19937 0
-19925 -19934 19938 0
-19935 19938 0
-19925 -19935 0
-19926 19939 0
-19936 19939 0
-19926 -19936 19940 0
-19937 19940 0
-19926 -19937 19941 0
-19938 19941 0
-19926 -19938 0
-19927 19942 0
-19939 19942 0
-19927 -19939 19943 0
-19940 19943 0
-19927 -19940 19944 0
-19941 19944 0
-19927 -19941 0
-19928 19945 0
-19942 19945 0
-19928 -19942 19946 0
-19943 19946 0
-19928 -19943 19947 0
-19944 19947 0
-19928 -19944 0
-19929 -19947 0
-19951 24 25 26 27 0
-24 19951 0
-25 19951 0
-26 19951 0
-27 19951 0
19951 22 23 28 0
-19952 66 67 68 69 0
-66 19952 0
-67 19952 0
-68 19952 0
-69 19952 0
19952 64 65 70 0
-19953 108 109 110 111 0
-108 19953 0
-109 19953 0
-110 19953 0
-111 19953 0
19953 106 107 112 0
-19954 150 151 152 153 0
-150 19954 0
-151 19954 0
-152 19954 0
-153 19954 0
19954 148 149 154 0
-19955 241 242 243 244 0
-241 19955 0
-242 19955 0
-243 19955 0
-244 19955 0
19955 239 240 245 0
-19956 283 284 285 286 0
-283 19956 0
-284 19956 0
-285 19956 0
-286 19956 0
19956 281 282 287 0
-19957 325 326 327 328 0
-325 19957 0
-326 19957 0
-327 19957 0
-328 19957 0
19957 323 324 329 0
-19951 19958 0
-19959 0
-19960 0
-19961 0
-19952 19962 0
-19958 19962 0
-19952 -19958 19963 0
-19959 19963 0
-19952 -19959 19964 0
-19960 19964 0
-19952 -19960 19965 0
-19961 19965 0
-19952 -19961 0
-19953 19966 0
-19962 19966 0
-19953 -19962 19967 0
-19963 19967 0
-19953 -19963 19968 0
-19964 19968 0
-19953 -19964 19969 0
-19965 19969 0
-19953 -19965 0
-19954 19970 0
-19966 19970 0
-19954 -19966 19971 0
-19967 19971 0
-19954 -19967 19972 0
-19968 19972 0
-19954 -19968 19973 0
-19969 19973 0
-19954 -19969 0
-19955 19974 0
-19970 19974 0
-19955 -19970 19975 0
-19971 19975 0
-19955 -19971 19976 0
-19972 19976 0
-19955 -19972 19977 0
-19973 19977 0
-19955 -19973 0
-19956 19978 0
-19974 19978 0
-19956 -19974 19979 0
-19975 19979 0
-19956 -19975 19980 0
-19976 19980 0
-19956 -19976 19981 0
-19977 19981 0
-19956 -19977 0
-19957 -19981 0
-19986 24 25 26 27 28 0
-24 19986 0
-25 19986 0
-26 19986 0
-27 19986 0
-28 19986 0
19986 22 23 0
-19987 66 67 68 69 70 0
-66 19987 0
-67 19987 0
-68 19987 0
-69 19987 0
-70 19987 0
19987 64 65 0
-19988 108 109 110 111 112 0
-108 19988 0
-109 19988 0
-110 19988 0
-111 19988 0
-112 19988 0
19988 106 107 0
-19989 150 151 152 153 154 0
-150 19989 0
-151 19989 0
-152 19989 0
-153 19989 0
-154 19989 0
19989 148 149 0
-19990 241 242 243 244 245 0
-241 19990 0
-242 19990 0
-243 19990 0
-244 19990 0
-245 19990 0
19990 239 240 0
-19991 283 284 285 286 287 0
-283 19991 0
-284 19991 0
-285 19991 0
-286 19991 0
-287 19991 0
19991 281 282 0
-19992 325 326 327 328 329 0
-325 19992 0
-326 19992 0
-327 19992 0
-328 19992 0
-329 19992 0
19992 323 324 0
-19986 19993 0
-19994 0
-19995 0
-19996 0
-19997 0
-19987 19998 0
-19993 19998 0
-19987 -19993 19999 0
-19994 19999 0
-19987 -19994 20000 0
-19995 20000 0
-19987 -19995 20001 0
-19996 20001 0
-19987 -19996 20002 0
-19997 20002 0
-19987 -19997 0
-19988 20003 0
-19998 20003 0
-19988 -19998 20004 0
-19999 20004 0
-19988 -19999 20005 0
-20000 20005 0
-19988 -20000 20006 0
-20001 20006 0
-19988 -20001 20007 0
-20002 20007 0
-19988 -20002 0
-19989 20008 0
-20003 20008 0
-19989 -20003 20009 0
-20004 20009 0
-19989 -20004 20010 0
-20005 20010 0
-19989 -20005 20011 0
-20006 20011 0
-19989 -20006 20012 0
-20007 20012 0
-19989 -20007 0
-19990 20013 0
-20008 20013 0
-19990 -20008 20014 0
-20009 20014 0
-19990 -20009 20015 0
-20010 20015 0
-19990 -20010 20016 0
-20011 20016 0
-19990 -20011 20017 0
-20012 20017 0
-19990 -20012 0
-19991 20018 0
-20013 20018 0
-19991 -20013 20019 0
-20014 20019 0
-19991 -20014 20020 0
-20015 20020 0
-19991 -20015 20021 0
-20016 20021 0
-19991 -20016 20022 0
-20017 20022 0
-19991 -20017 0
-19992 -20022 0
-20028 25 0
-25 20028 0
20028 22 23 24 26 27 28 0
-20029 67 0
-67 20029 0
20029 64 65 66 68 69 70 0
-20030 109 0
-109 20030 0
20030 106 107 108 110 111 112 0
-20031 151 0
-151 20031 0
20031 148 149 150 152 153 154 0
-20032 242 0
-242 20032 0
20032 239 240 241 243 244 245 0
-20033 284 0
-284 20033 0
20033 281 282 283 285 286 287 0
-20034 326 0
-326 20034 0
20034 323 324 325 327 328 329 0
-20028 20035 0
-20029 20036 0
-20035 20036 0
-20029 -20035 0
-20030 20037 0
-20036 20037 0
-20030 -20036 0
-20031 20038 0
-20037 20038 0
-20031 -20037 0
-20032 20039 0
-20038 20039 0
-20032 -20038 0
-20033 20040 0
-20039 20040 0
-20033 -20039 0
-20034 -20040 0
-20042 25 26 0
-25 20042 0
-26 20042 0
20042 22 23 24 27 28 0
-20043 67 68 0
-67 20043 0
-68 20043 0
20043 64 65 66 69 70 0
-20044 109 110 0
-109 20044 0
-110 20044 0
20044 106 107 108 111 112 0
-20045 151 152 0
-151 20045 0
-152 20045 0
20045 148 149 150 153 154 0
-20046 242 243 0
-242 20046 0
-243 20046 0
20046 239 240 241 244 245 0
-20047 284 285 0
-284 20047 0
-285 20047 0
20047 281 282 283 286 287 0
-20048 326 327 0
-326 20048 0
-327 20048 0
20048 323 324 325 328 329 0
-20042 20049 0
-20050 0
-20043 20051 0
-20049 20051 0
-20043 -20049 20052 0
-20050 20052 0
-20043 -20050 0
-20044 20053 0
-20051 20053 0
-20044 -20051 20054 0
-20052 20054 0
-20044 -20052 0
-20045 20055 0
-20053 20055 0
-20045 -20053 20056 0
-20054 20056 0
-20045 -20054 0
-20046 20057 0
-20055 20057 0
-20046 -20055 20058 0
-20056 20058 0
-20046 -20056 0
-20047 20059 0
-20057 20059 0
-20047 -20057 20060 0
-20058 20060 0
-20047 -20058 0
-20048 -20060 0
-20063 25 26 27 0
-25 20063 0
-26 20063 0
-27 20063 0
20063 22 23 24 28 0
-20064 67 68 69 0
-67 20064 0
-68 20064 0
-69 20064 0
20064 64 65 66 70 0
-20065 109 110 111 0
-109 20065 0
-110 20065 0
-111 20065 0
20065 106 107 108 112 0
-20066 151 152 153 0
-151 20066 0
-152 20066 0
-153 20066 0
20066 148 149 150 154 0
-20067 242 243 244 0
-242 20067 0
-243 20067 0
-244 20067 0
20067 239 240 241 245 0
-20068 284 285 286 0
-284 20068 0
-285 20068 0
-286 20068 0
20068 281 282 283 287 0
-20069 326 327 328 0
-326 20069 0
-327 20069 0
-328 20069 0
20069 323 324 325 329 0
-20063 20070 0
-20071 0
-20072 0
-20064 20073 0
-20070 20073 0
-20064 -20070 20074 0
-20071 20074 0
-20064 -20071 20075 0
-20072 20075 0
-20064 -20072 0
-20065 20076 0
-20073 20076 0
-20065 -20073 20077 0
-20074 20077 0
-20065 -20074 20078 0
-20075 20078 0
-20065 -20075 0
-20066 20079 0
-20076 20079 0
-20066 -20076 20080 0
-20077 20080 0
-20066 -20077 20081 0
-20078 20081 0
-20066 -20078 0
-20067 20082 0
-20079 20082 0
-20067 -20079 20083 0
-20080 20083 0
-20067 -20080 20084 0
-20081 20084 0
-20067 -20081 0
-20068 20085 0
-20082 20085 0
-20068 -20082 20086 0
-20083 20086 0
-20068 -20083 20087 0
-20084 20087 0
-20068 -20084 0
-20069 -20087 0
-20091 25 26 27 28 0
-25 20091 0
-26 20091 0
-27 20091 0
-28 20091 0
20091 22 23 24 0
-20092 67 68 69 70 0
-67 20092 0
-68 20092 0
-69 20092 0
-70 20092 0
20092 64 65 66 0
-20093 109 110 111 112 0
-109 20093 0
-110 20093 0
-111 20093 0
-112 20093 0
20093 106 107 108 0
-20094 151 152 153 154 0
-151 20094 0
-152 20094 0
-153 20094 0
-154 20094 0
20094 148 149 150 0
-20095 242 243 244 245 0
-242 20095 0
-243 20095 0
-244 20095 0
-245 20095 0
20095 239 240 241 0
-20096 284 285 286 287 0
-284 20096 0
-285 20096 0
-286 20096 0
-287 20096 0
20096 281 282 283 0
-20097 326 327 328 329 0
-326 20097 0
-327 20097 0
-328 20097 0
-329 20097 0
20097 323 324 325 0
-20091 20098 0
-20099 0
-20100 0
-20101 0
-20092 20102 0
-20098 20102 0
-20092 -20098 20103 0
-20099 20103 0
-20092 -20099 20104 0
-20100 20104 0
-20092 -20100 20105 0
-20101 20105 0
-20092 -20101 0
-20093 20106 0
-20102 20106 0
-20093 -20102 20107 0
-20103 20107 0
-20093 -20103 20108 0
-20104 20108 0
-20093 -20104 20109 0
-20105 20109 0
-20093 -20105 0
-20094 20110 0
-20106 20110 0
-20094 -20106 20111 0
-20107 20111 0
-20094 -20107 20112 0
-20108 20112 0
-20094 -20108 20113 0
-20109 20113 0
-20094 -20109 0
-20095 20114 0
-20110 20114 0
-20095 -20110 20115 0
-20111 20115 0
-20095 -20111 20116 0
-20112 20116 0
-20095 -20112 20117 0
-20113 20117 0
-20095 -20113 0
-20096 20118 0
-20114 20118 0
-20096 -20114 20119 0
-20115 20119 0
-20096 -20115 20120 0
-20116 20120 0
-20096 -20116 20121 0
-20117 20121 0
-20096 -20117 0
-20097 -20121 0
-20126 26 0
-26 20126 0
20126 22 23 24 25 27 28 0
-20127 68 0
-68 20127 0
20127 64 65 66 67 69 70 0
-20128 110 0
-110 20128 0
20128 106 107 108 109 111 112 0
-20129 152 0
-152 20129 0
20129 148 149 150 151 153 154 0
-20130 243 0
-243 20130 0
20130 239 240 241 242 244 245 0
-20131 285 0
-285 20131 0
20131 281 282 283 284 286 287 0
-20132 327 0
-327 20132 0
20132 323 324 325 326 328 329 0
-20126 20133 0
-20127 20134 0
-20133 20134 0
-20127 -20133 0
-20128 20135 0
-20134 20135 0
-20128 -20134 0
-20129 20136 0
-20135 20136 0
-20129 -20135 0
-20130 20137 0
-20136 20137 0
-20130 -20136 0
-20131 20138 0
-20137 20138 0
-20131 -20137 0
-20132 -20138 0
-20140 26 27 0
-26 20140 0
-27 20140 0
20140 22 23 24 25 28 0
-20141 68 69 0
-68 20141 0
-69 20141 0
20141 64 65 66 67 70 0
-20142 110 111 0
-110 20142 0
-111 20142 0
20142 106 107 108 109 112 0
-20143 152 153 0
-152 20143 0
-153 20143 0
20143 148 149 150 151 154 0
-20144 243 244 0
-243 20144 0
-244 20144 0
20144 239 240 241 242 245 0
-20145 285 286 0
-285 20145 0
-286 20145 0
20145 281 282 283 284 287 0
-20146 327 328 0
-327 20146 0
-328 20146 0
20146 323 324 325 326 329 0
-20140 20147 0
-20148 0
-20141 20149 0
-20147 20149 0
-20141 -20147 20150 0
-20148 20150 0
-20141 -20148 0
-20142 20151 0
-20149 20151 0
-20142 -20149 20152 0
-20150 20152 0
-20142 -20150 0
-20143 20153 0
-20151 20153 0
-20143 -20151 20154 0
-20152 20154 0
-20143 -20152 0
-20144 20155 0
-20153 20155 0
-20144 -20153 20156 0
-20154 20156 0
-20144 -20154 0
-20145 20157 0
-20155 20157 0
-20145 -20155 20158 0
-20156 20158 0
-20145 -20156 0
-20146 -20158 0
-20161 26 27 28 0
-26 20161 0
-27 20161 0
-28 20161 0
20161 22 23 24 25 0
-20162 68 69 70 0
-68 20162 0
-69 20162 0
-70 20162 0
20162 64 65 66 67 0
-20163 110 111 112 0
-110 20163 0
-111 20163 0
-112 20163 0
20163 106 107 108 109 0
-20164 152 153 154 0
-152 20164 0
-153 20164 0
-154 20164 0
20164 148 149 150 151 0
-20165 243 244 245 0
-243 20165 0
-244 20165 0
-245 20165 0
20165 239 240 241 242 0
-20166 285 286 287 0
-285 20166 0
-286 20166 0
-287 20166 0
20166 281 282 283 284 0
-20167 327 328 329 0
-327 20167 0
-328 20167 0
-329 20167 0
20167 323 324 325 326 0
-20161 20168 0
-20169 0
-20170 0
-20162 20171 0
-20168 20171 0
-20162 -20168 20172 0
-20169 20172 0
-20162 -20169 20173 0
-20170 20173 0
-20162 -20170 0
-20163 20174 0
-20171 20174 0
-20163 -20171 20175 0
-20172 20175 0
-20163 -20172 20176 0
-20173 20176 0
-20163 -20173 0
-20164 20177 0
-20174 20177 0
-20164 -20174 20178 0
-20175 20178 0
-20164 -20175 20179 0
-20176 20179 0
-20164 -20176 0
-20165 20180 0
-20177 20180 0
-20165 -20177 20181 0
-20178 20181 0
-20165 -20178 20182 0
-20179 20182 0
-20165 -20179 0
-20166 20183 0
-20180 20183 0
-20166 -20180 20184 0
-20181 20184 0
-20166 -20181 20185 0
-20182 20185 0
-20166 -20182 0
-20167 -20185 0
-20189 27 0
-27 20189 0
20189 22 23 24 25 26 28 0
-20190 69 0
-69 20190 0
20190 64 65 66 67 68 70 0
-20191 111 0
-111 20191 0
20191 106 107 108 109 110 112 0
-20192 153 0
-153 20192 0
20192 148 149 150 151 152 154 0
-20193 244 0
-244 20193 0
20193 239 240 241 242 243 245 0
-20194 286 0
-286 20194 0
20194 281 282 283 284 285 287 0
-20195 328 0
-328 20195 0
20195 323 324 325 326 327 329 0
-20189 20196 0
-20190 20197 0
-20196 20197 0
-20190 -20196 0
-20191 20198 0
-20197 20198 0
-20191 -20197 0
-20192 20199 0
-20198 20199 0
-20192 -20198 0
-20193 20200 0
-20199 20200 0
-20193 -20199 0
-20194 20201 0
-20200 20201 0
-20194 -20200 0
-20195 -20201 0
-20203 27 28 0
-27 20203 0
-28 20203 0
20203 22 23 24 25 26 0
-20204 69 70 0
-69 20204 0
-70 20204 0
20204 64 65 66 67 68 0
-20205 111 112 0
-111 20205 0
-112 20205 0
20205 106 107 108 109 110 0
-20206 153 154 0
-153 20206 0
-154 20206 0
20206 148 149 150 151 152 0
-20207 244 245 0
-244 20207 0
-245 20207 0
20207 239 240 241 242 243 0
-20208 286 287 0
-286 20208 0
-287 20208 0
20208 281 282 283 284 285 0
-20209 328 329 0
-328 20209 0
-329 20209 0
20209 323 324 325 326 327 0
-20203 20210 0
-20211 0
-20204 20212 0
-20210 20212 0
-20204 -20210 20213 0
-20211 20213 0
-20204 -20211 0
-20205 20214 0
-20212 20214 0
-20205 -20212 20215 0
-20213 20215 0
-20205 -20213 0
-20206 20216 0
-20214 20216 0
-20206 -20214 20217 0
-20215 20217 0
-20206 -20215 0
-20207 20218 0
-20216 20218 0
-20207 -20216 20219 0
-20217 20219 0
-20207 -20217 0
-20208 20220 0
-20218 20220 0
-20208 -20218 20221 0
-20219 20221 0
-20208 -20219 0
-20209 -20221 0
-20224 28 0
-28 20224 0
20224 22 23 24 25 26 27 0
-20225 70 0
-70 20225 0
20225 64 65 66 67 68 69 0
-20226 112 0
-112 20226 0
20226 106 107 108 109 110 111 0
-20227 154 0
-154 20227 0
20227 148 149 150 151 152 153 0
-20228 245 0
-245 20228 0
20228 239 240 241 242 243 244 0
-20229 287 0
-287 20229 0
20229 281 282 283 284 285 286 0
-20230 329 0
-329 20230 0
20230 323 324 325 326 327 328 0
-20224 20231 0
-20225 20232 0
-20231 20232 0
-20225 -20231 0
-20226 20233 0
-20232 20233 0
-20226 -20232 0
-20227 20234 0
-20233 20234 0
-20227 -20233 0
-20228 20235 0
-20234 20235 0
-20228 -20234 0
-20229 20236 0
-20235 20236 0
-20229 -20235 0
-20230 -20236 0
-22 20238 0
-64 20239 0
-20238 20239 0
-64 -20238 0
-106 20240 0
-20239 20240 0
-106 -20239 0
-148 20241 0
-20240 20241 0
-148 -20240 0
-239 20242 0
-20241 20242 0
-239 -20241 0
-281 20243 0
-20242 20243 0
-281 -20242 0
-323 -20243 0
22 64 106 148 239 281 323 0
-23 20245 0
-65 20246 0
-20245 20246 0
-65 -20245 0
-107 20247 0
-20246 20247 0
-107 -20246 0
-149 20248 0
-20247 20248 0
-149 -20247 0
-240 20249 0
-20248 20249 0
-240 -20248 0
-282 20250 0
-20249 20250 0
-282 -20249 0
-324 -20250 0
23 65 107 149 240 282 324 0
-24 20252 0
-66 20253 0
-20252 20253 0
-66 -20252 0
-108 20254 0
-20253 20254 0
-108 -20253 0
-150 20255 0
-20254 20255 0
-150 -20254 0
-241 20256 0
-20255 20256 0
-241 -20255 0
-283 20257 0
-20256 20257 0
-283 -20256 0
-325 -20257 0
24 66 108 150 241 283 325 0
-25 20259 0
-67 20260 0
-20259 20260 0
-67 -20259 0
-109 20261 0
-20260 20261 0
-109 -20260 0
-151 20262 0
-20261 20262 0
-151 -20261 0
-242 20263 0
-20262 20263 0
-242 -20262 0
-284 20264 0
-20263 20264 0
-284 -20263 0
-326 -20264 0
25 67 109 151 242 284 326 0
-26 20266 0
-68 20267 0
-20266 20267 0
-68 -20266 0
-110 20268 0
-20267 20268 0
-110 -20267 0
-152 20269 0
-20268 20269 0
-152 -20268 0
-243 20270 0
-20269 20270 0
-243 -20269 0
-285 20271 0
-20270 20271 0
-285 -20270 0
-327 -20271 0
26 68 110 152 243 285 327 0
-27 20273 0
-69 20274 0
-20273 20274 0
-69 -20273 0
-111 20275 0
-20274 20275 0
-111 -20274 0
-153 20276 0
-20275 20276 0
-153 -20275 0
-244 20277 0
-20276 20277 0
-244 -20276 0
-286 20278 0
-20277 20278 0
-286 -20277 0
-328 -20278 0
27 69 111 153 244 286 328 0
-28 20280 0
-70 20281 0
-20280 20281 0
-70 -20280 0
-112 20282 0
-20281 20282 0
-112 -20281 0
-154 20283 0
-20282 20283 0
-154 -20282 0
-245 20284 0
-20283 20284 0
-245 -20283 0
-287 20285 0
-20284 20285 0
-287 -20284 0
-329 -20285 0
28 70 112 154 245 287 329 0
-20287 29 0
-29 20287 0
20287 30 31 32 33 34 35 0
-20288 71 0
-71 20288 0
20288 72 73 74 75 76 77 0
-20289 113 0
-113 20289 0
20289 114 115 116 117 118 119 0
-20290 155 0
-155 20290 0
20290 156 157 158 159 160 161 0
-20291 197 0
-197 20291 0
20291 198 199 200 201 202 203 0
-20292 288 0
-288 20292 0
20292 289 290 291 292 293 294 0
-20293 330 0
-330 20293 0
20293 331 332 333 334 335 336 0
-20287 20294 0
-20288 20295 0
-20294 20295 0
-20288 -20294 0
-20289 20296 0
-20295 20296 0
-20289 -20295 0
-20290 20297 0
-20296 20297 0
-20290 -20296 0
-20291 20298 0
-20297 20298 0
-20291 -20297 0
-20292 20299 0
-20298 20299 0
-20292 -20298 0
-20293 -20299 0
-20301 29 30 0
-29 20301 0
-30 20301 0
20301 31 32 33 34 35 0
-20302 71 72 0
-71 20302 0
-72 20302 0
20302 73 74 75 76 77 0
-20303 113 114 0
-113 20303 0
-114 20303 0
20303 115 116 117 118 119 0
-20304 155 156 0
-155 20304 0
-156 20304 0
20304 157 158 159 160 161 0
-20305 197 198 0
-197 20305 0
-198 20305 0
20305 199 200 201 202 203 0
-20306 288 289 0
-288 20306 0
-289 20306 0
20306 290 291 292 293 294 0
-20307 330 331 0
-330 20307 0
-331 20307 0
20307 332 333 334 335 336 0
-20301 20308 0
-20309 0
-20302 20310 0
-20308 20310 0
-20302 -20308 20311 0
-20309 20311 0
-20302 -20309 0
-20303 20312 0
-20310 20312 0
-20303 -20310 20313 0
-20311 20313 0
-20303 -20311 0
-20304 20314 0
-20312 20314 0
-20304 -20312 20315 0
-20313 20315 0
-20304 -20313 0
-20305 20316 0
-20314 20316 0
-20305 -20314 20317 0
-20315 20317 0
-20305 -20315 0
-20306 20318 0
-20316 20318 0
-20306 -20316 20319 0
-20317 20319 0
-20306 -20317 0
-20307 -20319 0
-20322 29 30 31 0
-29 20322 0
-30 20322 0
-31 20322 0
20322 32 33 34 35 0
-20323 71 72 73 0
-71 20323 0
-72 20323 0
-73 20323 0
20323 74 75 76 77 0
-20324 113 114 115 0
-113 20324 0
-114 20324 0
-115 20324 0
20324 116 117 118 119 0
-20325 155 156 157 0
-155 20325 0
-156 20325 0
-157 20325 0
20325 158 159 160 161 0
-20326 197 198 199 0
-197 20326 0
-198 20326 0
-199 20326 0
20326 200 201 202 203 0
-20327 288 289 290 0
-288 20327 0
-289 20327 0
-290 20327 0
20327 291 292 293 294 0
-20328 330 331 332 0
-330 20328 0
-331 20328 0
-332 20328 0
20328 333 334 335 336 0
-20322 20329 0
-20330 0
-20331 0
-20323 20332 0
-20329 20332 0
-20323 -20329 20333 0
-20330 20333 0
-20323 -20330 20334 0
-20331 20334 0
-20323 -20331 0
-20324 20335 0
-20332 20335 0
-20324 -20332 20336 0
-20333 20336 0
-20324 -20333 20337 0
-20334 20337 0
-20324 -20334 0
-20325 20338 0
-20335 20338 0
-20325 -20335 20339 0
-20336 20339 0
-20325 -20336 20340 0
-20337 20340 0
-20325 -20337 0
-20326 20341 0
-20338 20341 0
-20326 -20338 20342 0
-20339 20342 0
-20326 -20339 20343 0
-20340 20343 0
-20326 -20340 0
-20327 20344 0
-20341 20344 0
-20327 -20341 20345 0
-20342 20345 0
-20327 -20342 20346 0
-20343 20346 0
-20327 -20343 0
-20328 -20346 0
-20350 29 30 31 32 0
-29 20350 0
-30 20350 0
-31 20350 0
-32 20350 0
20350 33 34 35 0
-20351 71 72 73 74 0
-71 20351 0
-72 20351 0
-73 20351 0
-74 20351 0
20351 75 76 77 0
-20352 113 114 115 116 0
-113 20352 0
-114 20352 0
-115 20352 0
-116 20352 0
20352 117 118 119 0
-20353 155 156 157 158 0
-155 20353 0
-156 20353 0
-157 20353 0
-158 20353 0
20353 159 160 161 0
-20354 197 198 199 200 0
-197 20354 0
-198 20354 0
-199 20354 0
-200 20354 0
20354 201 202 203 0
-20355 288 289 290 291 0
-288 20355 0
-289 20355 0
-290 20355 0
-291 20355 0
20355 292 293 294 0
-20356 330 331 332 333 0
-330 20356 0
-331 20356 0
-332 20356 0
-333 20356 0
20356 334 335 336 0
-20350 20357 0
-20358 0
-20359 0
-20360 0
-20351 20361 0
-20357 20361 0
-20351 -20357 20362 0
-20358 20362 0
-20351 -20358 20363 0
-20359 20363 0
-20351 -20359 20364 0
-20360 20364 0
-20351 -20360 0
-20352 20365 0
-20361 20365 0
-20352 -20361 20366 0
-20362 20366 0
-20352 -20362 20367 0
-20363 20367 0
-20352 -20363 20368 0
-20364 20368 0
-20352 -20364 0
-20353 20369 0
-20365 20369 0
-20353 -20365 20370 0
-20366 20370 0
-20353 -20366 20371 0
-20367 20371 0
-20353 -20367 20372 0
-20368 20372 0
-20353 -20368 0
-20354 20373 0
-20369 20373 0
-20354 -20369 20374 0
-20370 20374 0
-20354 -20370 20375 0
-20371 20375 0
-20354 -20371 20376 0
-20372 20376 0
-20354 -20372 0
-20355 20377 0
-20373 20377 0
-20355 -20373 20378 0
-20374 20378 0
-20355 -20374 20379 0
-20375 20379 0
-20355 -20375 20380 0
-20376 20380 0
-20355 -20376 0
-20356 -20380 0
-20385 29 30 31 32 33 0
-29 20385 0
-30 20385 0
-31 20385 0
-32 20385 0
-33 20385 0
20385 34 35 0
-20386 71 72 73 74 75 0
-71 20386 0
-72 20386 0
-73 20386 0
-74 20386 0
-75 20386 0
20386 76 77 0
-20387 113 114 115 116 117 0
-113 20387 0
-114 20387 0
-115 20387 0
-116 20387 0
-117 20387 0
20387 118 119 0
-20388 155 156 157 158 159 0
-155 20388 0
-156 20388 0
-157 20388 0
-158 20388 0
-159 20388 0
20388 160 161 0
-20389 197 198 199 200 201 0
-197 20389 0
-198 20389 0
-199 20389 0
-200 20389 0
-201 20389 0
20389 202 203 0
-20390 288 289 290 291 292 0
-288 20390 0
-289 20390 0
-290 20390 0
-291 20390 0
-292 20390 0
20390 293 294 0
-20391 330 331 332 333 334 0
-330 20391 0
-331 20391 0
-332 20391 0
-333 20391 0
-334 20391 0
20391 335 336 0
-20385 20392 0
-20393 0
-20394 0
-20395 0
-20396 0
-20386 20397 0
-20392 20397 0
-20386 -20392 20398 0
-20393 20398 0
-20386 -20393 20399 0
-20394 20399 0
-20386 -20394 20400 0
-20395 20400 0
-20386 -20395 20401 0
-20396 20401 0
-20386 -20396 0
-20387 20402 0
-20397 20402 0
-20387 -20397 20403 0
-20398 20403 0
-20387 -20398 20404 0
-20399 20404 0
-20387 -20399 20405 0
-20400 20405 0
-20387 -20400 20406 0
-20401 20406 0
-20387 -20401 0
-20388 20407 0
-20402 20407 0
-20388 -20402 20408 0
-20403 20408 0
-20388 -20403 20409 0
-20404 20409 0
-20388 -20404 20410 0
-20405 20410 0
-20388 -20405 20411 0
-20406 20411 0
-20388 -20406 0
-20389 20412 0
-20407 20412 0
-20389 -20407 20413 0
-20408 20413 0
-20389 -20408 20414 0
-20409 20414 0
-20389 -20409 20415 0
-20410 20415 0
-20389 -20410 20416 0
-20411 20416 0
-20389 -20411 0
-20390 20417 0
-20412 20417 0
-20390 -20412 20418 0
-20413 20418 0
-20390 -20413 20419 0
-20414 20419 0
-20390 -20414 20420 0
-20415 20420 0
-20390 -20415 20421 0
-20416 20421 0
-20390 -20416 0
-20391 -20421 0
-20427 29 30 31 32 33 34 0
-29 20427 0
-30 20427 0
-31 20427 0
-32 20427 0
-33 20427 0
-34 20427 0
20427 35 0
-20428 71 72 73 74 75 76 0
-71 20428 0
-72 20428 0
-73 20428 0
-74 20428 0
-75 20428 0
-76 20428 0
20428 77 0
-20429 113 114 115 116 117 118 0
-113 20429 0
-114 20429 0
-115 20429 0
-116 20429 0
-117 20429 0
-118 20429 0
20429 119 0
-20430 155 156 157 158 159 160 0
-155 20430 0
-156 20430 0
-157 20430 0
-158 20430 0
-159 20430 0
-160 20430 0
20430 161 0
-20431 197 198 199 200 201 202 0
-197 20431 0
-198 20431 0
-199 20431 0
-200 20431 0
-201 20431 0
-202 20431 0
20431 203 0
-20432 288 289 290 291 292 293 0
-288 20432 0
-289 20432 0
-290 20432 0
-291 20432 0
-292 20432 0
-293 20432 0
20432 294 0
-20433 330 331 332 333 334 335 0
-330 20433 0
-331 20433 0
-332 20433 0
-333 20433 0
-334 20433 0
-335 20433 0
20433 336 0
-20427 20434 0
-20435 0
-20436 0
-20437 0
-20438 0
-20439 0
-20428 20440 0
-20434 20440 0
-20428 -20434 20441 0
-20435 20441 0
-20428 -20435 20442 0
-20436 20442 0
-20428 -20436 20443 0
-20437 20443 0
-20428 -20437 20444 0
-20438 20444 0
-20428 -20438 20445 0
-20439 20445 0
-20428 -20439 0
-20429 20446 0
-20440 20446 0
-20429 -20440 20447 0
-20441 20447 0
-20429 -20441 20448 0
-20442 20448 0
-20429 -20442 20449 0
-20443 20449 0
-20429 -20443 20450 0
-20444 20450 0
-20429 -20444 20451 0
-20445 20451 0
-20429 -20445 0
-20430 20452 0
-20446 20452 0
-20430 -20446 20453 0
-20447 20453 0
-20430 -20447 20454 0
-20448 20454 0
-20430 -20448 20455 0
-20449 20455 0
-20430 -20449 20456 0
-20450 20456 0
-20430 -20450 20457 0
-20451 20457 0
-20430 -20451 0
-20431 20458 0
-20452 20458 0
-20431 -20452 20459 0
-20453 20459 0
-20431 -20453 20460 0
-20454 20460 0
-20431 -20454 20461 0
-20455 20461 0
-20431 -20455 20462 0
-20456 20462 0
-20431 -20456 20463 0
-20457 20463 0
-20431 -20457 0
-20432 20464 0
-20458 20464 0
-20432 -20458 20465 0
-20459 20465 0
-20432 -20459 20466 0
-20460 20466 0
-20432 -20460 20467 0
-20461 20467 0
-20432 -20461 20468 0
-20462 20468 0
-20432 -20462 20469 0
-20463 20469 0
-20432 -20463 0
-20433 -20469 0
-20476 29 30 31 32 33 34 35 0
-29 20476 0
-30 20476 0
-31 20476 0
-32 20476 0
-33 20476 0
-34 20476 0
-35 20476 0
20476 0
-20477 71 72 73 74 75 76 77 0
-71 20477 0
-72 20477 0
-73 20477 0
-74 20477 0
-75 20477 0
-76 20477 0
-77 20477 0
20477 0
-20478 113 114 115 116 117 118 119 0
-113 20478 0
-114 20478 0
-115 20478 0
-116 20478 0
-117 20478 0
-118 20478 0
-119 20478 0
20478 0
-20479 155 156 157 158 159 160 161 0
-155 20479 0
-156 20479 0
-157 20479 0
-158 20479 0
-159 20479 0
-160 20479 0
-161 20479 0
20479 0
-20480 197 198 199 200 201 202 203 0
-197 20480 0
-198 20480 0
-199 20480 0
-200 20480 0
-201 20480 0
-202 20480 0
-203 20480 0
20480 0
-20481 288 289 290 291 292 293 294 0
-288 20481 0
-289 20481 0
-290 20481 0
-291 20481 0
-292 20481 0
-293 20481 0
-294 20481 0
20481 0
-20482 330 331 332 333 334 335 336 0
-330 20482 0
-331 20482 0
-332 20482 0
-333 20482 0
-334 20482 0
-335 20482 0
-336 20482 0
20482 0
-20483 30 0
-30 20483 0
20483 29 31 32 33 34 35 0
-20484 72 0
-72 20484 0
20484 71 73 74 75 76 77 0
-20485 114 0
-114 20485 0
20485 113 115 116 117 118 119 0
-20486 156 0
-156 20486 0
20486 155 157 158 159 160 161 0
-20487 198 0
-198 20487 0
20487 197 199 200 201 202 203 0
-20488 289 0
-289 20488 0
20488 288 290 291 292 293 294 0
-20489 331 0
-331 20489 0
20489 330 332 333 334 335 336 0
-20483 20490 0
-20484 20491 0
-20490 20491 0
-20484 -20490 0
-20485 20492 0
-20491 20492 0
-20485 -20491 0
-20486 20493 0
-20492 20493 0
-20486 -20492 0
-20487 20494 0
-20493 20494 0
-20487 -20493 0
-20488 20495 0
-20494 20495 0
-20488 -20494 0
-20489 -20495 0
-20497 30 31 0
-30 20497 0
-31 20497 0
20497 29 32 33 34 35 0
-20498 72 73 0
-72 20498 0
-73 20498 0
20498 71 74 75 76 77 0
-20499 114 115 0
-114 20499 0
-115 20499 0
20499 113 116 117 118 119 0
-20500 156 157 0
-156 20500 0
-157 20500 0
20500 155 158 159 160 161 0
-20501 198 199 0
-198 20501 0
-199 20501 0
20501 197 200 201 202 203 0
-20502 289 290 0
-289 20502 0
-290 20502 0
20502 288 291 292 293 294 0
-20503 331 332 0
-331 20503 0
-332 20503 0
20503 330 333 334 335 336 0
-20497 20504 0
-20505 0
-20498 20506 0
-20504 20506 0
-20498 -20504 20507 0
-20505 20507 0
-20498 -20505 0
-20499 20508 0
-20506 20508 0
-20499 -20506 20509 0
-20507 20509 0
-20499 -20507 0
-20500 20510 0
-20508 20510 0
-20500 -20508 20511 0
-20509 20511 0
-20500 -20509 0
-20501 20512 0
-20510 20512 0
-20501 -20510 20513 0
-20511 20513 0
-20501 -20511 0
-20502 20514 0
-20512 20514 0
-20502 -20512 20515 0
-20513 20515 0
-20502 -20513 0
-20503 -20515 0
-20518 30 31 32 0
-30 20518 0
-31 20518 0
-32 20518 0
20518 29 33 34 35 0
-20519 72 73 74 0
-72 20519 0
-73 20519 0
-74 20519 0
20519 71 75 76 77 0
-20520 114 115 116 0
-114 20520 0
-115 20520 0
-116 20520 0
20520 113 117 118 119 0
-20521 156 157 158 0
-156 20521 0
-157 20521 0
-158 20521 0
20521 155 159 160 161 0
-20522 198 199 200 0
-198 20522 0
-199 20522 0
-200 20522 0
20522 197 201 202 203 0
-20523 289 290 291 0
-289 20523 0
-290 20523 0
-291 20523 0
20523 288 292 293 294 0
-20524 331 332 333 0
-331 20524 0
-332 20524 0
-333 20524 0
20524 330 334 335 336 0
-20518 20525 0
-20526 0
-20527 0
-20519 20528 0
-20525 20528 0
-20519 -20525 20529 0
-20526 20529 0
-20519 -20526 20530 0
-20527 20530 0
-20519 -20527 0
-20520 20531 0
-20528 20531 0
-20520 -20528 20532 0
-20529 20532 0
-20520 -20529 20533 0
-20530 20533 0
-20520 -20530 0
-20521 20534 0
-20531 20534 0
-20521 -20531 20535 0
-20532 20535 0
-20521 -20532 20536 0
-20533 20536 0
-20521 -20533 0
-20522 20537 0
-20534 20537 0
-20522 -20534 20538 0
-20535 20538 0
-20522 -20535 20539 0
-20536 20539 0
-20522 -20536 0
-20523 20540 0
-20537 20540 0
-20523 -20537 20541 0
-20538 20541 0
-20523 -20538 20542 0
-20539 20542 0
-20523 -20539 0
-20524 -20542 0
-20546 30 31 32 33 0
-30 20546 0
-31 20546 0
-32 20546 0
-33 20546 0
20546 29 34 35 0
-20547 72 73 74 75 0
-72 20547 0
-73 20547 0
-74 20547 0
-75 20547 0
20547 71 76 77 0
-20548 114 115 116 117 0
-114 20548 0
-115 20548 0
-116 20548 0
-117 20548 0
20548 113 118 119 0
-20549 156 157 158 159 0
-156 20549 0
-157 20549 0
-158 20549 0
-159 20549 0
20549 155 160 161 0
-20550 198 199 200 201 0
-198 20550 0
-199 20550 0
-200 20550 0
-201 20550 0
20550 197 202 203 0
-20551 289 290 291 292 0
-289 20551 0
-290 20551 0
-291 20551 0
-292 20551 0
20551 288 293 294 0
-20552 331 332 333 334 0
-331 20552 0
-332 20552 0
-333 20552 0
-334 20552 0
20552 330 335 336 0
-20546 20553 0
-20554 0
-20555 0
-20556 0
-20547 20557 0
-20553 20557 0
-20547 -20553 20558 0
-20554 20558 0
-20547 -20554 20559 0
-20555 20559 0
-20547 -20555 20560 0
-20556 20560 0
-20547 -20556 0
-20548 20561 0
-20557 20561 0
-20548 -20557 20562 0
-20558 20562 0
-20548 -20558 20563 0
-20559 20563 0
-20548 -20559 20564 0
-20560 20564 0
-20548 -20560 0
-20549 20565 0
-20561 20565 0
-20549 -20561 20566 0
-20562 20566 0
-20549 -20562 20567 0
-20563 20567 0
-20549 -20563 20568 0
-20564 20568 0
-20549 -20564 0
-20550 20569 0
-20565 20569 0
-20550 -20565 20570 0
-20566 20570 0
-20550 -20566 20571 0
-20567 20571 0
-20550 -20567 20572 0
-20568 20572 0
-20550 -20568 0
-20551 20573 0
-20569 20573 0
-20551 -20569 20574 0
-20570 20574 0
-20551 -20570 20575 0
-20571 20575 0
-20551 -20571 20576 0
-20572 20576 0
-20551 -20572 0
-20552 -20576 0
-20581 30 31 32 33 34 0
-30 20581 0
-31 20581 0
-32 20581 0
-33 20581 0
-34 20581 0
20581 29 35 0
-20582 72 73 74 75 76 0
-72 20582 0
-73 20582 0
-74 20582 0
-75 20582 0
-76 20582 0
20582 71 77 0
-20583 114 115 116 117 118 0
-114 20583 0
-115 20583 0
-116 20583 0
-117 20583 0
-118 20583 0
20583 113 119 0
-20584 156 157 158 159 160 0
-156 20584 0
-157 20584 0
-158 20584 0
-159 20584 0
-160 20584 0
20584 155 161 0
-20585 198 199 200 201 202 0
-198 20585 0
-199 20585 0
-200 20585 0
-201 20585 0
-202 20585 0
20585 197 203 0
-20586 289 290 291 292 293 0
-289 20586 0
-290 20586 0
-291 20586 0
-292 20586 0
-293 20586 0
20586 288 294 0
-20587 331 332 333 334 335 0
-331 20587 0
-332 20587 0
-333 20587 0
-334 20587 0
-335 20587 0
20587 330 336 0
-20581 20588 0
-20589 0
-20590 0
-20591 0
-20592 0
-20582 20593 0
-20588 20593 0
-20582 -20588 20594 0
-20589 20594 0
-20582 -20589 20595 0
-20590 20595 0
-20582 -20590 20596 0
-20591 20596 0
-20582 -20591 20597 0
-20592 20597 0
-20582 -20592 0
-20583 20598 0
-20593 20598 0
-20583 -20593 20599 0
-20594 20599 0
-20583 -20594 20600 0
-20595 20600 0
-20583 -20595 20601 0
-20596 20601 0
-20583 -20596 20602 0
-20597 20602 0
-20583 -20597 0
-20584 20603 0
-20598 20603 0
-20584 -20598 20604 0
-20599 20604 0
-20584 -20599 20605 0
-20600 20605 0
-20584 -20600 20606 0
-20601 20606 0
-20584 -20601 20607 0
-20602 20607 0
-20584 -20602 0
-20585 20608 0
-20603 20608 0
-20585 -20603 20609 0
-20604 20609 0
-20585 -20604 20610 0
-20605 20610 0
-20585 -20605 20611 0
-20606 20611 0
-20585 -20606 20612 0
-20607 20612 0
-20585 -20607 0
-20586 20613 0
-20608 20613 0
-20586 -20608 20614 0
-20609 20614 0
-20586 -20609 20615 0
-20610 20615 0
-20586 -20610 20616 0
-20611 20616 0
-20586 -20611 20617 0
-20612 20617 0
-20586 -20612 0
-20587 -20617 0
-20623 30 31 32 33 34 35 0
-30 20623 0
-31 20623 0
-32 20623 0
-33 20623 0
-34 20623 0
-35 20623 0
20623 29 0
-20624 72 73 74 75 76 77 0
-72 20624 0
-73 20624 0
-74 20624 0
-75 20624 0
-76 20624 0
-77 20624 0
20624 71 0
-20625 114 115 116 117 118 119 0
-114 20625 0
-115 20625 0
-116 20625 0
-117 20625 0
-118 20625 0
-119 20625 0
20625 113 0
-20626 156 157 158 159 160 161 0
-156 20626 0
-157 20626 0
-158 20626 0
-159 20626 0
-160 20626 0
-161 20626 0
20626 155 0
-20627 198 199 200 201 202 203 0
-198 20627 0
-199 20627 0
-200 20627 0
-201 20627 0
-202 20627 0
-203 20627 0
20627 197 0
-20628 289 290 291 292 293 294 0
-289 20628 0
-290 20628 0
-291 20628 0
-292 20628 0
-293 20628 0
-294 20628 0
20628 288 0
-20629 331 332 333 334 335 336 0
-331 20629 0
-332 20629 0
-333 20629 0
-334 20629 0
-335 20629 0
-336 20629 0
20629 330 0
-20623 20630 0
-20631 0
-20632 0
-20633 0
-20634 0
-20635 0
-20624 20636 0
-20630 20636 0
-20624 -20630 20637 0
-20631 20637 0
-20624 -20631 20638 0
-20632 20638 0
-20624 -20632 20639 0
-20633 20639 0
-20624 -20633 20640 0
-20634 20640 0
-20624 -20634 20641 0
-20635 20641 0
-20624 -20635 0
-20625 20642 0
-20636 20642 0
-20625 -20636 20643 0
-20637 20643 0
-20625 -20637 20644 0
-20638 20644 0
-20625 -20638 20645 0
-20639 20645 0
-20625 -20639 20646 0
-20640 20646 0
-20625 -20640 20647 0
-20641 20647 0
-20625 -20641 0
-20626 20648 0
-20642 20648 0
-20626 -20642 20649 0
-20643 20649 0
-20626 -20643 20650 0
-20644 20650 0
-20626 -20644 20651 0
-20645 20651 0
-20626 -20645 20652 0
-20646 20652 0
-20626 -20646 20653 0
-20647 20653 0
-20626 -20647 0
-20627 20654 0
-20648 20654 0
-20627 -20648 20655 0
-20649 20655 0
-20627 -20649 20656 0
-20650 20656 0
-20627 -20650 20657 0
-20651 20657 0
-20627 -20651 20658 0
-20652 20658 0
-20627 -20652 20659 0
-20653 20659 0
-20627 -20653 0
-20628 20660 0
-20654 20660 0
-20628 -20654 20661 0
-20655 20661 0
-20628 -20655 20662 0
-20656 20662 0
-20628 -20656 20663 0
-20657 20663 0
-20628 -20657 20664 0
-20658 20664 0
-20628 -20658 20665 0
-20659 20665 0
-20628 -20659 0
-20629 -20665 0
-20672 31 0
-31 20672 0
20672 29 30 32 33 34 35 0
-20673 73 0
-73 20673 0
20673 71 72 74 75 76 77 0
-20674 115 0
-115 20674 0
20674 113 114 116 117 118 119 0
-20675 157 0
-157 20675 0
20675 155 156 158 159 160 161 0
-20676 199 0
-199 20676 0
20676 197 198 200 201 202 203 0
-20677 290 0
-290 20677 0
20677 288 289 291 292 293 294 0
-20678 332 0
-332 20678 0
20678 330 331 333 334 335 336 0
-20672 20679 0
-20673 20680 0
-20679 20680 0
-20673 -20679 0
-20674 20681 0
-20680 20681 0
-20674 -20680 0
-20675 20682 0
-20681 20682 0
-20675 -20681 0
-20676 20683 0
-20682 20683 0
-20676 -20682 0
-20677 20684 0
-20683 20684 0
-20677 -20683 0
-20678 -20684 0
-20686 31 32 0
-31 20686 0
-32 20686 0
20686 29 30 33 34 35 0
-20687 73 74 0
-73 20687 0
-74 20687 0
20687 71 72 75 76 77 0
-20688 115 116 0
-115 20688 0
-116 20688 0
20688 113 114 117 118 119 0
-20689 157 158 0
-157 20689 0
-158 20689 0
20689 155 156 159 160 161 0
-20690 199 200 0
-199 20690 0
-200 20690 0
20690 197 198 201 202 203 0
-20691 290 291 0
-290 20691 0
-291 20691 0
20691 288 289 292 293 294 0
-20692 332 333 0
-332 20692 0
-333 20692 0
20692 330 331 334 335 336 0
-20686 20693 0
-20694 0
-20687 20695 0
-20693 20695 0
-20687 -20693 20696 0
-20694 20696 0
-20687 -20694 0
-20688 20697 0
-20695 20697 0
-20688 -20695 20698 0
-20696 20698 0
-20688 -20696 0
-20689 20699 0
-20697 20699 0
-20689 -20697 20700 0
-20698 20700 0
-20689 -20698 0
-20690 20701 0
-20699 20701 0
-20690 -20699 20702 0
-20700 20702 0
-20690 -20700 0
-20691 20703 0
-20701 20703 0
-20691 -20701 20704 0
-20702 20704 0
-20691 -20702 0
-20692 -20704 0
-20707 31 32 33 0
-31 20707 0
-32 20707 0
-33 20707 0
20707 29 30 34 35 0
-20708 73 74 75 0
-73 20708 0
-74 20708 0
-75 20708 0
20708 71 72 76 77 0
-20709 115 116 117 0
-115 20709 0
-116 20709 0
-117 20709 0
20709 113 114 118 119 0
-20710 157 158 159 0
-157 20710 0
-158 20710 0
-159 20710 0
20710 155 156 160 161 0
-20711 199 200 201 0
-199 20711 0
-200 20711 0
-201 20711 0
20711 197 198 202 203 0
-20712 290 291 292 0
-290 20712 0
-291 20712 0
-292 20712 0
20712 288 289 293 294 0
-20713 332 333 334 0
-332 20713 0
-333 20713 0
-334 20713 0
20713 330 331 335 336 0
-20707 20714 0
-20715 0
-20716 0
-20708 20717 0
-20714 20717 0
-20708 -20714 20718 0
-20715 20718 0
-20708 -20715 20719 0
-20716 20719 0
-20708 -20716 0
-20709 20720 0
-20717 20720 0
-20709 -20717 20721 0
-20718 20721 0
-20709 -20718 20722 0
-20719 20722 0
-20709 -20719 0
-20710 20723 0
-20720 20723 0
-20710 -20720 20724 0
-20721 20724 0
-20710 -20721 20725 0
-20722 20725 0
-20710 -20722 0
-20711 20726 0
-20723 20726 0
-20711 -20723 20727 0
-20724 20727 0
-20711 -20724 20728 0
-20725 20728 0
-20711 -20725 0
-20712 20729 0
-20726 20729 0
-20712 -20726 20730 0
-20727 20730 0
-20712 -20727 20731 0
-20728 20731 0
-20712 -20728 0
-20713 -20731 0
-20735 31 32 33 34 0
-31 20735 0
-32 20735 0
-33 20735 0
-34 20735 0
20735 29 30 35 0
-20736 73 74 75 76 0
-73 20736 0
-74 20736 0
-75 20736 0
-76 20736 0
20736 71 72 77 0
-20737 115 116 117 118 0
-115 20737 0
-116 20737 0
-117 20737 0
-118 20737 0
20737 113 114 119 0
-20738 157 158 159 160 0
-157 20738 0
-158 20738 0
-159 20738 0
-160 20738 0
20738 155 156 161 0
-20739 199 200 201 202 0
-199 20739 0
-200 20739 0
-201 20739 0
-202 20739 0
20739 197 198 203 0
-20740 290 291 292 293 0
-290 20740 0
-291 20740 0
-292 20740 0
-293 20740 0
20740 288 289 294 0
-20741 332 333 334 335 0
-332 20741 0
-333 20741 0
-334 20741 0
-335 20741 0
20741 330 331 336 0
-20735 20742 0
-20743 0
-20744 0
-20745 0
-20736 20746 0
-20742 20746 0
-20736 -20742 20747 0
-20743 20747 0
-20736 -20743 20748 0
-20744 20748 0
-20736 -20744 20749 0
-20745 20749 0
-20736 -20745 0
-20737 20750 0
-20746 20750 0
-20737 -20746 20751 0
-20747 20751 0
-20737 -20747 20752 0
-20748 20752 0
-20737 -20748 20753 0
-20749 20753 0
-20737 -20749 0
-20738 20754 0
-20750 20754 0
-20738 -20750 20755 0
-20751 20755 0
-20738 -20751 20756 0
-20752 20756 0
-20738 -20752 20757 0
-20753 20757 0
-20738 -20753 0
-20739 20758 0
-20754 20758 0
-20739 -20754 20759 0
-20755 20759 0
-20739 -20755 20760 0
-20756 20760 0
-20739 -20756 20761 0
-20757 20761 0
-20739 -20757 0
-20740 20762 0
-20758 20762 0
-20740 -20758 20763 0
-20759 20763 0
-20740 -20759 20764 0
-20760 20764 0
-20740 -20760 20765 0
-20761 20765 0
-20740 -20761 0
-20741 -20765 0
-20770 31 32 33 34 35 0
-31 20770 0
-32 20770 0
-33 20770 0
-34 20770 0
-35 20770 0
20770 29 30 0
-20771 73 74 75 76 77 0
-73 20771 0
-74 20771 0
-75 20771 0
-76 20771 0
-77 20771 0
20771 71 72 0
-20772 115 116 117 118 119 0
-115 20772 0
-116 20772 0
-117 20772 0
-118 20772 0
-119 20772 0
20772 113 114 0
-20773 157 158 159 160 161 0
-157 20773 0
-158 20773 0
-159 20773 0
-160 20773 0
-161 20773 0
20773 155 156 0
-20774 199 200 201 202 203 0
-199 20774 0
-200 20774 0
-201 20774 0
-202 20774 0
-203 20774 0
20774 197 198 0
-20775 290 291 292 293 294 0
-290 20775 0
-291 20775 0
-292 20775 0
-293 20775 0
-294 20775 0
20775 288 289 0
-20776 332 333 334 335 336 0
-332 20776 0
-333 20776 0
-334 20776 0
-335 20776 0
-336 20776 0
20776 330 331 0
-20770 20777 0
-20778 0
-20779 0
-20780 0
-20781 0
-20771 20782 0
-20777 20782 0
-20771 -20777 20783 0
-20778 20783 0
-20771 -20778 20784 0
-20779 20784 0
-20771 -20779 20785 0
-20780 20785 0
-20771 -20780 20786 0
-20781 20786 0
-20771 -20781 0
-20772 20787 0
-20782 20787 0
-20772 -20782 20788 0
-20783 20788 0
-20772 -20783 20789 0
-20784 20789 0
-20772 -20784 20790 0
-20785 20790 0
-20772 -20785 20791 0
-20786 20791 0
-20772 -20786 0
-20773 20792 0
-20787 20792 0
-20773 -20787 20793 0
-20788 20793 0
-20773 -20788 20794 0
-20789 20794 0
-20773 -20789 20795 0
-20790 20795 0
-20773 -20790 20796 0
-20791 20796 0
-20773 -20791 0
-20774 20797 0
-20792 20797 0
-20774 -20792 20798 0
-20793 20798 0
-20774 -20793 20799 0
-20794 20799 0
-20774 -20794 20800 0
-20795 20800 0
-20774 -20795 20801 0
-20796 20801 0
-20774 -20796 0
-20775 20802 0
-20797 20802 0
-20775 -20797 20803 0
-20798 20803 0
-20775 -20798 20804 0
-20799 20804 0
-20775 -20799 20805 0
-20800 20805 0
-20775 -20800 20806 0
-20801 20806 0
-20775 -20801 0
-20776 -20806 0
-20812 32 0
-32 20812 0
20812 29 30 31 33 34 35 0
-20813 74 0
-74 20813 0
20813 71 72 73 75 76 77 0
-20814 116 0
-116 20814 0
20814 113 114 115 117 118 119 0
-20815 158 0
-158 20815 0
20815 155 156 157 159 160 161 0
-20816 200 0
-200 20816 0
20816 197 198 199 201 202 203 0
-20817 291 0
-291 20817 0
20817 288 289 290 292 293 294 0
-20818 333 0
-333 20818 0
20818 330 331 332 334 335 336 0
-20812 20819 0
-20813 20820 0
-20819 20820 0
-20813 -20819 0
-20814 20821 0
-20820 20821 0
-20814 -20820 0
-20815 20822 0
-20821 20822 0
-20815 -20821 0
-20816 20823 0
-20822 20823 0
-20816 -20822 0
-20817 20824 0
-20823 20824 0
-20817 -20823 0
-20818 -20824 0
-20826 32 33 0
-32 20826 0
-33 20826 0
20826 29 30 31 34 35 0
-20827 74 75 0
-74 20827 0
-75 20827 0
20827 71 72 73 76 77 0
-20828 116 117 0
-116 20828 0
-117 20828 0
20828 113 114 115 118 119 0
-20829 158 159 0
-158 20829 0
-159 20829 0
20829 155 156 157 160 161 0
-20830 200 201 0
-200 20830 0
-201 20830 0
20830 197 198 199 202 203 0
-20831 291 292 0
-291 20831 0
-292 20831 0
20831 288 289 290 293 294 0
-20832 333 334 0
-333 20832 0
-334 20832 0
20832 330 331 332 335 336 0
-20826 20833 0
-20834 0
-20827 20835 0
-20833 20835 0
-20827 -20833 20836 0
-20834 20836 0
-20827 -20834 0
-20828 20837 0
-20835 20837 0
-20828 -20835 20838 0
-20836 20838 0
-20828 -20836 0
-20829 20839 0
-20837 20839 0
-20829 -20837 20840 0
-20838 20840 0
-20829 -20838 0
-20830 20841 0
-20839 20841 0
-20830 -20839 20842 0
-20840 20842 0
-20830 -20840 0
-20831 20843 0
-20841 20843 0
-20831 -20841 20844 0
-20842 20844 0
-20831 -20842 0
-20832 -20844 0
-20847 32 33 34 0
-32 20847 0
-33 20847 0
-34 20847 0
20847 29 30 31 35 0
-20848 74 75 76 0
-74 20848 0
-75 20848 0
-76 20848 0
20848 71 72 73 77 0
-20849 116 117 118 0
-116 20849 0
-117 20849 0
-118 20849 0
20849 113 114 115 119 0
-20850 158 159 160 0
-158 20850 0
-159 20850 0
-160 20850 0
20850 155 156 157 161 0
-20851 200 201 202 0
-200 20851 0
-201 20851 0
-202 20851 0
20851 197 198 199 203 0
-20852 291 292 293 0
-291 20852 0
-292 20852 0
-293 20852 0
20852 288 289 290 294 0
-20853 333 334 335 0
-333 20853 0
-334 20853 0
-335 20853 0
20853 330 331 332 336 0
-20847 20854 0
-20855 0
-20856 0
-20848 20857 0
-20854 20857 0
-20848 -20854 20858 0
-20855 20858 0
-20848 -20855 20859 0
-20856 20859 0
-20848 -20856 0
-20849 20860 0
-20857 20860 0
-20849 -20857 20861 0
-20858 20861 0
-20849 -20858 20862 0
-20859 20862 0
-20849 -20859 0
-20850 20863 0
-20860 20863 0
-20850 -20860 20864 0
-20861 20864 0
-20850 -20861 20865 0
-20862 20865 0
-20850 -20862 0
-20851 20866 0
-20863 20866 0
-20851 -20863 20867 0
-20864 20867 0
-20851 -20864 20868 0
-20865 20868 0
-20851 -20865 0
-20852 20869 0
-20866 20869 0
-20852 -20866 20870 0
-20867 20870 0
-20852 -20867 20871 0
-20868 20871 0
-20852 -20868 0
-20853 -20871 0
-20875 32 33 34 35 0
-32 20875 0
-33 20875 0
-34 20875 0
-35 20875 0
20875 29 30 31 0
-20876 74 75 76 77 0
-74 20876 0
-75 20876 0
-76 20876 0
-77 20876 0
20876 71 72 73 0
-20877 116 117 118 119 0
-116 20877 0
-117 20877 0
-118 20877 0
-119 20877 0
20877 113 114 115 0
-20878 158 159 160 161 0
-158 20878 0
-159 20878 0
-160 20878 0
-161 20878 0
20878 155 156 157 0
-20879 200 201 202 203 0
-200 20879 0
-201 20879 0
-202 20879 0
-203 20879 0
20879 197 198 199 0
-20880 291 292 293 294 0
-291 20880 0
-292 20880 0
-293 20880 0
-294 20880 0
20880 288 289 290 0
-20881 333 334 335 336 0
-333 20881 0
-334 20881 0
-335 20881 0
-336 20881 0
20881 330 331 332 0
-20875 20882 0
-20883 0
-20884 0
-20885 0
-20876 20886 0
-20882 20886 0
-20876 -20882 20887 0
-20883 20887 0
-20876 -20883 20888 0
-20884 20888 0
-20876 -20884 20889 0
-20885 20889 0
-20876 -20885 0
-20877 20890 0
-20886 20890 0
-20877 -20886 20891 0
-20887 20891 0
-20877 -20887 20892 0
-20888 20892 0
-20877 -20888 20893 0
-20889 20893 0
-20877 -20889 0
-20878 20894 0
-20890 20894 0
-20878 -20890 20895 0
-20891 20895 0
-20878 -20891 20896 0
-20892 20896 0
-20878 -20892 20897 0
-20893 20897 0
-20878 -20893 0
-20879 20898 0
-20894 20898 0
-20879 -20894 20899 0
-20895 20899 0
-20879 -20895 20900 0
-20896 20900 0
-20879 -20896 20901 0
-20897 20901 0
-20879 -20897 0
-20880 20902 0
-20898 20902 0
-20880 -20898 20903 0
-20899 20903 0
-20880 -20899 20904 0
-20900 20904 0
-20880 -20900 20905 0
-20901 20905 0
-20880 -20901 0
-20881 -20905 0
-20910 33 0
-33 20910 0
20910 29 30 31 32 34 35 0
-20911 75 0
-75 20911 0
20911 71 72 73 74 76 77 0
-20912 117 0
-117 20912 0
20912 113 114 115 116 118 119 0
-20913 159 0
-159 20913 0
20913 155 156 157 158 160 161 0
-20914 201 0
-201 20914 0
20914 197 198 199 200 202 203 0
-20915 292 0
-292 20915 0
20915 288 289 290 291 293 294 0
-20916 334 0
-334 20916 0
20916 330 331 332 333 335 336 0
-20910 20917 0
-20911 20918 0
-20917 20918 0
-20911 -20917 0
-20912 20919 0
-20918 20919 0
-20912 -20918 0
-20913 20920 0
-20919 20920 0
-20913 -20919 0
-20914 20921 0
-20920 20921 0
-20914 -20920 0
-20915 20922 0
-20921 20922 0
-20915 -20921 0
-20916 -20922 0
-20924 33 34 0
-33 20924 0
-34 20924 0
20924 29 30 31 32 35 0
-20925 75 76 0
-75 20925 0
-76 20925 0
20925 71 72 73 74 77 0
-20926 117 118 0
-117 20926 0
-118 20926 0
20926 113 114 115 116 119 0
-20927 159 160 0
-159 20927 0
-160 20927 0
20927 155 156 157 158 161 0
-20928 201 202 0
-201 20928 0
-202 20928 0
20928 197 198 199 200 203 0
-20929 292 293 0
-292 20929 0
-293 20929 0
20929 288 289 290 291 294 0
-20930 334 335 0
-334 20930 0
-335 20930 0
20930 330 331 332 333 336 0
-20924 20931 0
-20932 0
-20925 20933 0
-20931 20933 0
-20925 -20931 20934 0
-20932 20934 0
-20925 -20932 0
-20926 20935 0
-20933 20935 0
-20926 -20933 20936 0
-20934 20936 0
-20926 -20934 0
-20927 20937 0
-20935 20937 0
-20927 -20935 20938 0
-20936 20938 0
-20927 -20936 0
-20928 20939 0
-20937 20939 0
-20928 -20937 20940 0
-20938 20940 0
-20928 -20938 0
-20929 20941 0
-20939 20941 0
-20929 -20939 20942 0
-20940 20942 0
-20929 -20940 0
-20930 -20942 0
-20945 33 34 35 0
-33 20945 0
-34 20945 0
-35 20945 0
20945 29 30 31 32 0
-20946 75 76 77 0
-75 20946 0
-76 20946 0
-77 20946 0
20946 71 72 73 74 0
-20947 117 118 119 0
-117 20947 0
-118 20947 0
-119 20947 0
20947 113 114 115 116 0
-20948 159 160 161 0
-159 20948 0
-160 20948 0
-161 20948 0
20948 155 156 157 158 0
-20949 201 202 203 0
-201 20949 0
-202 20949 0
-203 20949 0
20949 197 198 199 200 0
-20950 292 293 294 0
-292 20950 0
-293 20950 0
-294 20950 0
20950 288 289 290 291 0
-20951 334 335 336 0
-334 20951 0
-335 20951 0
-336 20951 0
20951 330 331 332 333 0
-20945 20952 0
-20953 0
-20954 0
-20946 20955 0
-20952 20955 0
-20946 -20952 20956 0
-20953 20956 0
-20946 -20953 20957 0
-20954 20957 0
-20946 -20954 0
-20947 20958 0
-20955 20958 0
-20947 -20955 20959 0
-20956 20959 0
-20947 -20956 20960 0
-20957 20960 0
-20947 -20957 0
-20948 20961 0
-20958 20961 0
-20948 -20958 20962 0
-20959 20962 0
-20948 -20959 20963 0
-20960 20963 0
-20948 -20960 0
-20949 20964 0
-20961 20964 0
-20949 -20961 20965 0
-20962 20965 0
-20949 -20962 20966 0
-20963 20966 0
-20949 -20963 0
-20950 20967 0
-20964 20967 0
-20950 -20964 20968 0
-20965 20968 0
-20950 -20965 20969 0
-20966 20969 0
-20950 -20966 0
-20951 -20969 0
-20973 34 0
-34 20973 0
20973 29 30 31 32 33 35 0
-20974 76 0
-76 20974 0
20974 71 72 73 74 75 77 0
-20975 118 0
-118 20975 0
20975 113 114 115 116 117 119 0
-20976 160 0
-160 20976 0
20976 155 156 157 158 159 161 0
-20977 202 0
-202 20977 0
20977 197 198 199 200 201 203 0
-20978 293 0
-293 20978 0
20978 288 289 290 291 292 294 0
-20979 335 0
-335 20979 0
20979 330 331 332 333 334 336 0
-20973 20980 0
-20974 20981 0
-20980 20981 0
-20974 -20980 0
-20975 20982 0
-20981 20982 0
-20975 -20981 0
-20976 20983 0
-20982 20983 0
-20976 -20982 0
-20977 20984 0
-20983 20984 0
-20977 -20983 0
-20978 20985 0
-20984 20985 0
-20978 -20984 0
-20979 -20985 0
-20987 34 35 0
-34 20987 0
-35 20987 0
20987 29 30 31 32 33 0
-20988 76 77 0
-76 20988 0
-77 20988 0
20988 71 72 73 74 75 0
-20989 118 119 0
-118 20989 0
-119 20989 0
20989 113 114 115 116 117 0
-20990 160 161 0
-160 20990 0
-161 20990 0
20990 155 156 157 158 159 0
-20991 202 203 0
-202 20991 0
-203 20991 0
20991 197 198 199 200 201 0
-20992 293 294 0
-293 20992 0
-294 20992 0
20992 288 289 290 291 292 0
-20993 335 336 0
-335 20993 0
-336 20993 0
20993 330 331 332 333 334 0
-20987 20994 0
-20995 0
-20988 20996 0
-20994 20996 0
-20988 -20994 20997 0
-20995 20997 0
-20988 -20995 0
-20989 20998 0
-20996 20998 0
-20989 -20996 20999 0
-20997 20999 0
-20989 -20997 0
-20990 21000 0
-20998 21000 0
-20990 -20998 21001 0
-20999 21001 0
-20990 -20999 0
-20991 21002 0
-21000 21002 0
-20991 -21000 21003 0
-21001 21003 0
-20991 -21001 0
-20992 21004 0
-21002 21004 0
-20992 -21002 21005 0
-21003 21005 0
-20992 -21003 0
-20993 -21005 0
-21008 35 0
-35 21008 0
21008 29 30 31 32 33 34 0
-21009 77 0
-77 21009 0
21009 71 72 73 74 75 76 0
-21010 119 0
-119 21010 0
21010 113 114 115 116 117 118 0
-21011 161 0
-161 21011 0
21011 155 156 157 158 159 160 0
-21012 203 0
-203 21012 0
21012 197 198 199 200 201 202 0
-21013 294 0
-294 21013 0
21013 288 289 290 291 292 293 0
-21014 336 0
-336 21014 0
21014 330 331 332 333 334 335 0
-21008 21015 0
-21009 21016 0
-21015 21016 0
-21009 -21015 0
-21010 21017 0
-21016 21017 0
-21010 -21016 0
-21011 21018 0
-21017 21018 0
-21011 -21017 0
-21012 21019 0
-21018 21019 0
-21012 -21018 0
-21013 21020 0
-21019 21020 0
-21013 -21019 0
-21014 -21020 0
-29 21022 0
-71 21023 0
-21022 21023 0
-71 -21022 0
-113 21024 0
-21023 21024 0
-113 -21023 0
-155 21025 0
-21024 21025 0
-155 -21024 0
-197 21026 0
-21025 21026 0
-197 -21025 0
-288 21027 0
-21026 21027 0
-288 -21026 0
-330 -21027 0
29 71 113 155 197 288 330 0
-30 21029 0
-72 21030 0
-21029 21030 0
-72 -21029 0
-114 21031 0
-21030 21031 0
-114 -21030 0
-156 21032 0
-21031 21032 0
-156 -21031 0
-198 21033 0
-21032 21033 0
-198 -21032 0
-289 21034 0
-21033 21034 0
-289 -21033 0
-331 -21034 0
30 72 114 156 198 289 331 0
-31 21036 0
-73 21037 0
-21036 21037 0
-73 -21036 0
-115 21038 0
-21037 21038 0
-115 -21037 0
-157 21039 0
-21038 21039 0
-157 -21038 0
-199 21040 0
-21039 21040 0
-199 -21039 0
-290 21041 0
-21040 21041 0
-290 -21040 0
-332 -21041 0
31 73 115 157 199 290 332 0
-32 21043 0
-74 21044 0
-21043 21044 0
-74 -21043 0
-116 21045 0
-21044 21045 0
-116 -21044 0
-158 21046 0
-21045 21046 0
-158 -21045 0
-200 21047 0
-21046 21047 0
-200 -21046 0
-291 21048 0
-21047 21048 0
-291 -21047 0
-333 -21048 0
32 74 116 158 200 291 333 0
-33 21050 0
-75 21051 0
-21050 21051 0
-75 -21050 0
-117 21052 0
-21051 21052 0
-117 -21051 0
-159 21053 0
-21052 21053 0
-159 -21052 0
-201 21054 0
-21053 21054 0
-201 -21053 0
-292 21055 0
-21054 21055 0
-292 -21054 0
-334 -21055 0
33 75 117 159 201 292 334 0
-34 21057 0
-76 21058 0
-21057 21058 0
-76 -21057 0
-118 21059 0
-21058 21059 0
-118 -21058 0
-160 21060 0
-21059 21060 0
-160 -21059 0
-202 21061 0
-21060 21061 0
-202 -21060 0
-293 21062 0
-21061 21062 0
-293 -21061 0
-335 -21062 0
34 76 118 160 202 293 335 0
-35 21064 0
-77 21065 0
-21064 21065 0
-77 -21064 0
-119 21066 0
-21065 21066 0
-119 -21065 0
-161 21067 0
-21066 21067 0
-161 -21066 0
-203 21068 0
-21067 21068 0
-203 -21067 0
-294 21069 0
-21068 21069 0
-294 -21068 0
-336 -21069 0
35 77 119 161 203 294 336 0
-21071 36 0
-36 21071 0
21071 37 38 39 40 41 42 0
-21072 78 0
-78 21072 0
21072 79 80 81 82 83 84 0
-21073 120 0
-120 21073 0
21073 121 122 123 124 125 126 0
-21074 162 0
-162 21074 0
21074 163 164 165 166 167 168 0
-21075 204 0
-204 21075 0
21075 205 206 207 208 209 210 0
-21076 246 0
-246 21076 0
21076 247 248 249 250 251 252 0
-21077 337 0
-337 21077 0
21077 338 339 340 341 342 343 0
-21071 21078 0
-21072 21079 0
-21078 21079 0
-21072 -21078 0
-21073 21080 0
-21079 21080 0
-21073 -21079 0
-21074 21081 0
-21080 21081 0
-21074 -21080 0
-21075 21082 0
-21081 21082 0
-21075 -21081 0
-21076 21083 0
-21082 21083 0
-21076 -21082 0
-21077 -21083 0
-21085 36 37 0
-36 21085 0
-37 21085 0
21085 38 39 40 41 42 0
-21086 78 79 0
-78 21086 0
-79 21086 0
21086 80 81 82 83 84 0
-21087 120 121 0
-120 21087 0
-121 21087 0
21087 122 123 124 125 126 0
-21088 162 163 0
-162 21088 0
-163 21088 0
21088 164 165 166 167 168 0
-21089 204 205 0
-204 21089 0
-205 21089 0
21089 206 207 208 209 210 0
-21090 246 247 0
-246 21090 0
-247 21090 0
21090 248 249 250 251 252 0
-21091 337 338 0
-337 21091 0
-338 21091 0
21091 339 340 341 342 343 0
-21085 21092 0
-21093 0
-21086 21094 0
-21092 21094 0
-21086 -21092 21095 0
-21093 21095 0
-21086 -21093 0
-21087 21096 0
-21094 21096 0
-21087 -21094 21097 0
-21095 21097 0
-21087 -21095 0
-21088 21098 0
-21096 21098 0
-21088 -21096 21099 0
-21097 21099 0
-21088 -21097 0
-21089 21100 0
-21098 21100 0
-21089 -21098 21101 0
-21099 21101 0
-21089 -21099 0
-21090 21102 0
-21100 21102 0
-21090 -21100 21103 0
-21101 21103 0
-21090 -21101 0
-21091 -21103 0
-21106 36 37 38 0
-36 21106 0
-37 21106 0
-38 21106 0
21106 39 40 41 42 0
-21107 78 79 80 0
-78 21107 0
-79 21107 0
-80 21107 0
21107 81 82 83 84 0
-21108 120 121 122 0
-120 21108 0
-121 21108 0
-122 21108 0
21108 123 124 125 126 0
-21109 162 163 164 0
-162 21109 0
-163 21109 0
-164 21109 0
21109 165 166 167 168 0
-21110 204 205 206 0
-204 21110 0
-205 21110 0
-206 21110 0
21110 207 208 209 210 0
-21111 246 247 248 0
-246 21111 0
-247 21111 0
-248 21111 0
21111 249 250 251 252 0
-21112 337 338 339 0
-337 21112 0
-338 21112 0
-339 21112 0
21112 340 341 342 343 0
-21106 21113 0
-21114 0
-21115 0
-21107 21116 0
-21113 21116 0
-21107 -21113 21117 0
-21114 21117 0
-21107 -21114 21118 0
-21115 21118 0
-21107 -21115 0
-21108 21119 0
-21116 21119 0
-21108 -21116 21120 0
-21117 21120 0
-21108 -21117 21121 0
-21118 21121 0
-21108 -21118 0
-21109 21122 0
-21119 21122 0
-21109 -21119 21123 0
-21120 21123 0
-21109 -21120 21124 0
-21121 21124 0
-21109 -21121 0
-21110 21125 0
-21122 21125 0
-21110 -21122 21126 0
-21123 21126 0
-21110 -21123 21127 0
-21124 21127 0
-21110 -21124 0
-21111 21128 0
-21125 21128 0
-21111 -21125 21129 0
-21126 21129 0
-21111 -21126 21130 0
-21127 21130 0
-21111 -21127 0
-21112 -21130 0
-21134 36 37 38 39 0
-36 21134 0
-37 21134 0
-38 21134 0
-39 21134 0
21134 40 41 42 0
-21135 78 79 80 81 0
-78 21135 0
-79 21135 0
-80 21135 0
-81 21135 0
21135 82 83 84 0
-21136 120 121 122 123 0
-120 21136 0
-121 21136 0
-122 21136 0
-123 21136 0
21136 124 125 126 0
-21137 162 163 164 165 0
-162 21137 0
-163 21137 0
-164 21137 0
-165 21137 0
21137 166 167 168 0
-21138 204 205 206 207 0
-204 21138 0
-205 21138 0
-206 21138 0
-207 21138 0
21138 208 209 210 0
-21139 246 247 248 249 0
-246 21139 0
-247 21139 0
-248 21139 0
-249 21139 0
21139 250 251 252 0
-21140 337 338 339 340 0
-337 21140 0
-338 21140 0
-339 21140 0
-340 21140 0
21140 341 342 343 0
-21134 21141 0
-21142 0
-21143 0
-21144 0
-21135 21145 0
-21141 21145 0
-21135 -21141 21146 0
-21142 21146 0
-21135 -21142 21147 0
-21143 21147 0
-21135 -21143 21148 0
-21144 21148 0
-21135 -21144 0
-21136 21149 0
-21145 21149 0
-21136 -21145 21150 0
-21146 21150 0
-21136 -21146 21151 0
-21147 21151 0
-21136 -21147 21152 0
-21148 21152 0
-21136 -21148 0
-21137 21153 0
-21149 21153 0
-21137 -21149 21154 0
-21150 21154 0
-21137 -21150 21155 0
-21151 21155 0
-21137 -21151 21156 0
-21152 21156 0
-21137 -21152 0
-21138 21157 0
-21153 21157 0
-21138 -21153 21158 0
-21154 21158 0
-21138 -21154 21159 0
-21155 21159 0
-21138 -21155 21160 0
-21156 21160 0
-21138 -21156 0
-21139 21161 0
-21157 21161 0
-21139 -21157 21162 0
-21158 21162 0
-21139 -21158 21163 0
-21159 21163 0
-21139 -21159 21164 0
-21160 21164 0
-21139 -21160 0
-21140 -21164 0
-21169 36 37 38 39 40 0
-36 21169 0
-37 21169 0
-38 21169 0
-39 21169 0
-40 21169 0
21169 41 42 0
-21170 78 79 80 81 82 0
-78 21170 0
-79 21170 0
-80 21170 0
-81 21170 0
-82 21170 0
21170 83 84 0
-21171 120 121 122 123 124 0
-120 21171 0
-121 21171 0
-122 21171 0
-123 21171 0
-124 21171 0
21171 125 126 0
-21172 162 163 164 165 166 0
-162 21172 0
-163 21172 0
-164 21172 0
-165 21172 0
-166 21172 0
21172 167 168 0
-21173 204 205 206 207 208 0
-204 21173 0
-205 21173 0
-206 21173 0
-207 21173 0
-208 21173 0
21173 209 210 0
-21174 246 247 248 249 250 0
-246 21174 0
-247 21174 0
-248 21174 0
-249 21174 0
-250 21174 0
21174 251 252 0
-21175 337 338 339 340 341 0
-337 21175 0
-338 21175 0
-339 21175 0
-340 21175 0
-341 21175 0
21175 342 343 0
-21169 21176 0
-21177 0
-21178 0
-21179 0
-21180 0
-21170 21181 0
-21176 21181 0
-21170 -21176 21182 0
-21177 21182 0
-21170 -21177 21183 0
-21178 21183 0
-21170 -21178 21184 0
-21179 21184 0
-21170 -21179 21185 0
-21180 21185 0
-21170 -21180 0
-21171 21186 0
-21181 21186 0
-21171 -21181 21187 0
-21182 21187 0
-21171 -21182 21188 0
-21183 21188 0
-21171 -21183 21189 0
-21184 21189 0
-21171 -21184 21190 0
-21185 21190 0
-21171 -21185 0
-21172 21191 0
-21186 21191 0
-21172 -21186 21192 0
-21187 21192 0
-21172 -21187 21193 0
-21188 21193 0
-21172 -21188 21194 0
-21189 21194 0
-21172 -21189 21195 0
-21190 21195 0
-21172 -21190 0
-21173 21196 0
-21191 21196 0
-21173 -21191 21197 0
-21192 21197 0
-21173 -21192 21198 0
-21193 21198 0
-21173 -21193 21199 0
-21194 21199 0
-21173 -21194 21200 0
-21195 21200 0
-21173 -21195 0
-21174 21201 0
-21196 21201 0
-21174 -21196 21202 0
-21197 21202 0
-21174 -21197 21203 0
-21198 21203 0
-21174 -21198 21204 0
-21199 21204 0
-21174 -21199 21205 0
-21200 21205 0
-21174 -21200 0
-21175 -21205 0
-21211 36 37 38 39 40 41 0
-36 21211 0
-37 21211 0
-38 21211 0
-39 21211 0
-40 21211 0
-41 21211 0
21211 42 0
-21212 78 79 80 81 82 83 0
-78 21212 0
-79 21212 0
-80 21212 0
-81 21212 0
-82 21212 0
-83 21212 0
21212 84 0
-21213 120 121 122 123 124 125 0
-120 21213 0
-121 21213 0
-122 21213 0
-123 21213 0
-124 21213 0
-125 21213 0
21213 126 0
-21214 162 163 164 165 166 167 0
-162 21214 0
-163 21214 0
-164 21214 0
-165 21214 0
-166 21214 0
-167 21214 0
21214 168 0
-21215 204 205 206 207 208 209 0
-204 21215 0
-205 21215 0
-206 21215 0
-207 21215 0
-208 21215 0
-209 21215 0
21215 210 0
-21216 246 247 248 249 250 251 0
-246 21216 0
-247 21216 0
-248 21216 0
-249 21216 0
-250 21216 0
-251 21216 0
21216 252 0
-21217 337 338 339 340 341 342 0
-337 21217 0
-338 21217 0
-339 21217 0
-340 21217 0
-341 21217 0
-342 21217 0
21217 343 0
-21211 21218 0
-21219 0
-21220 0
-21221 0
-21222 0
-21223 0
-21212 21224 0
-21218 21224 0
-21212 -21218 21225 0
-21219 21225 0
-21212 -21219 21226 0
-21220 21226 0
-21212 -21220 21227 0
-21221 21227 0
-21212 -21221 21228 0
-21222 21228 0
-21212 -21222 21229 0
-21223 21229 0
-21212 -21223 0
-21213 21230 0
-21224 21230 0
-21213 -21224 21231 0
-21225 21231 0
-21213 -21225 21232 0
-21226 21232 0
-21213 -21226 21233 0
-21227 21233 0
-21213 -21227 21234 0
-21228 21234 0
-21213 -21228 21235 0
-21229 21235 0
-21213 -21229 0
-21214 21236 0
-21230 21236 0
-21214 -21230 21237 0
-21231 21237 0
-21214 -21231 21238 0
-21232 21238 0
-21214 -21232 21239 0
-21233 21239 0
-21214 -21233 21240 0
-21234 21240 0
-21214 -21234 21241 0
-21235 21241 0
-21214 -21235 0
-21215 21242 0
-21236 21242 0
-21215 -21236 21243 0
-21237 21243 0
-21215 -21237 21244 0
-21238 21244 0
-21215 -21238 21245 0
-21239 21245 0
-21215 -21239 21246 0
-21240 21246 0
-21215 -21240 21247 0
-21241 21247 0
-21215 -21241 0
-21216 21248 0
-21242 21248 0
-21216 -21242 21249 0
-21243 21249 0
-21216 -21243 21250 0
-21244 21250 0
-21216 -21244 21251 0
-21245 21251 0
-21216 -21245 21252 0
-21246 21252 0
-21216 -21246 21253 0
-21247 21253 0
-21216 -21247 0
-21217 -21253 0
-21260 36 37 38 39 40 41 42 0
-36 21260 0
-37 21260 0
-38 21260 0
-39 21260 0
-40 21260 0
-41 21260 0
-42 21260 0
21260 0
-21261 78 79 80 81 82 83 84 0
-78 21261 0
-79 21261 0
-80 21261 0
-81 21261 0
-82 21261 0
-83 21261 0
-84 21261 0
21261 0
-21262 120 121 122 123 124 125 126 0
-120 21262 0
-121 21262 0
-122 21262 0
-123 21262 0
-124 21262 0
-125 21262 0
-126 21262 0
21262 0
-21263 162 163 164 165 166 167 168 0
-162 21263 0
-163 21263 0
-164 21263 0
-165 21263 0
-166 21263 0
-167 21263 0
-168 21263 0
21263 0
-21264 204 205 206 207 208 209 210 0
-204 21264 0
-205 21264 0
-206 21264 0
-207 21264 0
-208 21264 0
-209 21264 0
-210 21264 0
21264 0
-21265 246 247 248 249 250 251 252 0
-246 21265 0
-247 21265 0
-248 21265 0
-249 21265 0
-250 21265 0
-251 21265 0
-252 21265 0
21265 0
-21266 337 338 339 340 341 342 343 0
-337 21266 0
-338 21266 0
-339 21266 0
-340 21266 0
-341 21266 0
-342 21266 0
-343 21266 0
21266 0
-21267 37 0
-37 21267 0
21267 36 38 39 40 41 42 0
-21268 79 0
-79 21268 0
21268 78 80 81 82 83 84 0
-21269 121 0
-121 21269 0
21269 120 122 123 124 125 126 0
-21270 163 0
-163 21270 0
21270 162 164 165 166 167 168 0
-21271 205 0
-205 21271 0
21271 204 206 207 208 209 210 0
-21272 247 0
-247 21272 0
21272 246 248 249 250 251 252 0
-21273 338 0
-338 21273 0
21273 337 339 340 341 342 343 0
-21267 21274 0
-21268 21275 0
-21274 21275 0
-21268 -21274 0
-21269 21276 0
-21275 21276 0
-21269 -21275 0
-21270 21277 0
-21276 21277 0
-21270 -21276 0
-21271 21278 0
-21277 21278 0
-21271 -21277 0
-21272 21279 0
-21278 21279 0
-21272 -21278 0
-21273 -21279 0
-21281 37 38 0
-37 21281 0
-38 21281 0
21281 36 39 40 41 42 0
-21282 79 80 0
-79 21282 0
-80 21282 0
21282 78 81 82 83 84 0
-21283 121 122 0
-121 21283 0
-122 21283 0
21283 120 123 124 125 126 0
-21284 163 164 0
-163 21284 0
-164 21284 0
21284 162 165 166 167 168 0
-21285 205 206 0
-205 21285 0
-206 21285 0
21285 204 207 208 209 210 0
-21286 247 248 0
-247 21286 0
-248 21286 0
21286 246 249 250 251 252 0
-21287 338 339 0
-338 21287 0
-339 21287 0
21287 337 340 341 342 343 0
-21281 21288 0
-21289 0
-21282 21290 0
-21288 21290 0
-21282 -21288 21291 0
-21289 21291 0
-21282 -21289 0
-21283 21292 0
-21290 21292 0
-21283 -21290 21293 0
-21291 21293 0
-21283 -21291 0
-21284 21294 0
-21292 21294 0
-21284 -21292 21295 0
-21293 21295 0
-21284 -21293 0
-21285 21296 0
-21294 21296 0
-21285 -21294 21297 0
-21295 21297 0
-21285 -21295 0
-21286 21298 0
-21296 21298 0
-21286 -21296 21299 0
-21297 21299 0
-21286 -21297 0
-21287 -21299 0
-21302 37 38 39 0
-37 21302 0
-38 21302 0
-39 21302 0
21302 36 40 41 42 0
-21303 79 80 81 0
-79 21303 0
-80 21303 0
-81 21303 0
21303 78 82 83 84 0
-21304 121 122 123 0
-121 21304 0
-122 21304 0
-123 21304 0
21304 120 124 125 126 0
-21305 163 164 165 0
-163 21305 0
-164 21305 0
-165 21305 0
21305 162 166 167 168 0
-21306 205 206 207 0
-205 21306 0
-206 21306 0
-207 21306 0
21306 204 208 209 210 0
-21307 247 248 249 0
-247 21307 0
-248 21307 0
-249 21307 0
21307 246 250 251 252 0
-21308 338 339 340 0
-338 21308 0
-339 21308 0
-340 21308 0
21308 337 341 342 343 0
-21302 21309 0
-21310 0
-21311 0
-21303 21312 0
-21309 21312 0
-21303 -21309 21313 0
-21310 21313 0
-21303 -21310 21314 0
-21311 21314 0
-21303 -21311 0
-21304 21315 0
-21312 21315 0
-21304 -21312 21316 0
-21313 21316 0
-21304 -21313 21317 0
-21314 21317 0
-21304 -21314 0
-21305 21318 0
-21315 21318 0
-21305 -21315 21319 0
-21316 21319 0
-21305 -21316 21320 0
-21317 21320 0
-21305 -21317 0
-21306 21321 0
-21318 21321 0
-21306 -21318 21322 0
-21319 21322 0
-21306 -21319 21323 0
-21320 21323 0
-21306 -21320 0
-21307 21324 0
-21321 21324 0
-21307 -21321 21325 0
-21322 21325 0
-21307 -21322 21326 0
-21323 21326 0
-21307 -21323 0
-21308 -21326 0
-21330 37 38 39 40 0
-37 21330 0
-38 21330 0
-39 21330 0
-40 21330 0
21330 36 41 42 0
-21331 79 80 81 82 0
-79 21331 0
-80 21331 0
-81 21331 0
-82 21331 0
21331 78 83 84 0
-21332 121 122 123 124 0
-121 21332 0
-122 21332 0
-123 21332 0
-124 21332 0
21332 120 125 126 0
-21333 163 164 165 166 0
-163 21333 0
-164 21333 0
-165 21333 0
-166 21333 0
21333 162 167 168 0
-21334 205 206 207 208 0
-205 21334 0
-206 21334 0
-207 21334 0
-208 21334 0
21334 204 209 210 0
-21335 247 248 249 250 0
-247 21335 0
-248 21335 0
-249 21335 0
-250 21335 0
21335 246 251 252 0
-21336 338 339 340 341 0
-338 21336 0
-339 21336 0
-340 21336 0
-341 21336 0
21336 337 342 343 0
-21330 21337 0
-21338 0
-21339 0
-21340 0
-21331 21341 0
-21337 21341 0
-21331 -21337 21342 0
-21338 21342 0
-21331 -21338 21343 0
-21339 21343 0
-21331 -21339 21344 0
-21340 21344 0
-21331 -21340 0
-21332 21345 0
-21341 21345 0
-21332 -21341 21346 0
-21342 21346 0
-21332 -21342 21347 0
-21343 21347 0
-21332 -21343 21348 0
-21344 21348 0
-21332 -21344 0
-21333 21349 0
-21345 21349 0
-21333 -21345 21350 0
-21346 21350 0
-21333 -21346 21351 0
-21347 21351 0
-21333 -21347 21352 0
-21348 21352 0
-21333 -21348 0
-21334 21353 0
-21349 21353 0
-21334 -21349 21354 0
-21350 21354 0
-21334 -21350 21355 0
-21351 21355 0
-21334 -21351 21356 0
-21352 21356 0
-21334 -21352 0
-21335 21357 0
-21353 21357 0
-21335 -21353 21358 0
-21354 21358 0
-21335 -21354 21359 0
-21355 21359 0
-21335 -21355 21360 0
-21356 21360 0
-21335 -21356 0
-21336 -21360 0
-21365 37 38 39 40 41 0
-37 21365 0
-38 21365 0
-39 21365 0
-40 21365 0
-41 21365 0
21365 36 42 0
-21366 79 80 81 82 83 0
-79 21366 0
-80 21366 0
-81 21366 0
-82 21366 0
-83 21366 0
21366 78 84 0
-21367 121 122 123 124 125 0
-121 21367 0
-122 21367 0
-123 21367 0
-124 21367 0
-125 21367 0
21367 120 126 0
-21368 163 164 165 166 167 0
-163 21368 0
-164 21368 0
-165 21368 0
-166 21368 0
-167 21368 0
21368 162 168 0
-21369 205 206 207 208 209 0
-205 21369 0
-206 21369 0
-207 21369 0
-208 21369 0
-209 21369 0
21369 204 210 0
-21370 247 248 249 250 251 0
-247 21370 0
-248 21370 0
-249 21370 0
-250 21370 0
-251 21370 0
21370 246 252 0
-21371 338 339 340 341 342 0
-338 21371 0
-339 21371 0
-340 21371 0
-341 21371 0
-342 21371 0
21371 337 343 0
-21365 21372 0
-21373 0
-21374 0
-21375 0
-21376 0
-21366 21377 0
-21372 21377 0
-21366 -21372 21378 0
-21373 21378 0
-21366 -21373 21379 0
-21374 21379 0
-21366 -21374 21380 0
-21375 21380 0
-21366 -21375 21381 0
-21376 21381 0
-21366 -21376 0
-21367 21382 0
-21377 21382 0
-21367 -21377 21383 0
-21378 21383 0
-21367 -21378 21384 0
-21379 21384 0
-21367 -21379 21385 0
-21380 21385 0
-21367 -21380 21386 0
-21381 21386 0
-21367 -21381 0
-21368 21387 0
-21382 21387 0
-21368 -21382 21388 0
-21383 21388 0
-21368 -21383 21389 0
-21384 21389 0
-21368 -21384 21390 0
-21385 21390 0
-21368 -21385 21391 0
-21386 21391 0
-21368 -21386 0
-21369 21392 0
-21387 21392 0
-21369 -21387 21393 0
-21388 21393 0
-21369 -21388 21394 0
-21389 21394 0
-21369 -21389 21395 0
-21390 21395 0
-21369 -21390 21396 0
-21391 21396 0
-21369 -21391 0
-21370 21397 0
-21392 21397 0
-21370 -21392 21398 0
-21393 21398 0
-21370 -21393 21399 0
-21394 21399 0
-21370 -21394 21400 0
-21395 21400 0
-21370 -21395 21401 0
-21396 21401 0
-21370 -21396 0
-21371 -21401 0
-21407 37 38 39 40 41 42 0
-37 21407 0
-38 21407 0
-39 21407 0
-40 21407 0
-41 21407 0
-42 21407 0
21407 36 0
-21408 79 80 81 82 83 84 0
-79 21408 0
-80 21408 0
-81 21408 0
-82 21408 0
-83 21408 0
-84 21408 0
21408 78 0
-21409 121 122 123 124 125 126 0
-121 21409 0
-122 21409 0
-123 21409 0
-124 21409 0
-125 21409 0
-126 21409 0
21409 120 0
-21410 163 164 165 166 167 168 0
-163 21410 0
-164 21410 0
-165 21410 0
-166 21410 0
-167 21410 0
-168 21410 0
21410 162 0
-21411 205 206 207 208 209 210 0
-205 21411 0
-206 21411 0
-207 21411 0
-208 21411 0
-209 21411 0
-210 21411 0
21411 204 0
-21412 247 248 249 250 251 252 0
-247 21412 0
-248 21412 0
-249 21412 0
-250 21412 0
-251 21412 0
-252 21412 0
21412 246 0
-21413 338 339 340 341 342 343 0
-338 21413 0
-339 21413 0
-340 21413 0
-341 21413 0
-342 21413 0
-343 21413 0
21413 337 0
-21407 21414 0
-21415 0
-21416 0
-21417 0
-21418 0
-21419 0
-21408 21420 0
-21414 21420 0
-21408 -21414 21421 0
-21415 21421 0
-21408 -21415 21422 0
-21416 21422 0
-21408 -21416 21423 0
-21417 21423 0
-21408 -21417 21424 0
-21418 21424 0
-21408 -21418 21425 0
-21419 21425 0
-21408 -21419 0
-21409 21426 0
-21420 21426 0
-21409 -21420 21427 0
-21421 21427 0
-21409 -21421 21428 0
-21422 21428 0
-21409 -21422 21429 0
-21423 21429 0
-21409 -21423 21430 0
-21424 21430 0
-21409 -21424 21431 0
-21425 21431 0
-21409 -21425 0
-21410 21432 0
-21426 21432 0
-21410 -21426 21433 0
-21427 21433 0
-21410 -21427 21434 0
-21428 21434 0
-21410 -21428 21435 0
-21429 21435 0
-21410 -21429 21436 0
-21430 21436 0
-21410 -21430 21437 0
-21431 21437 0
-21410 -21431 0
-21411 21438 0
-21432 21438 0
-21411 -21432 21439 0
-21433 21439 0
-21411 -21433 21440 0
-21434 21440 0
-21411 -21434 21441 0
-21435 21441 0
-21411 -21435 21442 0
-21436 21442 0
-21411 -21436 21443 0
-21437 21443 0
-21411 -21437 0
-21412 21444 0
-21438 21444 0
-21412 -21438 21445 0
-21439 21445 0
-21412 -21439 21446 0
-21440 21446 0
-21412 -21440 21447 0
-21441 21447 0
-21412 -21441 21448 0
-21442 21448 0
-21412 -21442 21449 0
-21443 21449 0
-21412 -21443 0
-21413 -21449 0
-21456 38 0
-38 21456 0
21456 36 37 39 40 41 42 0
-21457 80 0
-80 21457 0
21457 78 79 81 82 83 84 0
-21458 122 0
-122 21458 0
21458 120 121 123 124 125 126 0
-21459 164 0
-164 21459 0
21459 162 163 165 166 167 168 0
-21460 206 0
-206 21460 0
21460 204 205 207 208 209 210 0
-21461 248 0
-248 21461 0
21461 246 247 249 250 251 252 0
-21462 339 0
-339 21462 0
21462 337 338 340 341 342 343 0
-21456 21463 0
-21457 21464 0
-21463 21464 0
-21457 -21463 0
-21458 21465 0
-21464 21465 0
-21458 -21464 0
-21459 21466 0
-21465 21466 0
-21459 -21465 0
-21460 21467 0
-21466 21467 0
-21460 -21466 0
-21461 21468 0
-21467 21468 0
-21461 -21467 0
-21462 -21468 0
-21470 38 39 0
-38 21470 0
-39 21470 0
21470 36 37 40 41 42 0
-21471 80 81 0
-80 21471 0
-81 21471 0
21471 78 79 82 83 84 0
-21472 122 123 0
-122 21472 0
-123 21472 0
21472 120 121 124 125 126 0
-21473 164 165 0
-164 21473 0
-165 21473 0
21473 162 163 166 167 168 0
-21474 206 207 0
-206 21474 0
-207 21474 0
21474 204 205 208 209 210 0
-21475 248 249 0
-248 21475 0
-249 21475 0
21475 246 247 250 251 252 0
-21476 339 340 0
-339 21476 0
-340 21476 0
21476 337 338 341 342 343 0
-21470 21477 0
-21478 0
-21471 21479 0
-21477 21479 0
-21471 -21477 21480 0
-21478 21480 0
-21471 -21478 0
-21472 21481 0
-21479 21481 0
-21472 -21479 21482 0
-21480 21482 0
-21472 -21480 0
-21473 21483 0
-21481 21483 0
-21473 -21481 21484 0
-21482 21484 0
-21473 -21482 0
-21474 21485 0
-21483 21485 0
-21474 -21483 21486 0
-21484 21486 0
-21474 -21484 0
-21475 21487 0
-21485 21487 0
-21475 -21485 21488 0
-21486 21488 0
-21475 -21486 0
-21476 -21488 0
-21491 38 39 40 0
-38 21491 0
-39 21491 0
-40 21491 0
21491 36 37 41 42 0
-21492 80 81 82 0
-80 21492 0
-81 21492 0
-82 21492 0
21492 78 79 83 84 0
-21493 122 123 124 0
-122 21493 0
-123 21493 0
-124 21493 0
21493 120 121 125 126 0
-21494 164 165 166 0
-164 21494 0
-165 21494 0
-166 21494 0
21494 162 163 167 168 0
-21495 206 207 208 0
-206 21495 0
-207 21495 0
-208 21495 0
21495 204 205 209 210 0
-21496 248 249 250 0
-248 21496 0
-249 21496 0
-250 21496 0
21496 246 247 251 252 0
-21497 339 340 341 0
-339 21497 0
-340 21497 0
-341 21497 0
21497 337 338 342 343 0
-21491 21498 0
-21499 0
-21500 0
-21492 21501 0
-21498 21501 0
-21492 -21498 21502 0
-21499 21502 0
-21492 -21499 21503 0
-21500 21503 0
-21492 -21500 0
-21493 21504 0
-21501 21504 0
-21493 -21501 21505 0
-21502 21505 0
-21493 -21502 21506 0
-21503 21506 0
-21493 -21503 0
-21494 21507 0
-21504 21507 0
-21494 -21504 21508 0
-21505 21508 0
-21494 -21505 21509 0
-21506 21509 0
-21494 -21506 0
-21495 21510 0
-21507 21510 0
-21495 -21507 21511 0
-21508 21511 0
-21495 -21508 21512 0
-21509 21512 0
-21495 -21509 0
-21496 21513 0
-21510 21513 0
-21496 -21510 21514 0
-21511 21514 0
-21496 -21511 21515 0
-21512 21515 0
-21496 -21512 0
-21497 -21515 0
-21519 38 39 40 41 0
-38 21519 0
-39 21519 0
-40 21519 0
-41 21519 0
21519 36 37 42 0
-21520 80 81 82 83 0
-80 21520 0
-81 21520 0
-82 21520 0
-83 21520 0
21520 78 79 84 0
-21521 122 123 124 125 0
-122 21521 0
-123 21521 0
-124 21521 0
-125 21521 0
21521 120 121 126 0
-21522 164 165 166 167 0
-164 21522 0
-165 21522 0
-166 21522 0
-167 21522 0
21522 162 163 168 0
-21523 206 207 208 209 0
-206 21523 0
-207 21523 0
-208 21523 0
-209 21523 0
21523 204 205 210 0
-21524 248 249 250 251 0
-248 21524 0
-249 21524 0
-250 21524 0
-251 21524 0
21524 246 247 252 0
-21525 339 340 341 342 0
-339 21525 0
-340 21525 0
-341 21525 0
-342 21525 0
21525 337 338 343 0
-21519 21526 0
-21527 0
-21528 0
-21529 0
-21520 21530 0
-21526 21530 0
-21520 -21526 21531 0
-21527 21531 0
-21520 -21527 21532 0
-21528 21532 0
-21520 -21528 21533 0
-21529 21533 0
-21520 -21529 0
-21521 21534 0
-21530 21534 0
-21521 -21530 21535 0
-21531 21535 0
-21521 -21531 21536 0
-21532 21536 0
-21521 -21532 21537 0
-21533 21537 0
-21521 -21533 0
-21522 21538 0
-21534 21538 0
-21522 -21534 21539 0
-21535 21539 0
-21522 -21535 21540 0
-21536 21540 0
-21522 -21536 21541 0
-21537 21541 0
-21522 -21537 0
-21523 21542 0
-21538 21542 0
-21523 -21538 21543 0
-21539 21543 0
-21523 -21539 21544 0
-21540 21544 0
-21523 -21540 21545 0
-21541 21545 0
-21523 -21541 0
-21524 21546 0
-21542 21546 0
-21524 -21542 21547 0
-21543 21547 0
-21524 -21543 21548 0
-21544 21548 0
-21524 -21544 21549 0
-21545 21549 0
-21524 -21545 0
-21525 -21549 0
-21554 38 39 40 41 42 0
-38 21554 0
-39 21554 0
-40 21554 0
-41 21554 0
-42 21554 0
21554 36 37 0
-21555 80 81 82 83 84 0
-80 21555 0
-81 21555 0
-82 21555 0
-83 21555 0
-84 21555 0
21555 78 79 0
-21556 122 123 124 125 126 0
-122 21556 0
-123 21556 0
-124 21556 0
-125 21556 0
-126 21556 0
21556 120 121 0
-21557 164 165 166 167 168 0
-164 21557 0
-165 21557 0
-166 21557 0
-167 21557 0
-168 21557 0
21557 162 163 0
-21558 206 207 208 209 210 0
-206 21558 0
-207 21558 0
-208 21558 0
-209 21558 0
-210 21558 0
21558 204 205 0
-21559 248 249 250 251 252 0
-248 21559 0
-249 21559 0
-250 21559 0
-251 21559 0
-252 21559 0
21559 246 247 0
-21560 339 340 341 342 343 0
-339 21560 0
-340 21560 0
-341 21560 0
-342 21560 0
-343 21560 0
21560 337 338 0
-21554 21561 0
-21562 0
-21563 0
-21564 0
-21565 0
-21555 21566 0
-21561 21566 0
-21555 -21561 21567 0
-21562 21567 0
-21555 -21562 21568 0
-21563 21568 0
-21555 -21563 21569 0
-21564 21569 0
-21555 -21564 21570 0
-21565 21570 0
-21555 -21565 0
-21556 21571 0
-21566 21571 0
-21556 -21566 21572 0
-21567 21572 0
-21556 -21567 21573 0
-21568 21573 0
-21556 -21568 21574 0
-21569 21574 0
-21556 -21569 21575 0
-21570 21575 0
-21556 -21570 0
-21557 21576 0
-21571 21576 0
-21557 -21571 21577 0
-21572 21577 0
-21557 -21572 21578 0
-21573 21578 0
-21557 -21573 21579 0
-21574 21579 0
-21557 -21574 21580 0
-21575 21580 0
-21557 -21575 0
-21558 21581 0
-21576 21581 0
-21558 -21576 21582 0
-21577 21582 0
-21558 -21577 21583 0
-21578 21583 0
-21558 -21578 21584 0
-21579 21584 0
-21558 -21579 21585 0
-21580 21585 0
-21558 -21580 0
-21559 21586 0
-21581 21586 0
-21559 -21581 21587 0
-21582 21587 0
-21559 -21582 21588 0
-21583 21588 0
-21559 -21583 21589 0
-21584 21589 0
-21559 -21584 21590 0
-21585 21590 0
-21559 -21585 0
-21560 -21590 0
-21596 39 0
-39 21596 0
21596 36 37 38 40 41 42 0
-21597 81 0
-81 21597 0
21597 78 79 80 82 83 84 0
-21598 123 0
-123 21598 0
21598 120 121 122 124 125 126 0
-21599 165 0
-165 21599 0
21599 162 163 164 166 167 168 0
-21600 207 0
-207 21600 0
21600 204 205 206 208 209 210 0
-21601 249 0
-249 21601 0
21601 246 247 248 250 251 252 0
-21602 340 0
-340 21602 0
21602 337 338 339 341 342 343 0
-21596 21603 0
-21597 21604 0
-21603 21604 0
-21597 -21603 0
-21598 21605 0
-21604 21605 0
-21598 -21604 0
-21599 21606 0
-21605 21606 0
-21599 -21605 0
-21600 21607 0
-21606 21607 0
-21600 -21606 0
-21601 21608 0
-21607 21608 0
-21601 -21607 0
-21602 -21608 0
-21610 39 40 0
-39 21610 0
-40 21610 0
21610 36 37 38 41 42 0
-21611 81 82 0
-81 21611 0
-82 21611 0
21611 78 79 80 83 84 0
-21612 123 124 0
-123 21612 0
-124 21612 0
21612 120 121 122 125 126 0
-21613 165 166 0
-165 21613 0
-166 21613 0
21613 162 163 164 167 168 0
-21614 207 208 0
-207 21614 0
-208 21614 0
21614 204 205 206 209 210 0
-21615 249 250 0
-249 21615 0
-250 21615 0
21615 246 247 248 251 252 0
-21616 340 341 0
-340 21616 0
-341 21616 0
21616 337 338 339 342 343 0
-21610 21617 0
-21618 0
-21611 21619 0
-21617 21619 0
-21611 -21617 21620 0
-21618 21620 0
-21611 -21618 0
-21612 21621 0
-21619 21621 0
-21612 -21619 21622 0
-21620 21622 0
-21612 -21620 0
-21613 21623 0
-21621 21623 0
-21613 -21621 21624 0
-21622 21624 0
-21613 -21622 0
-21614 21625 0
-21623 21625 0
-21614 -21623 21626 0
-21624 21626 0
-21614 -21624 0
-21615 21627 0
-21625 21627 0
-21615 -21625 21628 0
-21626 21628 0
-21615 -21626 0
-21616 -21628 0
-21631 39 40 41 0
-39 21631 0
-40 21631 0
-41 21631 0
21631 36 37 38 42 0
-21632 81 82 83 0
-81 21632 0
-82 21632 0
-83 21632 0
21632 78 79 80 84 0
-21633 123 124 125 0
-123 21633 0
-124 21633 0
-125 21633 0
21633 120 121 122 126 0
-21634 165 166 167 0
-165 21634 0
-166 21634 0
-167 21634 0
21634 162 163 164 168 0
-21635 207 208 209 0
-207 21635 0
-208 21635 0
-209 21635 0
21635 204 205 206 210 0
-21636 249 250 251 0
-249 21636 0
-250 21636 0
-251 21636 0
21636 246 247 248 252 0
-21637 340 341 342 0
-340 21637 0
-341 21637 0
-342 21637 0
21637 337 338 339 343 0
-21631 21638 0
-21639 0
-21640 0
-21632 21641 0
-21638 21641 0
-21632 -21638 21642 0
-21639 21642 0
-21632 -21639 21643 0
-21640 21643 0
-21632 -21640 0
-21633 21644 0
-21641 21644 0
-21633 -21641 21645 0
-21642 21645 0
-21633 -21642 21646 0
-21643 21646 0
-21633 -21643 0
-21634 21647 0
-21644 21647 0
-21634 -21644 21648 0
-21645 21648 0
-21634 -21645 21649 0
-21646 21649 0
-21634 -21646 0
-21635 21650 0
-21647 21650 0
-21635 -21647 21651 0
-21648 21651 0
-21635 -21648 21652 0
-21649 21652 0
-21635 -21649 0
-21636 21653 0
-21650 21653 0
-21636 -21650 21654 0
-21651 21654 0
-21636 -21651 21655 0
-21652 21655 0
-21636 -21652 0
-21637 -21655 0
-21659 39 40 41 42 0
-39 21659 0
-40 21659 0
-41 21659 0
-42 21659 0
21659 36 37 38 0
-21660 81 82 83 84 0
-81 21660 0
-82 21660 0
-83 21660 0
-84 21660 0
21660 78 79 80 0
-21661 123 124 125 126 0
-123 21661 0
-124 21661 0
-125 21661 0
-126 21661 0
21661 120 121 122 0
-21662 165 166 167 168 0
-165 21662 0
-166 21662 0
-167 21662 0
-168 21662 0
21662 162 163 164 0
-21663 207 208 209 210 0
-207 21663 0
-208 21663 0
-209 21663 0
-210 21663 0
21663 204 205 206 0
-21664 249 250 251 252 0
-249 21664 0
-250 21664 0
-251 21664 0
-252 21664 0
21664 246 247 248 0
-21665 340 341 342 343 0
-340 21665 0
-341 21665 0
-342 21665 0
-343 21665 0
21665 337 338 339 0
-21659 21666 0
-21667 0
-21668 0
-21669 0
-21660 21670 0
-21666 21670 0
-21660 -21666 21671 0
-21667 21671 0
-21660 -21667 21672 0
-21668 21672 0
-21660 -21668 21673 0
-21669 21673 0
-21660 -21669 0
-21661 21674 0
-21670 21674 0
-21661 -21670 21675 0
-21671 21675 0
-21661 -21671 21676 0
-21672 21676 0
-21661 -21672 21677 0
-21673 21677 0
-21661 -21673 0
-21662 21678 0
-21674 21678 0
-21662 -21674 21679 0
-21675 21679 0
-21662 -21675 21680 0
-21676 21680 0
-21662 -21676 21681 0
-21677 21681 0
-21662 -21677 0
-21663 21682 0
-21678 21682 0
-21663 -21678 21683 0
-21679 21683 0
-21663 -21679 21684 0
-21680 21684 0
-21663 -21680 21685 0
-21681 21685 0
-21663 -21681 0
-21664 21686 0
-21682 21686 0
-21664 -21682 21687 0
-21683 21687 0
-21664 -21683 21688 0
-21684 21688 0
-21664 -21684 21689 0
-21685 21689 0
-21664 -21685 0
-21665 -21689 0
-21694 40 0
-40 21694 0
21694 36 37 38 39 41 42 0
-21695 82 0
-82 21695 0
21695 78 79 80 81 83 84 0
-21696 124 0
-124 21696 0
21696 120 121 122 123 125 126 0
-21697 166 0
-166 21697 0
21697 162 163 164 165 167 168 0
-21698 208 0
-208 21698 0
21698 204 205 206 207 209 210 0
-21699 250 0
-250 21699 0
21699 246 247 248 249 251 252 0
-21700 341 0
-341 21700 0
21700 337 338 339 340 342 343 0
-21694 21701 0
-21695 21702 0
-21701 21702 0
-21695 -21701 0
-21696 21703 0
-21702 21703 0
-21696 -21702 0
-21697 21704 0
-21703 21704 0
-21697 -21703 0
-21698 21705 0
-21704 21705 0
-21698 -21704 0
-21699 21706 0
-21705 21706 0
-21699 -21705 0
-21700 -21706 0
-21708 40 41 0
-40 21708 0
-41 21708 0
21708 36 37 38 39 42 0
-21709 82 83 0
-82 21709 0
-83 21709 0
21709 78 79 80 81 84 0
-21710 124 125 0
-124 21710 0
-125 21710 0
21710 120 121 122 123 126 0
-21711 166 167 0
-166 21711 0
-167 21711 0
21711 162 163 164 165 168 0
-21712 208 209 0
-208 21712 0
-209 21712 0
21712 204 205 206 207 210 0
-21713 250 251 0
-250 21713 0
-251 21713 0
21713 246 247 248 249 252 0
-21714 341 342 0
-341 21714 0
-342 21714 0
21714 337 338 339 340 343 0
-21708 21715 0
-21716 0
-21709 21717 0
-21715 21717 0
-21709 -21715 21718 0
-21716 21718 0
-21709 -21716 0
-21710 21719 0
-21717 21719 0
-21710 -21717 21720 0
-21718 21720 0
-21710 -21718 0
-21711 21721 0
-21719 21721 0
-21711 -21719 21722 0
-21720 21722 0
-21711 -21720 0
-21712 21723 0
-21721 21723 0
-21712 -21721 21724 0
-21722 21724 0
-21712 -21722 0
-21713 21725 0
-21723 21725 0
-21713 -21723 21726 0
-21724 21726 0
-21713 -21724 0
-21714 -21726 0
-21729 40 41 42 0
-40 21729 0
-41 21729 0
-42 21729 0
21729 36 37 38 39 0
-21730 82 83 84 0
-82 21730 0
-83 21730 0
-84 21730 0
21730 78 79 80 81 0
-21731 124 125 126 0
-124 21731 0
-125 21731 0
-126 21731 0
21731 120 121 122 123 0
-21732 166 167 168 0
-166 21732 0
-167 21732 0
-168 21732 0
21732 162 163 164 165 0
-21733 208 209 210 0
-208 21733 0
-209 21733 0
-210 21733 0
21733 204 205 206 207 0
-21734 250 251 252 0
-250 21734 0
-251 21734 0
-252 21734 0
21734 246 247 248 249 0
-21735 341 342 343 0
-341 21735 0
-342 21735 0
-343 21735 0
21735 337 338 339 340 0
-21729 21736 0
-21737 0
-21738 0
-21730 21739 0
-21736 21739 0
-21730 -21736 21740 0
-21737 21740 0
-21730 -21737 21741 0
-21738 21741 0
-21730 -21738 0
-21731 21742 0
-21739 21742 0
-21731 -21739 21743 0
-21740 21743 0
-21731 -21740 21744 0
-21741 21744 0
-21731 -21741 0
-21732 21745 0
-21742 21745 0
-21732 -21742 21746 0
-21743 21746 0
-21732 -21743 21747 0
-21744 21747 0
-21732 -21744 0
-21733 21748 0
-21745 21748 0
-21733 -21745 21749 0
-21746 21749 0
-21733 -21746 21750 0
-21747 21750 0
-21733 -21747 0
-21734 21751 0
-21748 21751 0
-21734 -21748 21752 0
-21749 21752 0
-21734 -21749 21753 0
-21750 21753 0
-21734 -21750 0
-21735 -21753 0
-21757 41 0
-41 21757 0
21757 36 37 38 39 40 42 0
-21758 83 0
-83 21758 0
21758 78 79 80 81 82 84 0
-21759 125 0
-125 21759 0
21759 120 121 122 123 124 126 0
-21760 167 0
-167 21760 0
21760 162 163 164 165 166 168 0
-21761 209 0
-209 21761 0
21761 204 205 206 207 208 210 0
-21762 251 0
-251 21762 0
21762 246 247 248 249 250 252 0
-21763 342 0
-342 21763 0
21763 337 338 339 340 341 343 0
-21757 21764 0
-21758 21765 0
-21764 21765 0
-21758 -21764 0
-21759 21766 0
-21765 21766 0
-21759 -21765 0
-21760 21767 0
-21766 21767 0
-21760 -21766 0
-21761 21768 0
-21767 21768 0
-21761 -21767 0
-21762 21769 0
-21768 21769 0
-21762 -21768 0
-21763 -21769 0
-21771 41 42 0
-41 21771 0
-42 21771 0
21771 36 37 38 39 40 0
-21772 83 84 0
-83 21772 0
-84 21772 0
21772 78 79 80 81 82 0
-21773 125 126 0
-125 21773 0
-126 21773 0
21773 120 121 122 123 124 0
-21774 167 168 0
-167 21774 0
-168 21774 0
21774 162 163 164 165 166 0
-21775 209 210 0
-209 21775 0
-210 21775 0
21775 204 205 206 207 208 0
-21776 251 252 0
-251 21776 0
-252 21776 0
21776 246 247 248 249 250 0
-21777 342 343 0
-342 21777 0
-343 21777 0
21777 337 338 339 340 341 0
-21771 21778 0
-21779 0
-21772 21780 0
-21778 21780 0
-21772 -21778 21781 0
-21779 21781 0
-21772 -21779 0
-21773 21782 0
-21780 21782 0
-21773 -21780 21783 0
-21781 21783 0
-21773 -21781 0
-21774 21784 0
-21782 21784 0
-21774 -21782 21785 0
-21783 21785 0
-21774 -21783 0
-21775 21786 0
-21784 21786 0
-21775 -21784 21787 0
-21785 21787 0
-21775 -21785 0
-21776 21788 0
-21786 21788 0
-21776 -21786 21789 0
-21787 21789 0
-21776 -21787 0
-21777 -21789 0
-21792 42 0
-42 21792 0
21792 36 37 38 39 40 41 0
-21793 84 0
-84 21793 0
21793 78 79 80 81 82 83 0
-21794 126 0
-126 21794 0
21794 120 121 122 123 124 125 0
-21795 168 0
-168 21795 0
21795 162 163 164 165 166 167 0
-21796 210 0
-210 21796 0
21796 204 205 206 207 208 209 0
-21797 252 0
-252 21797 0
21797 246 247 248 249 250 251 0
-21798 343 0
-343 21798 0
21798 337 338 339 340 341 342 0
-21792 21799 0
-21793 21800 0
-21799 21800 0
-21793 -21799 0
-21794 21801 0
-21800 21801 0
-21794 -21800 0
-21795 21802 0
-21801 21802 0
-21795 -21801 0
-21796 21803 0
-21802 21803 0
-21796 -21802 0
-21797 21804 0
-21803 21804 0
-21797 -21803 0
-21798 -21804 0
-36 21806 0
-78 21807 0
-21806 21807 0
-78 -21806 0
-120 21808 0
-21807 21808 0
-120 -21807 0
-162 21809 0
-21808 21809 0
-162 -21808 0
-204 21810 0
-21809 21810 0
-204 -21809 0
-246 21811 0
-21810 21811 0
-246 -21810 0
-337 -21811 0
36 78 120 162 204 246 337 0
-37 21813 0
-79 21814 0
-21813 21814 0
-79 -21813 0
-121 21815 0
-21814 21815 0
-121 -21814 0
-163 21816 0
-21815 21816 0
-163 -21815 0
-205 21817 0
-21816 21817 0
-205 -21816 0
-247 21818 0
-21817 21818 0
-247 -21817 0
-338 -21818 0
37 79 121 163 205 247 338 0
-38 21820 0
-80 21821 0
-21820 21821 0
-80 -21820 0
-122 21822 0
-21821 21822 0
-122 -21821 0
-164 21823 0
-21822 21823 0
-164 -21822 0
-206 21824 0
-21823 21824 0
-206 -21823 0
-248 21825 0
-21824 21825 0
-248 -21824 0
-339 -21825 0
38 80 122 164 206 248 339 0
-39 21827 0
-81 21828 0
-21827 21828 0
-81 -21827 0
-123 21829 0
-21828 21829 0
-123 -21828 0
-165 21830 0
-21829 21830 0
-165 -21829 0
-207 21831 0
-21830 21831 0
-207 -21830 0
-249 21832 0
-21831 21832 0
-249 -21831 0
-340 -21832 0
39 81 123 165 207 249 340 0
-40 21834 0
-82 21835 0
-21834 21835 0
-82 -21834 0
-124 21836 0
-21835 21836 0
-124 -21835 0
-166 21837 0
-21836 21837 0
-166 -21836 0
-208 21838 0
-21837 21838 0
-208 -21837 0
-250 21839 0
-21838 21839 0
-250 -21838 0
-341 -21839 0
40 82 124 166 208 250 341 0
-41 21841 0
-83 21842 0
-21841 21842 0
-83 -21841 0
-125 21843 0
-21842 21843 0
-125 -21842 0
-167 21844 0
-21843 21844 0
-167 -21843 0
-209 21845 0
-21844 21845 0
-209 -21844 0
-251 21846 0
-21845 21846 0
-251 -21845 0
-342 -21846 0
41 83 125 167 209 251 342 0
-42 21848 0
-84 21849 0
-21848 21849 0
-84 -21848 0
-126 21850 0
-21849 21850 0
-126 -21849 0
-168 21851 0
-21850 21851 0
-168 -21850 0
-210 21852 0
-21851 21852 0
-210 -21851 0
-252 21853 0
-21852 21853 0
-252 -21852 0
-343 -21853 0
42 84 126 168 210 252 343 0
-21855 43 0
-43 21855 0
21855 44 45 46 47 48 49 0
-21856 85 0
-85 21856 0
21856 86 87 88 89 90 91 0
-21857 127 0
-127 21857 0
21857 128 129 130 131 132 133 0
-21858 169 0
-169 21858 0
21858 170 171 172 173 174 175 0
-21859 211 0
-211 21859 0
21859 212 213 214 215 216 217 0
-21860 253 0
-253 21860 0
21860 254 255 256 257 258 259 0
-21861 295 0
-295 21861 0
21861 296 297 298 299 300 301 0
-21855 21862 0
-21856 21863 0
-21862 21863 0
-21856 -21862 0
-21857 21864 0
-21863 21864 0
-21857 -21863 0
-21858 21865 0
-21864 21865 0
-21858 -21864 0
-21859 21866 0
-21865 21866 0
-21859 -21865 0
-21860 21867 0
-21866 21867 0
-21860 -21866 0
-21861 -21867 0
-21869 43 44 0
-43 21869 0
-44 21869 0
21869 45 46 47 48 49 0
-21870 85 86 0
-85 21870 0
-86 21870 0
21870 87 88 89 90 91 0
-21871 127 128 0
-127 21871 0
-128 21871 0
21871 129 130 131 132 133 0
-21872 169 170 0
-169 21872 0
-170 21872 0
21872 171 172 173 174 175 0
-21873 211 212 0
-211 21873 0
-212 21873 0
21873 213 214 215 216 217 0
-21874 253 254 0
-253 21874 0
-254 21874 0
21874 255 256 257 258 259 0
-21875 295 296 0
-295 21875 0
-296 21875 0
21875 297 298 299 300 301 0
-21869 21876 0
-21877 0
-21870 21878 0
-21876 21878 0
-21870 -21876 21879 0
-21877 21879 0
-21870 -21877 0
-21871 21880 0
-21878 21880 0
-21871 -21878 21881 0
-21879 21881 0
-21871 -21879 0
-21872 21882 0
-21880 21882 0
-21872 -21880 21883 0
-21881 21883 0
-21872 -21881 0
-21873 21884 0
-21882 21884 0
-21873 -21882 21885 0
-21883 21885 0
-21873 -21883 0
-21874 21886 0
-21884 21886 0
-21874 -21884 21887 0
-21885 21887 0
-21874 -21885 0
-21875 -21887 0
-21890 43 44 45 0
-43 21890 0
-44 21890 0
-45 21890 0
21890 46 47 48 49 0
-21891 85 86 87 0
-85 21891 0
-86 21891 0
-87 21891 0
21891 88 89 90 91 0
-21892 127 128 129 0
-127 21892 0
-128 21892 0
-129 21892 0
21892 130 131 132 133 0
-21893 169 170 171 0
-169 21893 0
-170 21893 0
-171 21893 0
21893 172 173 174 175 0
-21894 211 212 213 0
-211 21894 0
-212 21894 0
-213 21894 0
21894 214 215 216 217 0
-21895 253 254 255 0
-253 21895 0
-254 21895 0
-255 21895 0
21895 256 257 258 259 0
-21896 295 296 297 0
-295 21896 0
-296 21896 0
-297 21896 0
21896 298 299 300 301 0
-21890 21897 0
-21898 0
-21899 0
-21891 21900 0
-21897 21900 0
-21891 -21897 21901 0
-21898 21901 0
-21891 -21898 21902 0
-21899 21902 0
-21891 -21899 0
-21892 21903 0
-21900 21903 0
-21892 -21900 21904 0
-21901 21904 0
-21892 -21901 21905 0
-21902 21905 0
-21892 -21902 0
-21893 21906 0
-21903 21906 0
-21893 -21903 21907 0
-21904 21907 0
-21893 -21904 21908 0
-21905 21908 0
-21893 -21905 0
-21894 21909 0
-21906 21909 0
-21894 -21906 21910 0
-21907 21910 0
-21894 -21907 21911 0
-21908 21911 0
-21894 -21908 0
-21895 21912 0
-21909 21912 0
-21895 -21909 21913 0
-21910 21913 0
-21895 -21910 21914 0
-21911 21914 0
-21895 -21911 0
-21896 -21914 0
-21918 43 44 45 46 0
-43 21918 0
-44 21918 0
-45 21918 0
-46 21918 0
21918 47 48 49 0
-21919 85 86 87 88 0
-85 21919 0
-86 21919 0
-87 21919 0
-88 21919 0
21919 89 90 91 0
-21920 127 128 129 130 0
-127 21920 0
-128 21920 0
-129 21920 0
-130 21920 0
21920 131 132 133 0
-21921 169 170 171 172 0
-169 21921 0
-170 21921 0
-171 21921 0
-172 21921 0
21921 173 174 175 0
-21922 211 212 213 214 0
-211 21922 0
-212 21922 0
-213 21922 0
-214 21922 0
21922 215 216 217 0
-21923 253 254 255 256 0
-253 21923 0
-254 21923 0
-255 21923 0
-256 21923 0
21923 257 258 259 0
-21924 295 296 297 298 0
-295 21924 0
-296 21924 0
-297 21924 0
-298 21924 0
21924 299 300 301 0
-21918 21925 0
-21926 0
-21927 0
-21928 0
-21919 21929 0
-21925 21929 0
-21919 -21925 21930 0
-21926 21930 0
-21919 -21926 21931 0
-21927 21931 0
-21919 -21927 21932 0
-21928 21932 0
-21919 -21928 0
-21920 21933 0
-21929 21933 0
-21920 -21929 21934 0
-21930 21934 0
-21920 -21930 21935 0
-21931 21935 0
-21920 -21931 21936 0
-21932 21936 0
-21920 -21932 0
-21921 21937 0
-21933 21937 0
-21921 -21933 21938 0
-21934 21938 0
-21921 -21934 21939 0
-21935 21939 0
-21921 -21935 21940 0
-21936 21940 0
-21921 -21936 0
-21922 21941 0
-21937 21941 0
-21922 -21937 21942 0
-21938 21942 0
-21922 -21938 21943 0
-21939 21943 0
-21922 -21939 21944 0
-21940 21944 0
-21922 -21940 0
-21923 21945 0
-21941 21945 0
-21923 -21941 21946 0
-21942 21946 0
-21923 -21942 21947 0
-21943 21947 0
-21923 -21943 21948 0
-21944 21948 0
-21923 -21944 0
-21924 -21948 0
-21953 43 44 45 46 47 0
-43 21953 0
-44 21953 0
-45 21953 0
-46 21953 0
-47 21953 0
21953 48 49 0
-21954 85 86 87 88 89 0
-85 21954 0
-86 21954 0
-87 21954 0
-88 21954 0
-89 21954 0
21954 90 91 0
-21955 127 128 129 130 131 0
-127 21955 0
-128 21955 0
-129 21955 0
-130 21955 0
-131 21955 0
21955 132 133 0
-21956 169 170 171 172 173 0
-169 21956 0
-170 21956 0
-171 21956 0
-172 21956 0
-173 21956 0
21956 174 175 0
-21957 211 212 213 214 215 0
-211 21957 0
-212 21957 0
-213 21957 0
-214 21957 0
-215 21957 0
21957 216 217 0
-21958 253 254 255 256 257 0
-253 21958 0
-254 21958 0
-255 21958 0
-256 21958 0
-257 21958 0
21958 258 259 0
-21959 295 296 297 298 299 0
-295 21959 0
-296 21959 0
-297 21959 0
-298 21959 0
-299 21959 0
21959 300 301 0
-21953 21960 0
-21961 0
-21962 0
-21963 0
-21964 0
-21954 21965 0
-21960 21965 0
-21954 -21960 21966 0
-21961 21966 0
-21954 -21961 21967 0
-21962 21967 0
-21954 -21962 21968 0
-21963 21968 0
-21954 -21963 21969 0
-21964 21969 0
-21954 -21964 0
-21955 21970 0
-21965 21970 0
-21955 -21965 21971 0
-21966 21971 0
-21955 -21966 21972 0
-21967 21972 0
-21955 -21967 21973 0
-21968 21973 0
-21955 -21968 21974 0
-21969 21974 0
-21955 -21969 0
-21956 21975 0
-21970 21975 0
-21956 -21970 21976 0
-21971 21976 0
-21956 -21971 21977 0
-21972 21977 0
-21956 -21972 21978 0
-21973 21978 0
-21956 -21973 21979 0
-21974 21979 0
-21956 -21974 0
-21957 21980 0
-21975 21980 0
-21957 -21975 21981 0
-21976 21981 0
-21957 -21976 21982 0
-21977 21982 0
-21957 -21977 21983 0
-21978 21983 0
-21957 -21978 21984 0
-21979 21984 0
-21957 -21979 0
-21958 21985 0
-21980 21985 0
-21958 -21980 21986 0
-21981 21986 0
-21958 -21981 21987 0
-21982 21987 0
-21958 -21982 21988 0
-21983 21988 0
-21958 -21983 21989 0
-21984 21989 0
-21958 -21984 0
-21959 -21989 0
-21995 43 44 45 46 47 48 0
-43 21995 0
-44 21995 0
-45 21995 0
-46 21995 0
-47 21995 0
-48 21995 0
21995 49 0
-21996 85 86 87 88 89 90 0
-85 21996 0
-86 21996 0
-87 21996 0
-88 21996 0
-89 21996 0
-90 21996 0
21996 91 0
-21997 127 128 129 130 131 132 0
-127 21997 0
-128 21997 0
-129 21997 0
-130 21997 0
-131 21997 0
-132 21997 0
21997 133 0
-21998 169 170 171 172 173 174 0
-169 21998 0
-170 21998 0
-171 21998 0
-172 21998 0
-173 21998 0
-174 21998 0
21998 175 0
-21999 211 212 213 214 215 216 0
-211 21999 0
-212 21999 0
-213 21999 0
-214 21999 0
-215 21999 0
-216 21999 0
21999 217 0
-22000 253 254 255 256 257 258 0
-253 22000 0
-254 22000 0
-255 22000 0
-256 22000 0
-257 22000 0
-258 22000 0
22000 259 0
-22001 295 296 297 298 299 300 0
-295 22001 0
-296 22001 0
-297 22001 0
-298 22001 0
-299 22001 0
-300 22001 0
22001 301 0
-21995 22002 0
-22003 0
-22004 0
-22005 0
-22006 0
-22007 0
-21996 22008 0
-22002 22008 0
-21996 -22002 22009 0
-22003 22009 0
-21996 -22003 22010 0
-22004 22010 0
-21996 -22004 22011 0
-22005 22011 0
-21996 -22005 22012 0
-22006 22012 0
-21996 -22006 22013 0
-22007 22013 0
-21996 -22007 0
-21997 22014 0
-22008 22014 0
-21997 -22008 22015 0
-22009 22015 0
-21997 -22009 22016 0
-22010 22016 0
-21997 -22010 22017 0
-22011 22017 0
-21997 -22011 22018 0
-22012 22018 0
-21997 -22012 22019 0
-22013 22019 0
-21997 -22013 0
-21998 22020 0
-22014 22020 0
-21998 -22014 22021 0
-22015 22021 0
-21998 -22015 22022 0
-22016 22022 0
-21998 -22016 22023 0
-22017 22023 0
-21998 -22017 22024 0
-22018 22024 0
-21998 -22018 22025 0
-22019 22025 0
-21998 -22019 0
-21999 22026 0
-22020 22026 0
-21999 -22020 22027 0
-22021 22027 0
-21999 -22021 22028 0
-22022 22028 0
-21999 -22022 22029 0
-22023 22029 0
-21999 -22023 22030 0
-22024 22030 0
-21999 -22024 22031 0
-22025 22031 0
-21999 -22025 0
-22000 22032 0
-22026 22032 0
-22000 -22026 22033 0
-22027 22033 0
-22000 -22027 22034 0
-22028 22034 0
-22000 -22028 22035 0
-22029 22035 0
-22000 -22029 22036 0
-22030 22036 0
-22000 -22030 22037 0
-22031 22037 0
-22000 -22031 0
-22001 -22037 0
-22044 43 44 45 46 47 48 49 0
-43 22044 0
-44 22044 0
-45 22044 0
-46 22044 0
-47 22044 0
-48 22044 0
-49 22044 0
22044 0
-22045 85 86 87 88 89 90 91 0
-85 22045 0
-86 22045 0
-87 22045 0
-88 22045 0
-89 22045 0
-90 22045 0
-91 22045 0
22045 0
-22046 127 128 129 130 131 132 133 0
-127 22046 0
-128 22046 0
-129 22046 0
-130 22046 0
-131 22046 0
-132 22046 0
-133 22046 0
22046 0
-22047 169 170 171 172 173 174 175 0
-169 22047 0
-170 22047 0
-171 22047 0
-172 22047 0
-173 22047 0
-174 22047 0
-175 22047 0
22047 0
-22048 211 212 213 214 215 216 217 0
-211 22048 0
-212 22048 0
-213 22048 0
-214 22048 0
-215 22048 0
-216 22048 0
-217 22048 0
22048 0
-22049 253 254 255 256 257 258 259 0
-253 22049 0
-254 22049 0
-255 22049 0
-256 22049 0
-257 22049 0
-258 22049 0
-259 22049 0
22049 0
-22050 295 296 297 298 299 300 301 0
-295 22050 0
-296 22050 0
-297 22050 0
-298 22050 0
-299 22050 0
-300 22050 0
-301 22050 0
22050 0
-22051 44 0
-44 22051 0
22051 43 45 46 47 48 49 0
-22052 86 0
-86 22052 0
22052 85 87 88 89 90 91 0
-22053 128 0
-128 22053 0
22053 127 129 130 131 132 133 0
-22054 170 0
-170 22054 0
22054 169 171 172 173 174 175 0
-22055 212 0
-212 22055 0
22055 211 213 214 215 216 217 0
-22056 254 0
-254 22056 0
22056 253 255 256 257 258 259 0
-22057 296 0
-296 22057 0
22057 295 297 298 299 300 301 0
-22051 22058 0
-22052 22059 0
-22058 22059 0
-22052 -22058 0
-22053 22060 0
-22059 22060 0
-22053 -22059 0
-22054 22061 0
-22060 22061 0
-22054 -22060 0
-22055 22062 0
-22061 22062 0
-22055 -22061 0
-22056 22063 0
-22062 22063 0
-22056 -22062 0
-22057 -22063 0
-22065 44 45 0
-44 22065 0
-45 22065 0
22065 43 46 47 48 49 0
-22066 86 87 0
-86 22066 0
-87 22066 0
22066 85 88 89 90 91 0
-22067 128 129 0
-128 22067 0
-129 22067 0
22067 127 130 131 132 133 0
-22068 170 171 0
-170 22068 0
-171 22068 0
22068 169 172 173 174 175 0
-22069 212 213 0
-212 22069 0
-213 22069 0
22069 211 214 215 216 217 0
-22070 254 255 0
-254 22070 0
-255 22070 0
22070 253 256 257 258 259 0
-22071 296 297 0
-296 22071 0
-297 22071 0
22071 295 298 299 300 301 0
-22065 22072 0
-22073 0
-22066 22074 0
-22072 22074 0
-22066 -22072 22075 0
-22073 22075 0
-22066 -22073 0
-22067 22076 0
-22074 22076 0
-22067 -22074 22077 0
-22075 22077 0
-22067 -22075 0
-22068 22078 0
-22076 22078 0
-22068 -22076 22079 0
-22077 22079 0
-22068 -22077 0
-22069 22080 0
-22078 22080 0
-22069 -22078 22081 0
-22079 22081 0
-22069 -22079 0
-22070 22082 0
-22080 22082 0
-22070 -22080 22083 0
-22081 22083 0
-22070 -22081 0
-22071 -22083 0
-22086 44 45 46 0
-44 22086 0
-45 22086 0
-46 22086 0
22086 43 47 48 49 0
-22087 86 87 88 0
-86 22087 0
-87 22087 0
-88 22087 0
22087 85 89 90 91 0
-22088 128 129 130 0
-128 22088 0
-129 22088 0
-130 22088 0
22088 127 131 132 133 0
-22089 170 171 172 0
-170 22089 0
-171 22089 0
-172 22089 0
22089 169 173 174 175 0
-22090 212 213 214 0
-212 22090 0
-213 22090 0
-214 22090 0
22090 211 215 216 217 0
-22091 254 255 256 0
-254 22091 0
-255 22091 0
-256 22091 0
22091 253 257 258 259 0
-22092 296 297 298 0
-296 22092 0
-297 22092 0
-298 22092 0
22092 295 299 300 301 0
-22086 22093 0
-22094 0
-22095 0
-22087 22096 0
-22093 22096 0
-22087 -22093 22097 0
-22094 22097 0
-22087 -22094 22098 0
-22095 22098 0
-22087 -22095 0
-22088 22099 0
-22096 22099 0
-22088 -22096 22100 0
-22097 22100 0
-22088 -22097 22101 0
-22098 22101 0
-22088 -22098 0
-22089 22102 0
-22099 22102 0
-22089 -22099 22103 0
-22100 22103 0
-22089 -22100 22104 0
-22101 22104 0
-22089 -22101 0
-22090 22105 0
-22102 22105 0
-22090 -22102 22106 0
-22103 22106 0
-22090 -22103 22107 0
-22104 22107 0
-22090 -22104 0
-22091 22108 0
-22105 22108 0
-22091 -22105 22109 0
-22106 22109 0
-22091 -22106 22110 0
-22107 22110 0
-22091 -22107 0
-22092 -22110 0
-22114 44 45 46 47 0
-44 22114 0
-45 22114 0
-46 22114 0
-47 22114 0
22114 43 48 49 0
-22115 86 87 88 89 0
-86 22115 0
-87 22115 0
-88 22115 0
-89 22115 0
22115 85 90 91 0
-22116 128 129 130 131 0
-128 22116 0
-129 22116 0
-130 22116 0
-131 22116 0
22116 127 132 133 0
-22117 170 171 172 173 0
-170 22117 0
-171 22117 0
-172 22117 0
-173 22117 0
22117 169 174 175 0
-22118 212 213 214 215 0
-212 22118 0
-213 22118 0
-214 22118 0
-215 22118 0
22118 211 216 217 0
-22119 254 255 256 257 0
-254 22119 0
-255 22119 0
-256 22119 0
-257 22119 0
22119 253 258 259 0
-22120 296 297 298 299 0
-296 22120 0
-297 22120 0
-298 22120 0
-299 22120 0
22120 295 300 301 0
-22114 22121 0
-22122 0
-22123 0
-22124 0
-22115 22125 0
-22121 22125 0
-22115 -22121 22126 0
-22122 22126 0
-22115 -22122 22127 0
-22123 22127 0
-22115 -22123 22128 0
-22124 22128 0
-22115 -22124 0
-22116 22129 0
-22125 22129 0
-22116 -22125 22130 0
-22126 22130 0
-22116 -22126 22131 0
-22127 22131 0
-22116 -22127 22132 0
-22128 22132 0
-22116 -22128 0
-22117 22133 0
-22129 22133 0
-22117 -22129 22134 0
-22130 22134 0
-22117 -22130 22135 0
-22131 22135 0
-22117 -22131 22136 0
-22132 22136 0
-22117 -22132 0
-22118 22137 0
-22133 22137 0
-22118 -22133 22138 0
-22134 22138 0
-22118 -22134 22139 0
-22135 22139 0
-22118 -22135 22140 0
-22136 22140 0
-22118 -22136 0
-22119 22141 0
-22137 22141 0
-22119 -22137 22142 0
-22138 22142 0
-22119 -22138 22143 0
-22139 22143 0
-22119 -22139 22144 0
-22140 22144 0
-22119 -22140 0
-22120 -22144 0
-22149 44 45 46 47 48 0
-44 22149 0
-45 22149 0
-46 22149 0
-47 22149 0
-48 22149 0
22149 43 49 0
-22150 86 87 88 89 90 0
-86 22150 0
-87 22150 0
-88 22150 0
-89 22150 0
-90 22150 0
22150 85 91 0
-22151 128 129 130 131 132 0
-128 22151 0
-129 22151 0
-130 22151 0
-131 22151 0
-132 22151 0
22151 127 133 0
-22152 170 171 172 173 174 0
-170 22152 0
-171 22152 0
-172 22152 0
-173 22152 0
-174 22152 0
22152 169 175 0
-22153 212 213 214 215 216 0
-212 22153 0
-213 22153 0
-214 22153 0
-215 22153 0
-216 22153 0
22153 211 217 0
-22154 254 255 256 257 258 0
-254 22154 0
-255 22154 0
-256 22154 0
-257 22154 0
-258 22154 0
22154 253 259 0
-22155 296 297 298 299 300 0
-296 22155 0
-297 22155 0
-298 22155 0
-299 22155 0
-300 22155 0
22155 295 301 0
-22149 22156 0
-22157 0
-22158 0
-22159 0
-22160 0
-22150 22161 0
-22156 22161 0
-22150 -22156 22162 0
-22157 22162 0
-22150 -22157 22163 0
-22158 22163 0
-22150 -22158 22164 0
-22159 22164 0
-22150 -22159 22165 0
-22160 22165 0
-22150 -22160 0
-22151 22166 0
-22161 22166 0
-22151 -22161 22167 0
-22162 22167 0
-22151 -22162 22168 0
-22163 22168 0
-22151 -22163 22169 0
-22164 22169 0
-22151 -22164 22170 0
-22165 22170 0
-22151 -22165 0
-22152 22171 0
-22166 22171 0
-22152 -22166 22172 0
-22167 22172 0
-22152 -22167 22173 0
-22168 22173 0
-22152 -22168 22174 0
-22169 22174 0
-22152 -22169 22175 0
-22170 22175 0
-22152 -22170 0
-22153 22176 0
-22171 22176 0
-22153 -22171 22177 0
-22172 22177 0
-22153 -22172 22178 0
-22173 22178 0
-22153 -22173 22179 0
-22174 22179 0
-22153 -22174 22180 0
-22175 22180 0
-22153 -22175 0
-22154 22181 0
-22176 22181 0
-22154 -22176 22182 0
-22177 22182 0
-22154 -22177 22183 0
-22178 22183 0
-22154 -22178 22184 0
-22179 22184 0
-22154 -22179 22185 0
-22180 22185 0
-22154 -22180 0
-22155 -22185 0
-22191 44 45 46 47 48 49 0
-44 22191 0
-45 22191 0
-46 22191 0
-47 22191 0
-48 22191 0
-49 22191 0
22191 43 0
-22192 86 87 88 89 90 91 0
-86 22192 0
-87 22192 0
-88 22192 0
-89 22192 0
-90 22192 0
-91 22192 0
22192 85 0
-22193 128 129 130 131 132 133 0
-128 22193 0
-129 22193 0
-130 22193 0
-131 22193 0
-132 22193 0
-133 22193 0
22193 127 0
-22194 170 171 172 173 174 175 0
-170 22194 0
-171 22194 0
-172 22194 0
-173 22194 0
-174 22194 0
-175 22194 0
22194 169 0
-22195 212 213 214 215 216 217 0
-212 22195 0
-213 22195 0
-214 22195 0
-215 22195 0
-216 22195 0
-217 22195 0
22195 211 0
-22196 254 255 256 257 258 259 0
-254 22196 0
-255 22196 0
-256 22196 0
-257 22196 0
-258 22196 0
-259 22196 0
22196 253 0
-22197 296 297 298 299 300 301 0
-296 22197 0
-297 22197 0
-298 22197 0
-299 22197 0
-300 22197 0
-301 22197 0
22197 295 0
-22191 22198 0
-22199 0
-22200 0
-22201 0
-22202 0
-22203 0
-22192 22204 0
-22198 22204 0
-22192 -22198 22205 0
-22199 22205 0
-22192 -22199 22206 0
-22200 22206 0
-22192 -22200 22207 0
-22201 22207 0
-22192 -22201 22208 0
-22202 22208 0
-22192 -22202 22209 0
-22203 22209 0
-22192 -22203 0
-22193 22210 0
-22204 22210 0
-22193 -22204 22211 0
-22205 22211 0
-22193 -22205 22212 0
-22206 22212 0
-22193 -22206 22213 0
-22207 22213 0
-22193 -22207 22214 0
-22208 22214 0
-22193 -22208 22215 0
-22209 22215 0
-22193 -22209 0
-22194 22216 0
-22210 22216 0
-22194 -22210 22217 0
-22211 22217 0
-22194 -22211 22218 0
-22212 22218 0
-22194 -22212 22219 0
-22213 22219 0
-22194 -22213 22220 0
-22214 22220 0
-22194 -22214 22221 0
-22215 22221 0
-22194 -22215 0
-22195 22222 0
-22216 22222 0
-22195 -22216 22223 0
-22217 22223 0
-22195 -22217 22224 0
-22218 22224 0
-22195 -22218 22225 0
-22219 22225 0
-22195 -22219 22226 0
-22220 22226 0
-22195 -22220 22227 0
-22221 22227 0
-22195 -22221 0
-22196 22228 0
-22222 22228 0
-22196 -22222 22229 0
-22223 22229 0
-22196 -22223 22230 0
-22224 22230 0
-22196 -22224 22231 0
-22225 22231 0
-22196 -22225 22232 0
-22226 22232 0
-22196 -22226 22233 0
-22227 22233 0
-22196 -22227 0
-22197 -22233 0
-22240 45 0
-45 22240 0
22240 43 44 46 47 48 49 0
-22241 87 0
-87 22241 0
22241 85 86 88 89 90 91 0
-22242 129 0
-129 22242 0
22242 127 128 130 131 132 133 0
-22243 171 0
-171 22243 0
22243 169 170 172 173 174 175 0
-22244 213 0
-213 22244 0
22244 211 212 214 215 216 217 0
-22245 255 0
-255 22245 0
22245 253 254 256 257 258 259 0
-22246 297 0
-297 22246 0
22246 295 296 298 299 300 301 0
-22240 22247 0
-22241 22248 0
-22247 22248 0
-22241 -22247 0
-22242 22249 0
-22248 22249 0
-22242 -22248 0
-22243 22250 0
-22249 22250 0
-22243 -22249 0
-22244 22251 0
-22250 22251 0
-22244 -22250 0
-22245 22252 0
-22251 22252 0
-22245 -22251 0
-22246 -22252 0
-22254 45 46 0
-45 22254 0
-46 22254 0
22254 43 44 47 48 49 0
-22255 87 88 0
-87 22255 0
-88 22255 0
22255 85 86 89 90 91 0
-22256 129 130 0
-129 22256 0
-130 22256 0
22256 127 128 131 132 133 0
-22257 171 172 0
-171 22257 0
-172 22257 0
22257 169 170 173 174 175 0
-22258 213 214 0
-213 22258 0
-214 22258 0
22258 211 212 215 216 217 0
-22259 255 256 0
-255 22259 0
-256 22259 0
22259 253 254 257 258 259 0
-22260 297 298 0
-297 22260 0
-298 22260 0
22260 295 296 299 300 301 0
-22254 22261 0
-22262 0
-22255 22263 0
-22261 22263 0
-22255 -22261 22264 0
-22262 22264 0
-22255 -22262 0
-22256 22265 0
-22263 22265 0
-22256 -22263 22266 0
-22264 22266 0
-22256 -22264 0
-22257 22267 0
-22265 22267 0
-22257 -22265 22268 0
-22266 22268 0
-22257 -22266 0
-22258 22269 0
-22267 22269 0
-22258 -22267 22270 0
-22268 22270 0
-22258 -22268 0
-22259 22271 0
-22269 22271 0
-22259 -22269 22272 0
-22270 22272 0
-22259 -22270 0
-22260 -22272 0
-22275 45 46 47 0
-45 22275 0
-46 22275 0
-47 22275 0
22275 43 44 48 49 0
-22276 87 88 89 0
-87 22276 0
-88 22276 0
-89 22276 0
22276 85 86 90 91 0
-22277 129 130 131 0
-129 22277 0
-130 22277 0
-131 22277 0
22277 127 128 132 133 0
-22278 171 172 173 0
-171 22278 0
-172 22278 0
-173 22278 0
22278 169 170 174 175 0
-22279 213 214 215 0
-213 22279 0
-214 22279 0
-215 22279 0
22279 211 212 216 217 0
-22280 255 256 257 0
-255 22280 0
-256 22280 0
-257 22280 0
22280 253 254 258 259 0
-22281 297 298 299 0
-297 22281 0
-298 22281 0
-299 22281 0
22281 295 296 300 301 0
-22275 22282 0
-22283 0
-22284 0
-22276 22285 0
-22282 22285 0
-22276 -22282 22286 0
-22283 22286 0
-22276 -22283 22287 0
-22284 22287 0
-22276 -22284 0
-22277 22288 0
-22285 22288 0
-22277 -22285 22289 0
-22286 22289 0
-22277 -22286 22290 0
-22287 22290 0
-22277 -22287 0
-22278 22291 0
-22288 22291 0
-22278 -22288 22292 0
-22289 22292 0
-22278 -22289 22293 0
-22290 22293 0
-22278 -22290 0
-22279 22294 0
-22291 22294 0
-22279 -22291 22295 0
-22292 22295 0
-22279 -22292 22296 0
-22293 22296 0
-22279 -22293 0
-22280 22297 0
-22294 22297 0
-22280 -22294 22298 0
-22295 22298 0
-22280 -22295 22299 0
-22296 22299 0
-22280 -22296 0
-22281 -22299 0
-22303 45 46 47 48 0
-45 22303 0
-46 22303 0
-47 22303 0
-48 22303 0
22303 43 44 49 0
-22304 87 88 89 90 0
-87 22304 0
-88 22304 0
-89 22304 0
-90 22304 0
22304 85 86 91 0
-22305 129 130 131 132 0
-129 22305 0
-130 22305 0
-131 22305 0
-132 22305 0
22305 127 128 133 0
-22306 171 172 173 174 0
-171 22306 0
-172 22306 0
-173 22306 0
-174 22306 0
22306 169 170 175 0
-22307 213 214 215 216 0
-213 22307 0
-214 22307 0
-215 22307 0
-216 22307 0
22307 211 212 217 0
-22308 255 256 257 258 0
-255 22308 0
-256 22308 0
-257 22308 0
-258 22308 0
22308 253 254 259 0
-22309 297 298 299 300 0
-297 22309 0
-298 22309 0
-299 22309 0
-300 22309 0
22309 295 296 301 0
-22303 22310 0
-22311 0
-22312 0
-22313 0
-22304 22314 0
-22310 22314 0
-22304 -22310 22315 0
-22311 22315 0
-22304 -22311 22316 0
-22312 22316 0
-22304 -22312 22317 0
-22313 22317 0
-22304 -22313 0
-22305 22318 0
-22314 22318 0
-22305 -22314 22319 0
-22315 22319 0
-22305 -22315 22320 0
-22316 22320 0
-22305 -22316 22321 0
-22317 22321 0
-22305 -22317 0
-22306 22322 0
-22318 22322 0
-22306 -22318 22323 0
-22319 22323 0
-22306 -22319 22324 0
-22320 22324 0
-22306 -22320 22325 0
-22321 22325 0
-22306 -22321 0
-22307 22326 0
-22322 22326 0
-22307 -22322 22327 0
-22323 22327 0
-22307 -22323 22328 0
-22324 22328 0
-22307 -22324 22329 0
-22325 22329 0
-22307 -22325 0
-22308 22330 0
-22326 22330 0
-22308 -22326 22331 0
-22327 22331 0
-22308 -22327 22332 0
-22328 22332 0
-22308 -22328 22333 0
-22329 22333 0
-22308 -22329 0
-22309 -22333 0
-22338 45 46 47 48 49 0
-45 22338 0
-46 22338 0
-47 22338 0
-48 22338 0
-49 22338 0
22338 43 44 0
-22339 87 88 89 90 91 0
-87 22339 0
-88 22339 0
-89 22339 0
-90 22339 0
-91 22339 0
22339 85 86 0
-22340 129 130 131 132 133 0
-129 22340 0
-130 22340 0
-131 22340 0
-132 22340 0
-133 22340 0
22340 127 128 0
-22341 171 172 173 174 175 0
-171 22341 0
-172 22341 0
-173 22341 0
-174 22341 0
-175 22341 0
22341 169 170 0
-22342 213 214 215 216 217 0
-213 22342 0
-214 22342 0
-215 22342 0
-216 22342 0
-217 22342 0
22342 211 212 0
-22343 255 256 257 258 259 0
-255 22343 0
-256 22343 0
-257 22343 0
-258 22343 0
-259 22343 0
22343 253 254 0
-22344 297 298 299 300 301 0
-297 22344 0
-298 22344 0
-299 22344 0
-300 22344 0
-301 22344 0
22344 295 296 0
-22338 22345 0
-22346 0
-22347 0
-22348 0
-22349 0
-22339 22350 0
-22345 22350 0
-22339 -22345 22351 0
-22346 22351 0
-22339 -22346 22352 0
-22347 22352 0
-22339 -22347 22353 0
-22348 22353 0
-22339 -22348 22354 0
-22349 22354 0
-22339 -22349 0
-22340 22355 0
-22350 22355 0
-22340 -22350 22356 0
-22351 22356 0
-22340 -22351 22357 0
-22352 22357 0
-22340 -22352 22358 0
-22353 22358 0
-22340 -22353 22359 0
-22354 22359 0
-22340 -22354 0
-22341 22360 0
-22355 22360 0
-22341 -22355 22361 0
-22356 22361 0
-22341 -22356 22362 0
-22357 22362 0
-22341 -22357 22363 0
-22358 22363 0
-22341 -22358 22364 0
-22359 22364 0
-22341 -22359 0
-22342 22365 0
-22360 22365 0
-22342 -22360 22366 0
-22361 22366 0
-22342 -22361 22367 0
-22362 22367 0
-22342 -22362 22368 0
-22363 22368 0
-22342 -22363 22369 0
-22364 22369 0
-22342 -22364 0
-22343 22370 0
-22365 22370 0
-22343 -22365 22371 0
-22366 22371 0
-22343 -22366 22372 0
-22367 22372 0
-22343 -22367 22373 0
-22368 22373 0
-22343 -22368 22374 0
-22369 22374 0
-22343 -22369 0
-22344 -22374 0
-22380 46 0
-46 22380 0
22380 43 44 45 47 48 49 0
-22381 88 0
-88 22381 0
22381 85 86 87 89 90 91 0
-22382 130 0
-130 22382 0
22382 127 128 129 131 132 133 0
-22383 172 0
-172 22383 0
22383 169 170 171 173 174 175 0
-22384 214 0
-214 22384 0
22384 211 212 213 215 216 217 0
-22385 256 0
-256 22385 0
22385 253 254 255 257 258 259 0
-22386 298 0
-298 22386 0
22386 295 296 297 299 300 301 0
-22380 22387 0
-22381 22388 0
-22387 22388 0
-22381 -22387 0
-22382 22389 0
-22388 22389 0
-22382 -22388 0
-22383 22390 0
-22389 22390 0
-22383 -22389 0
-22384 22391 0
-22390 22391 0
-22384 -22390 0
-22385 22392 0
-22391 22392 0
-22385 -22391 0
-22386 -22392 0
-22394 46 47 0
-46 22394 0
-47 22394 0
22394 43 44 45 48 49 0
-22395 88 89 0
-88 22395 0
-89 22395 0
22395 85 86 87 90 91 0
-22396 130 131 0
-130 22396 0
-131 22396 0
22396 127 128 129 132 133 0
-22397 172 173 0
-172 22397 0
-173 22397 0
22397 169 170 171 174 175 0
-22398 214 215 0
-214 22398 0
-215 22398 0
22398 211 212 213 216 217 0
-22399 256 257 0
-256 22399 0
-257 22399 0
22399 253 254 255 258 259 0
-22400 298 299 0
-298 22400 0
-299 22400 0
22400 295 296 297 300 301 0
-22394 22401 0
-22402 0
-22395 22403 0
-22401 22403 0
-22395 -22401 22404 0
-22402 22404 0
-22395 -22402 0
-22396 22405 0
-22403 22405 0
-22396 -22403 22406 0
-22404 22406 0
-22396 -22404 0
-22397 22407 0
-22405 22407 0
-22397 -22405 22408 0
-22406 22408 0
-22397 -22406 0
-22398 22409 0
-22407 22409 0
-22398 -22407 22410 0
-22408 22410 0
-22398 -22408 0
-22399 22411 0
-22409 22411 0
-22399 -22409 22412 0
-22410 22412 0
-22399 -22410 0
-22400 -22412 0
-22415 46 47 48 0
-46 22415 0
-47 22415 0
-48 22415 0
22415 43 44 45 49 0
-22416 88 89 90 0
-88 22416 0
-89 22416 0
-90 22416 0
22416 85 86 87 91 0
-22417 130 131 132 0
-130 22417 0
-131 22417 0
-132 22417 0
22417 127 128 129 133 0
-22418 172 173 174 0
-172 22418 0
-173 22418 0
-174 22418 0
22418 169 170 171 175 0
-22419 214 215 216 0
-214 22419 0
-215 22419 0
-216 22419 0
22419 211 212 213 217 0
-22420 256 257 258 0
-256 22420 0
-257 22420 0
-258 22420 0
22420 253 254 255 259 0
-22421 298 299 300 0
-298 22421 0
-299 22421 0
-300 22421 0
22421 295 296 297 301 0
-22415 22422 0
-22423 0
-22424 0
-22416 22425 0
-22422 22425 0
-22416 -22422 22426 0
-22423 22426 0
-22416 -22423 22427 0
-22424 22427 0
-22416 -22424 0
-22417 22428 0
-22425 22428 0
-22417 -22425 22429 0
-22426 22429 0
-22417 -22426 22430 0
-22427 22430 0
-22417 -22427 0
-22418 22431 0
-22428 22431 0
-22418 -22428 22432 0
-22429 22432 0
-22418 -22429 22433 0
-22430 22433 0
-22418 -22430 0
-22419 22434 0
-22431 22434 0
-22419 -22431 22435 0
-22432 22435 0
-22419 -22432 22436 0
-22433 22436 0
-22419 -22433 0
-22420 22437 0
-22434 22437 0
-22420 -22434 22438 0
-22435 22438 0
-22420 -22435 22439 0
-22436 22439 0
-22420 -22436 0
-22421 -22439 0
-22443 46 47 48 49 0
-46 22443 0
-47 22443 0
-48 22443 0
-49 22443 0
22443 43 44 45 0
-22444 88 89 90 91 0
-88 22444 0
-89 22444 0
-90 22444 0
-91 22444 0
22444 85 86 87 0
-22445 130 131 132 133 0
-130 22445 0
-131 22445 0
-132 22445 0
-133 22445 0
22445 127 128 129 0
-22446 172 173 174 175 0
-172 22446 0
-173 22446 0
-174 22446 0
-175 22446 0
22446 169 170 171 0
-22447 214 215 216 217 0
-214 22447 0
-215 22447 0
-216 22447 0
-217 22447 0
22447 211 212 213 0
-22448 256 257 258 259 0
-256 22448 0
-257 22448 0
-258 22448 0
-259 22448 0
22448 253 254 255 0
-22449 298 299 300 301 0
-298 22449 0
-299 22449 0
-300 22449 0
-301 22449 0
22449 295 296 297 0
-22443 22450 0
-22451 0
-22452 0
-22453 0
-22444 22454 0
-22450 22454 0
-22444 -22450 22455 0
-22451 22455 0
-22444 -22451 22456 0
-22452 22456 0
-22444 -22452 22457 0
-22453 22457 0
-22444 -22453 0
-22445 22458 0
-22454 22458 0
-22445 -22454 22459 0
-22455 22459 0
-22445 -22455 22460 0
-22456 22460 0
-22445 -22456 22461 0
-22457 22461 0
-22445 -22457 0
-22446 22462 0
-22458 22462 0
-22446 -22458 22463 0
-22459 22463 0
-22446 -22459 22464 0
-22460 22464 0
-22446 -22460 22465 0
-22461 22465 0
-22446 -22461 0
-22447 22466 0
-22462 22466 0
-22447 -22462 22467 0
-22463 22467 0
-22447 -22463 22468 0
-22464 22468 0
-22447 -22464 22469 0
-22465 22469 0
-22447 -22465 0
-22448 22470 0
-22466 22470 0
-22448 -22466 22471 0
-22467 22471 0
-22448 -22467 22472 0
-22468 22472 0
-22448 -22468 22473 0
-22469 22473 0
-22448 -22469 0
-22449 -22473 0
-22478 47 0
-47 22478 0
22478 43 44 45 46 48 49 0
-22479 89 0
-89 22479 0
22479 85 86 87 88 90 91 0
-22480 131 0
-131 22480 0
22480 127 128 129 130 132 133 0
-22481 173 0
-173 22481 0
22481 169 170 171 172 174 175 0
-22482 215 0
-215 22482 0
22482 211 212 213 214 216 217 0
-22483 257 0
-257 22483 0
22483 253 254 255 256 258 259 0
-22484 299 0
-299 22484 0
22484 295 296 297 298 300 301 0
-22478 22485 0
-22479 22486 0
-22485 22486 0
-22479 -22485 0
-22480 22487 0
-22486 22487 0
-22480 -22486 0
-22481 22488 0
-22487 22488 0
-22481 -22487 0
-22482 22489 0
-22488 22489 0
-22482 -22488 0
-22483 22490 0
-22489 22490 0
-22483 -22489 0
-22484 -22490 0
-22492 47 48 0
-47 22492 0
-48 22492 0
22492 43 44 45 46 49 0
-22493 89 90 0
-89 22493 0
-90 22493 0
22493 85 86 87 88 91 0
-22494 131 132 0
-131 22494 0
-132 22494 0
22494 127 128 129 130 133 0
-22495 173 174 0
-173 22495 0
-174 22495 0
22495 169 170 171 172 175 0
-22496 215 216 0
-215 22496 0
-216 22496 0
22496 211 212 213 214 217 0
-22497 257 258 0
-257 22497 0
-258 22497 0
22497 253 254 255 256 259 0
-22498 299 300 0
-299 22498 0
-300 22498 0
22498 295 296 297 298 301 0
-22492 22499 0
-22500 0
-22493 22501 0
-22499 22501 0
-22493 -22499 22502 0
-22500 22502 0
-22493 -22500 0
-22494 22503 0
-22501 22503 0
-22494 -22501 22504 0
-22502 22504 0
-22494 -22502 0
-22495 22505 0
-22503 22505 0
-22495 -22503 22506 0
-22504 22506 0
-22495 -22504 0
-22496 22507 0
-22505 22507 0
-22496 -22505 22508 0
-22506 22508 0
-22496 -22506 0
-22497 22509 0
-22507 22509 0
-22497 -22507 22510 0
-22508 22510 0
-22497 -22508 0
-22498 -22510 0
-22513 47 48 49 0
-47 22513 0
-48 22513 0
-49 22513 0
22513 43 44 45 46 0
-22514 89 90 91 0
-89 22514 0
-90 22514 0
-91 22514 0
22514 85 86 87 88 0
-22515 131 132 133 0
-131 22515 0
-132 22515 0
-133 22515 0
22515 127 128 129 130 0
-22516 173 174 175 0
-173 22516 0
-174 22516 0
-175 22516 0
22516 169 170 171 172 0
-22517 215 216 217 0
-215 22517 0
-216 22517 0
-217 22517 0
22517 211 212 213 214 0
-22518 257 258 259 0
-257 22518 0
-258 22518 0
-259 22518 0
22518 253 254 255 256 0
-22519 299 300 301 0
-299 22519 0
-300 22519 0
-301 22519 0
22519 295 296 297 298 0
-22513 22520 0
-22521 0
-22522 0
-22514 22523 0
-22520 22523 0
-22514 -22520 22524 0
-22521 22524 0
-22514 -22521 22525 0
-22522 22525 0
-22514 -22522 0
-22515 22526 0
-22523 22526 0
-22515 -22523 22527 0
-22524 22527 0
-22515 -22524 22528 0
-22525 22528 0
-22515 -22525 0
-22516 22529 0
-22526 22529 0
-22516 -22526 22530 0
-22527 22530 0
-22516 -22527 22531 0
-22528 22531 0
-22516 -22528 0
-22517 22532 0
-22529 22532 0
-22517 -22529 22533 0
-22530 22533 0
-22517 -22530 22534 0
-22531 22534 0
-22517 -22531 0
-22518 22535 0
-22532 22535 0
-22518 -22532 22536 0
-22533 22536 0
-22518 -22533 22537 0
-22534 22537 0
-22518 -22534 0
-22519 -22537 0
-22541 48 0
-48 22541 0
22541 43 44 45 46 47 49 0
-22542 90 0
-90 22542 0
22542 85 86 87 88 89 91 0
-22543 132 0
-132 22543 0
22543 127 128 129 130 131 133 0
-22544 174 0
-174 22544 0
22544 169 170 171 172 173 175 0
-22545 216 0
-216 22545 0
22545 211 212 213 214 215 217 0
-22546 258 0
-258 22546 0
22546 253 254 255 256 257 259 0
-22547 300 0
-300 22547 0
22547 295 296 297 298 299 301 0
-22541 22548 0
-22542 22549 0
-22548 22549 0
-22542 -22548 0
-22543 22550 0
-22549 22550 0
-22543 -22549 0
-22544 22551 0
-22550 22551 0
-22544 -22550 0
-22545 22552 0
-22551 22552 0
-22545 -22551 0
-22546 22553 0
-22552 22553 0
-22546 -22552 0
-22547 -22553 0
-22555 48 49 0
-48 22555 0
-49 22555 0
22555 43 44 45 46 47 0
-22556 90 91 0
-90 22556 0
-91 22556 0
22556 85 86 87 88 89 0
-22557 132 133 0
-132 22557 0
-133 22557 0
22557 127 128 129 130 131 0
-22558 174 175 0
-174 22558 0
-175 22558 0
22558 169 170 171 172 173 0
-22559 216 217 0
-216 22559 0
-217 22559 0
22559 211 212 213 214 215 0
-22560 258 259 0
-258 22560 0
-259 22560 0
22560 253 254 255 256 257 0
-22561 300 301 0
-300 22561 0
-301 22561 0
22561 295 296 297 298 299 0
-22555 22562 0
-22563 0
-22556 22564 0
-22562 22564 0
-22556 -22562 22565 0
-22563 22565 0
-22556 -22563 0
-22557 22566 0
-22564 22566 0
-22557 -22564 22567 0
-22565 22567 0
-22557 -22565 0
-22558 22568 0
-22566 22568 0
-22558 -22566 22569 0
-22567 22569 0
-22558 -22567 0
-22559 22570 0
-22568 22570 0
-22559 -22568 22571 0
-22569 22571 0
-22559 -22569 0
-22560 22572 0
-22570 22572 0
-22560 -22570 22573 0
-22571 22573 0
-22560 -22571 0
-22561 -22573 0
-22576 49 0
-49 22576 0
22576 43 44 45 46 47 48 0
-22577 91 0
-91 22577 0
22577 85 86 87 88 89 90 0
-22578 133 0
-133 22578 0
22578 127 128 129 130 131 132 0
-22579 175 0
-175 22579 0
22579 169 170 171 172 173 174 0
-22580 217 0
-217 22580 0
22580 211 212 213 214 215 216 0
-22581 259 0
-259 22581 0
22581 253 254 255 256 257 258 0
-22582 301 0
-301 22582 0
22582 295 296 297 298 299 300 0
-22576 22583 0
-22577 22584 0
-22583 22584 0
-22577 -22583 0
-22578 22585 0
-22584 22585 0
-22578 -22584 0
-22579 22586 0
-22585 22586 0
-22579 -22585 0
-22580 22587 0
-22586 22587 0
-22580 -22586 0
-22581 22588 0
-22587 22588 0
-22581 -22587 0
-22582 -22588 0
-43 22590 0
-85 22591 0
-22590 22591 0
-85 -22590 0
-127 22592 0
-22591 22592 0
-127 -22591 0
-169 22593 0
-22592 22593 0
-169 -22592 0
-211 22594 0
-22593 22594 0
-211 -22593 0
-253 22595 0
-22594 22595 0
-253 -22594 0
-295 -22595 0
43 85 127 169 211 253 295 0
-44 22597 0
-86 22598 0
-22597 22598 0
-86 -22597 0
-128 22599 0
-22598 22599 0
-128 -22598 0
-170 22600 0
-22599 22600 0
-170 -22599 0
-212 22601 0
-22600 22601 0
-212 -22600 0
-254 22602 0
-22601 22602 0
-254 -22601 0
-296 -22602 0
44 86 128 170 212 254 296 0
-45 22604 0
-87 22605 0
-22604 22605 0
-87 -22604 0
-129 22606 0
-22605 22606 0
-129 -22605 0
-171 22607 0
-22606 22607 0
-171 -22606 0
-213 22608 0
-22607 22608 0
-213 -22607 0
-255 22609 0
-22608 22609 0
-255 -22608 0
-297 -22609 0
45 87 129 171 213 255 297 0
-46 22611 0
-88 22612 0
-22611 22612 0
-88 -22611 0
-130 22613 0
-22612 22613 0
-130 -22612 0
-172 22614 0
-22613 22614 0
-172 -22613 0
-214 22615 0
-22614 22615 0
-214 -22614 0
-256 22616 0
-22615 22616 0
-256 -22615 0
-298 -22616 0
46 88 130 172 214 256 298 0
-47 22618 0
-89 22619 0
-22618 22619 0
-89 -22618 0
-131 22620 0
-22619 22620 0
-131 -22619 0
-173 22621 0
-22620 22621 0
-173 -22620 0
-215 22622 0
-22621 22622 0
-215 -22621 0
-257 22623 0
-22622 22623 0
-257 -22622 0
-299 -22623 0
47 89 131 173 215 257 299 0
-48 22625 0
-90 22626 0
-22625 22626 0
-90 -22625 0
-132 22627 0
-22626 22627 0
-132 -22626 0
-174 22628 0
-22627 22628 0
-174 -22627 0
-216 22629 0
-22628 22629 0
-216 -22628 0
-258 22630 0
-22629 22630 0
-258 -22629 0
-300 -22630 0
48 90 132 174 216 258 300 0
-49 22632 0
-91 22633 0
-22632 22633 0
-91 -22632 0
-133 22634 0
-22633 22634 0
-133 -22633 0
-175 22635 0
-22634 22635 0
-175 -22634 0
-217 22636 0
-22635 22636 0
-217 -22635 0
-259 22637 0
-22636 22637 0
-259 -22636 0
-301 -22637 0
49 91 133 175 217 259 301 0
