p cnf 20258 47250
-1 344 0
-2 345 0
-344 345 0
-2 -344 0
-3 346 0
-345 346 0
-3 -345 0
-4 347 0
-346 347 0
-4 -346 0
-5 348 0
-347 348 0
-5 -347 0
-6 349 0
-348 349 0
-6 -348 0
-7 -349 0
1 2 3 4 5 6 7 0
-8 351 0
-9 352 0
-351 352 0
-9 -351 0
-10 353 0
-352 353 0
-10 -352 0
-11 354 0
-353 354 0
-11 -353 0
-12 355 0
-354 355 0
-12 -354 0
-13 356 0
-355 356 0
-13 -355 0
-14 -356 0
8 9 10 11 12 13 14 0
-15 358 0
-16 359 0
-358 359 0
-16 -358 0
-17 360 0
-359 360 0
-17 -359 0
-18 361 0
-360 361 0
-18 -360 0
-19 362 0
-361 362 0
-19 -361 0
-20 363 0
-362 363 0
-20 -362 0
-21 -363 0
15 16 17 18 19 20 21 0
-22 365 0
-23 366 0
-365 366 0
-23 -365 0
-24 367 0
-366 367 0
-24 -366 0
-25 368 0
-367 368 0
-25 -367 0
-26 369 0
-368 369 0
-26 -368 0
-27 370 0
-369 370 0
-27 -369 0
-28 -370 0
22 23 24 25 26 27 28 0
-29 372 0
-30 373 0
-372 373 0
-30 -372 0
-31 374 0
-373 374 0
-31 -373 0
-32 375 0
-374 375 0
-32 -374 0
-33 376 0
-375 376 0
-33 -375 0
-34 377 0
-376 377 0
-34 -376 0
-35 -377 0
29 30 31 32 33 34 35 0
-36 379 0
-37 380 0
-379 380 0
-37 -379 0
-38 381 0
-380 381 0
-38 -380 0
-39 382 0
-381 382 0
-39 -381 0
-40 383 0
-382 383 0
-40 -382 0
-41 384 0
-383 384 0
-41 -383 0
-42 -384 0
36 37 38 39 40 41 42 0
-43 386 0
-44 387 0
-386 387 0
-44 -386 0
-45 388 0
-387 388 0
-45 -387 0
-46 389 0
-388 389 0
-46 -388 0
-47 390 0
-389 390 0
-47 -389 0
-48 391 0
-390 391 0
-48 -390 0
-49 -391 0
43 44 45 46 47 48 49 0
-50 393 0
-51 394 0
-393 394 0
-51 -393 0
-52 395 0
-394 395 0
-52 -394 0
-53 396 0
-395 396 0
-53 -395 0
-54 397 0
-396 397 0
-54 -396 0
-55 398 0
-397 398 0
-55 -397 0
-56 -398 0
50 51 52 53 54 55 56 0
-57 400 0
-58 401 0
-400 401 0
-58 -400 0
-59 402 0
-401 402 0
-59 -401 0
-60 403 0
-402 403 0
-60 -402 0
-61 404 0
-403 404 0
-61 -403 0
-62 405 0
-404 405 0
-62 -404 0
-63 -405 0
57 58 59 60 61 62 63 0
-64 407 0
-65 408 0
-407 408 0
-65 -407 0
-66 409 0
-408 409 0
-66 -408 0
-67 410 0
-409 410 0
-67 -409 0
-68 411 0
-410 411 0
-68 -410 0
-69 412 0
-411 412 0
-69 -411 0
-70 -412 0
64 65 66 67 68 69 70 0
-71 414 0
-72 415 0
-414 415 0
-72 -414 0
-73 416 0
-415 416 0
-73 -415 0
-74 417 0
-416 417 0
-74 -416 0
-75 418 0
-417 418 0
-75 -417 0
-76 419 0
-418 419 0
-76 -418 0
-77 -419 0
71 72 73 74 75 76 77 0
-78 421 0
-79 422 0
-421 422 0
-79 -421 0
-80 423 0
-422 423 0
-80 -422 0
-81 424 0
-423 424 0
-81 -423 0
-82 425 0
-424 425 0
-82 -424 0
-83 426 0
-425 426 0
-83 -425 0
-84 -426 0
78 79 80 81 82 83 84 0
-85 428 0
-86 429 0
-428 429 0
-86 -428 0
-87 430 0
-429 430 0
-87 -429 0
-88 431 0
-430 431 0
-88 -430 0
-89 432 0
-431 432 0
-89 -431 0
-90 433 0
-432 433 0
-90 -432 0
-91 -433 0
85 86 87 88 89 90 91 0
-92 435 0
-93 436 0
-435 436 0
-93 -435 0
-94 437 0
-436 437 0
-94 -436 0
-95 438 0
-437 438 0
-95 -437 0
-96 439 0
-438 439 0
-96 -438 0
-97 440 0
-439 440 0
-97 -439 0
-98 -440 0
92 93 94 95 96 97 98 0
-99 442 0
-100 443 0
-442 443 0
-100 -442 0
-101 444 0
-443 444 0
-101 -443 0
-102 445 0
-444 445 0
-102 -444 0
-103 446 0
-445 446 0
-103 -445 0
-104 447 0
-446 447 0
-104 -446 0
-105 -447 0
99 100 101 102 103 104 105 0
-106 449 0
-107 450 0
-449 450 0
-107 -449 0
-108 451 0
-450 451 0
-108 -450 0
-109 452 0
-451 452 0
-109 -451 0
-110 453 0
-452 453 0
-110 -452 0
-111 454 0
-453 454 0
-111 -453 0
-112 -454 0
106 107 108 109 110 111 112 0
-113 456 0
-114 457 0
-456 457 0
-114 -456 0
-115 458 0
-457 458 0
-115 -457 0
-116 459 0
-458 459 0
-116 -458 0
-117 460 0
-459 460 0
-117 -459 0
-118 461 0
-460 461 0
-118 -460 0
-119 -461 0
113 114 115 116 117 118 119 0
-120 463 0
-121 464 0
-463 464 0
-121 -463 0
-122 465 0
-464 465 0
-122 -464 0
-123 466 0
-465 466 0
-123 -465 0
-124 467 0
-466 467 0
-124 -466 0
-125 468 0
-467 468 0
-125 -467 0
-126 -468 0
120 121 122 123 124 125 126 0
-127 470 0
-128 471 0
-470 471 0
-128 -470 0
-129 472 0
-471 472 0
-129 -471 0
-130 473 0
-472 473 0
-130 -472 0
-131 474 0
-473 474 0
-131 -473 0
-132 475 0
-474 475 0
-132 -474 0
-133 -475 0
127 128 129 130 131 132 133 0
-134 477 0
-135 478 0
-477 478 0
-135 -477 0
-136 479 0
-478 479 0
-136 -478 0
-137 480 0
-479 480 0
-137 -479 0
-138 481 0
-480 481 0
-138 -480 0
-139 482 0
-481 482 0
-139 -481 0
-140 -482 0
134 135 136 137 138 139 140 0
-141 484 0
-142 485 0
-484 485 0
-142 -484 0
-143 486 0
-485 486 0
-143 -485 0
-144 487 0
-486 487 0
-144 -486 0
-145 488 0
-487 488 0
-145 -487 0
-146 489 0
-488 489 0
-146 -488 0
-147 -489 0
141 142 143 144 145 146 147 0
-148 491 0
-149 492 0
-491 492 0
-149 -491 0
-150 493 0
-492 493 0
-150 -492 0
-151 494 0
-493 494 0
-151 -493 0
-152 495 0
-494 495 0
-152 -494 0
-153 496 0
-495 496 0
-153 -495 0
-154 -496 0
148 149 150 151 152 153 154 0
-155 498 0
-156 499 0
-498 499 0
-156 -498 0
-157 500 0
-499 500 0
-157 -499 0
-158 501 0
-500 501 0
-158 -500 0
-159 502 0
-501 502 0
-159 -501 0
-160 503 0
-502 503 0
-160 -502 0
-161 -503 0
155 156 157 158 159 160 161 0
-162 505 0
-163 506 0
-505 506 0
-163 -505 0
-164 507 0
-506 507 0
-164 -506 0
-165 508 0
-507 508 0
-165 -507 0
-166 509 0
-508 509 0
-166 -508 0
-167 510 0
-509 510 0
-167 -509 0
-168 -510 0
162 163 164 165 166 167 168 0
-169 512 0
-170 513 0
-512 513 0
-170 -512 0
-171 514 0
-513 514 0
-171 -513 0
-172 515 0
-514 515 0
-172 -514 0
-173 516 0
-515 516 0
-173 -515 0
-174 517 0
-516 517 0
-174 -516 0
-175 -517 0
169 170 171 172 173 174 175 0
-176 519 0
-177 520 0
-519 520 0
-177 -519 0
-178 521 0
-520 521 0
-178 -520 0
-179 522 0
-521 522 0
-179 -521 0
-180 523 0
-522 523 0
-180 -522 0
-181 524 0
-523 524 0
-181 -523 0
-182 -524 0
176 177 178 179 180 181 182 0
-183 526 0
-184 527 0
-526 527 0
-184 -526 0
-185 528 0
-527 528 0
-185 -527 0
-186 529 0
-528 529 0
-186 -528 0
-187 530 0
-529 530 0
-187 -529 0
-188 531 0
-530 531 0
-188 -530 0
-189 -531 0
183 184 185 186 187 188 189 0
-190 533 0
-191 534 0
-533 534 0
-191 -533 0
-192 535 0
-534 535 0
-192 -534 0
-193 536 0
-535 536 0
-193 -535 0
-194 537 0
-536 537 0
-194 -536 0
-195 538 0
-537 538 0
-195 -537 0
-196 -538 0
190 191 192 193 194 195 196 0
-197 540 0
-198 541 0
-540 541 0
-198 -540 0
-199 542 0
-541 542 0
-199 -541 0
-200 543 0
-542 543 0
-200 -542 0
-201 544 0
-543 544 0
-201 -543 0
-202 545 0
-544 545 0
-202 -544 0
-203 -545 0
197 198 199 200 201 202 203 0
-204 547 0
-205 548 0
-547 548 0
-205 -547 0
-206 549 0
-548 549 0
-206 -548 0
-207 550 0
-549 550 0
-207 -549 0
-208 551 0
-550 551 0
-208 -550 0
-209 552 0
-551 552 0
-209 -551 0
-210 -552 0
204 205 206 207 208 209 210 0
-211 554 0
-212 555 0
-554 555 0
-212 -554 0
-213 556 0
-555 556 0
-213 -555 0
-214 557 0
-556 557 0
-214 -556 0
-215 558 0
-557 558 0
-215 -557 0
-216 559 0
-558 559 0
-216 -558 0
-217 -559 0
211 212 213 214 215 216 217 0
-218 561 0
-219 562 0
-561 562 0
-219 -561 0
-220 563 0
-562 563 0
-220 -562 0
-221 564 0
-563 564 0
-221 -563 0
-222 565 0
-564 565 0
-222 -564 0
-223 566 0
-565 566 0
-223 -565 0
-224 -566 0
218 219 220 221 222 223 224 0
-225 568 0
-226 569 0
-568 569 0
-226 -568 0
-227 570 0
-569 570 0
-227 -569 0
-228 571 0
-570 571 0
-228 -570 0
-229 572 0
-571 572 0
-229 -571 0
-230 573 0
-572 573 0
-230 -572 0
-231 -573 0
225 226 227 228 229 230 231 0
-232 575 0
-233 576 0
-575 576 0
-233 -575 0
-234 577 0
-576 577 0
-234 -576 0
-235 578 0
-577 578 0
-235 -577 0
-236 579 0
-578 579 0
-236 -578 0
-237 580 0
-579 580 0
-237 -579 0
-238 -580 0
232 233 234 235 236 237 238 0
-239 582 0
-240 583 0
-582 583 0
-240 -582 0
-241 584 0
-583 584 0
-241 -583 0
-242 585 0
-584 585 0
-242 -584 0
-243 586 0
-585 586 0
-243 -585 0
-244 587 0
-586 587 0
-244 -586 0
-245 -587 0
239 240 241 242 243 244 245 0
-246 589 0
-247 590 0
-589 590 0
-247 -589 0
-248 591 0
-590 591 0
-248 -590 0
-249 592 0
-591 592 0
-249 -591 0
-250 593 0
-592 593 0
-250 -592 0
-251 594 0
-593 594 0
-251 -593 0
-252 -594 0
246 247 248 249 250 251 252 0
-253 596 0
-254 597 0
-596 597 0
-254 -596 0
-255 598 0
-597 598 0
-255 -597 0
-256 599 0
-598 599 0
-256 -598 0
-257 600 0
-599 600 0
-257 -599 0
-258 601 0
-600 601 0
-258 -600 0
-259 -601 0
253 254 255 256 257 258 259 0
-260 603 0
-261 604 0
-603 604 0
-261 -603 0
-262 605 0
-604 605 0
-262 -604 0
-263 606 0
-605 606 0
-263 -605 0
-264 607 0
-606 607 0
-264 -606 0
-265 608 0
-607 608 0
-265 -607 0
-266 -608 0
260 261 262 263 264 265 266 0
-267 610 0
-268 611 0
-610 611 0
-268 -610 0
-269 612 0
-611 612 0
-269 -611 0
-270 613 0
-612 613 0
-270 -612 0
-271 614 0
-613 614 0
-271 -613 0
-272 615 0
-614 615 0
-272 -614 0
-273 -615 0
267 268 269 270 271 272 273 0
-274 617 0
-275 618 0
-617 618 0
-275 -617 0
-276 619 0
-618 619 0
-276 -618 0
-277 620 0
-619 620 0
-277 -619 0
-278 621 0
-620 621 0
-278 -620 0
-279 622 0
-621 622 0
-279 -621 0
-280 -622 0
274 275 276 277 278 279 280 0
-281 624 0
-282 625 0
-624 625 0
-282 -624 0
-283 626 0
-625 626 0
-283 -625 0
-284 627 0
-626 627 0
-284 -626 0
-285 628 0
-627 628 0
-285 -627 0
-286 629 0
-628 629 0
-286 -628 0
-287 -629 0
281 282 283 284 285 286 287 0
-288 631 0
-289 632 0
-631 632 0
-289 -631 0
-290 633 0
-632 633 0
-290 -632 0
-291 634 0
-633 634 0
-291 -633 0
-292 635 0
-634 635 0
-292 -634 0
-293 636 0
-635 636 0
-293 -635 0
-294 -636 0
288 289 290 291 292 293 294 0
-295 638 0
-296 639 0
-638 639 0
-296 -638 0
-297 640 0
-639 640 0
-297 -639 0
-298 641 0
-640 641 0
-298 -640 0
-299 642 0
-641 642 0
-299 -641 0
-300 643 0
-642 643 0
-300 -642 0
-301 -643 0
295 296 297 298 299 300 301 0
-302 645 0
-303 646 0
-645 646 0
-303 -645 0
-304 647 0
-646 647 0
-304 -646 0
-305 648 0
-647 648 0
-305 -647 0
-306 649 0
-648 649 0
-306 -648 0
-307 650 0
-649 650 0
-307 -649 0
-308 -650 0
302 303 304 305 306 307 308 0
-309 652 0
-310 653 0
-652 653 0
-310 -652 0
-311 654 0
-653 654 0
-311 -653 0
-312 655 0
-654 655 0
-312 -654 0
-313 656 0
-655 656 0
-313 -655 0
-314 657 0
-656 657 0
-314 -656 0
-315 -657 0
309 310 311 312 313 314 315 0
-316 659 0
-317 660 0
-659 660 0
-317 -659 0
-318 661 0
-660 661 0
-318 -660 0
-319 662 0
-661 662 0
-319 -661 0
-320 663 0
-662 663 0
-320 -662 0
-321 664 0
-663 664 0
-321 -663 0
-322 -664 0
316 317 318 319 320 321 322 0
-323 666 0
-324 667 0
-666 667 0
-324 -666 0
-325 668 0
-667 668 0
-325 -667 0
-326 669 0
-668 669 0
-326 -668 0
-327 670 0
-669 670 0
-327 -669 0
-328 671 0
-670 671 0
-328 -670 0
-329 -671 0
323 324 325 326 327 328 329 0
-330 673 0
-331 674 0
-673 674 0
-331 -673 0
-332 675 0
-674 675 0
-332 -674 0
-333 676 0
-675 676 0
-333 -675 0
-334 677 0
-676 677 0
-334 -676 0
-335 678 0
-677 678 0
-335 -677 0
-336 -678 0
330 331 332 333 334 335 336 0
-337 680 0
-338 681 0
-680 681 0
-338 -680 0
-339 682 0
-681 682 0
-339 -681 0
-340 683 0
-682 683 0
-340 -682 0
-341 684 0
-683 684 0
-341 -683 0
-342 685 0
-684 685 0
-342 -684 0
-343 -685 0
337 338 339 340 341 342 343 0
-687 1 0
-1 687 0
-688 8 0
-8 688 0
-689 15 0
-15 689 0
-690 22 0
-22 690 0
-691 29 0
-29 691 0
-692 36 0
-36 692 0
-693 43 0
-43 693 0
-687 694 0
-688 695 0
-694 695 0
-688 -694 0
-689 696 0
-695 696 0
-689 -695 0
-690 697 0
-696 697 0
-690 -696 0
-691 698 0
-697 698 0
-691 -697 0
-692 699 0
-698 699 0
-692 -698 0
-693 -699 0
-701 1 2 0
-1 701 0
-2 701 0
-702 8 9 0
-8 702 0
-9 702 0
-703 15 16 0
-15 703 0
-16 703 0
-704 22 23 0
-22 704 0
-23 704 0
-705 29 30 0
-29 705 0
-30 705 0
-706 36 37 0
-36 706 0
-37 706 0
-707 43 44 0
-43 707 0
-44 707 0
-701 708 0
-709 0
-702 710 0
-708 710 0
-702 -708 711 0
-709 711 0
-702 -709 0
-703 712 0
-710 712 0
-703 -710 713 0
-711 713 0
-703 -711 0
-704 714 0
-712 714 0
-704 -712 715 0
-713 715 0
-704 -713 0
-705 716 0
-714 716 0
-705 -714 717 0
-715 717 0
-705 -715 0
-706 718 0
-716 718 0
-706 -716 719 0
-717 719 0
-706 -717 0
-707 -719 0
-722 1 2 3 0
-1 722 0
-2 722 0
-3 722 0
-723 8 9 10 0
-8 723 0
-9 723 0
-10 723 0
-724 15 16 17 0
-15 724 0
-16 724 0
-17 724 0
-725 22 23 24 0
-22 725 0
-23 725 0
-24 725 0
-726 29 30 31 0
-29 726 0
-30 726 0
-31 726 0
-727 36 37 38 0
-36 727 0
-37 727 0
-38 727 0
-728 43 44 45 0
-43 728 0
-44 728 0
-45 728 0
-722 729 0
-730 0
-731 0
-723 732 0
-729 732 0
-723 -729 733 0
-730 733 0
-723 -730 734 0
-731 734 0
-723 -731 0
-724 735 0
-732 735 0
-724 -732 736 0
-733 736 0
-724 -733 737 0
-734 737 0
-724 -734 0
-725 738 0
-735 738 0
-725 -735 739 0
-736 739 0
-725 -736 740 0
-737 740 0
-725 -737 0
-726 741 0
-738 741 0
-726 -738 742 0
-739 742 0
-726 -739 743 0
-740 743 0
-726 -740 0
-727 744 0
-741 744 0
-727 -741 745 0
-742 745 0
-727 -742 746 0
-743 746 0
-727 -743 0
-728 -746 0
-750 1 2 3 4 0
-1 750 0
-2 750 0
-3 750 0
-4 750 0
-751 8 9 10 11 0
-8 751 0
-9 751 0
-10 751 0
-11 751 0
-752 15 16 17 18 0
-15 752 0
-16 752 0
-17 752 0
-18 752 0
-753 22 23 24 25 0
-22 753 0
-23 753 0
-24 753 0
-25 753 0
-754 29 30 31 32 0
-29 754 0
-30 754 0
-31 754 0
-32 754 0
-755 36 37 38 39 0
-36 755 0
-37 755 0
-38 755 0
-39 755 0
-756 43 44 45 46 0
-43 756 0
-44 756 0
-45 756 0
-46 756 0
-750 757 0
-758 0
-759 0
-760 0
-751 761 0
-757 761 0
-751 -757 762 0
-758 762 0
-751 -758 763 0
-759 763 0
-751 -759 764 0
-760 764 0
-751 -760 0
-752 765 0
-761 765 0
-752 -761 766 0
-762 766 0
-752 -762 767 0
-763 767 0
-752 -763 768 0
-764 768 0
-752 -764 0
-753 769 0
-765 769 0
-753 -765 770 0
-766 770 0
-753 -766 771 0
-767 771 0
-753 -767 772 0
-768 772 0
-753 -768 0
-754 773 0
-769 773 0
-754 -769 774 0
-770 774 0
-754 -770 775 0
-771 775 0
-754 -771 776 0
-772 776 0
-754 -772 0
-755 777 0
-773 777 0
-755 -773 778 0
-774 778 0
-755 -774 779 0
-775 779 0
-755 -775 780 0
-776 780 0
-755 -776 0
-756 -780 0
-785 1 2 3 4 5 0
-1 785 0
-2 785 0
-3 785 0
-4 785 0
-5 785 0
-786 8 9 10 11 12 0
-8 786 0
-9 786 0
-10 786 0
-11 786 0
-12 786 0
-787 15 16 17 18 19 0
-15 787 0
-16 787 0
-17 787 0
-18 787 0
-19 787 0
-788 22 23 24 25 26 0
-22 788 0
-23 788 0
-24 788 0
-25 788 0
-26 788 0
-789 29 30 31 32 33 0
-29 789 0
-30 789 0
-31 789 0
-32 789 0
-33 789 0
-790 36 37 38 39 40 0
-36 790 0
-37 790 0
-38 790 0
-39 790 0
-40 790 0
-791 43 44 45 46 47 0
-43 791 0
-44 791 0
-45 791 0
-46 791 0
-47 791 0
-785 792 0
-793 0
-794 0
-795 0
-796 0
-786 797 0
-792 797 0
-786 -792 798 0
-793 798 0
-786 -793 799 0
-794 799 0
-786 -794 800 0
-795 800 0
-786 -795 801 0
-796 801 0
-786 -796 0
-787 802 0
-797 802 0
-787 -797 803 0
-798 803 0
-787 -798 804 0
-799 804 0
-787 -799 805 0
-800 805 0
-787 -800 806 0
-801 806 0
-787 -801 0
-788 807 0
-802 807 0
-788 -802 808 0
-803 808 0
-788 -803 809 0
-804 809 0
-788 -804 810 0
-805 810 0
-788 -805 811 0
-806 811 0
-788 -806 0
-789 812 0
-807 812 0
-789 -807 813 0
-808 813 0
-789 -808 814 0
-809 814 0
-789 -809 815 0
-810 815 0
-789 -810 816 0
-811 816 0
-789 -811 0
-790 817 0
-812 817 0
-790 -812 818 0
-813 818 0
-790 -813 819 0
-814 819 0
-790 -814 820 0
-815 820 0
-790 -815 821 0
-816 821 0
-790 -816 0
-791 -821 0
-827 1 2 3 4 5 6 0
-1 827 0
-2 827 0
-3 827 0
-4 827 0
-5 827 0
-6 827 0
-828 8 9 10 11 12 13 0
-8 828 0
-9 828 0
-10 828 0
-11 828 0
-12 828 0
-13 828 0
-829 15 16 17 18 19 20 0
-15 829 0
-16 829 0
-17 829 0
-18 829 0
-19 829 0
-20 829 0
-830 22 23 24 25 26 27 0
-22 830 0
-23 830 0
-24 830 0
-25 830 0
-26 830 0
-27 830 0
-831 29 30 31 32 33 34 0
-29 831 0
-30 831 0
-31 831 0
-32 831 0
-33 831 0
-34 831 0
-832 36 37 38 39 40 41 0
-36 832 0
-37 832 0
-38 832 0
-39 832 0
-40 832 0
-41 832 0
-833 43 44 45 46 47 48 0
-43 833 0
-44 833 0
-45 833 0
-46 833 0
-47 833 0
-48 833 0
-827 834 0
-835 0
-836 0
-837 0
-838 0
-839 0
-828 840 0
-834 840 0
-828 -834 841 0
-835 841 0
-828 -835 842 0
-836 842 0
-828 -836 843 0
-837 843 0
-828 -837 844 0
-838 844 0
-828 -838 845 0
-839 845 0
-828 -839 0
-829 846 0
-840 846 0
-829 -840 847 0
-841 847 0
-829 -841 848 0
-842 848 0
-829 -842 849 0
-843 849 0
-829 -843 850 0
-844 850 0
-829 -844 851 0
-845 851 0
-829 -845 0
-830 852 0
-846 852 0
-830 -846 853 0
-847 853 0
-830 -847 854 0
-848 854 0
-830 -848 855 0
-849 855 0
-830 -849 856 0
-850 856 0
-830 -850 857 0
-851 857 0
-830 -851 0
-831 858 0
-852 858 0
-831 -852 859 0
-853 859 0
-831 -853 860 0
-854 860 0
-831 -854 861 0
-855 861 0
-831 -855 862 0
-856 862 0
-831 -856 863 0
-857 863 0
-831 -857 0
-832 864 0
-858 864 0
-832 -858 865 0
-859 865 0
-832 -859 866 0
-860 866 0
-832 -860 867 0
-861 867 0
-832 -861 868 0
-862 868 0
-832 -862 869 0
-863 869 0
-832 -863 0
-833 -869 0
-876 1 2 3 4 5 6 7 0
-1 876 0
-2 876 0
-3 876 0
-4 876 0
-5 876 0
-6 876 0
-7 876 0
-877 8 9 10 11 12 13 14 0
-8 877 0
-9 877 0
-10 877 0
-11 877 0
-12 877 0
-13 877 0
-14 877 0
-878 15 16 17 18 19 20 21 0
-15 878 0
-16 878 0
-17 878 0
-18 878 0
-19 878 0
-20 878 0
-21 878 0
-879 22 23 24 25 26 27 28 0
-22 879 0
-23 879 0
-24 879 0
-25 879 0
-26 879 0
-27 879 0
-28 879 0
-880 29 30 31 32 33 34 35 0
-29 880 0
-30 880 0
-31 880 0
-32 880 0
-33 880 0
-34 880 0
-35 880 0
-881 36 37 38 39 40 41 42 0
-36 881 0
-37 881 0
-38 881 0
-39 881 0
-40 881 0
-41 881 0
-42 881 0
-882 43 44 45 46 47 48 49 0
-43 882 0
-44 882 0
-45 882 0
-46 882 0
-47 882 0
-48 882 0
-49 882 0
-883 2 0
-2 883 0
-884 9 0
-9 884 0
-885 16 0
-16 885 0
-886 23 0
-23 886 0
-887 30 0
-30 887 0
-888 37 0
-37 888 0
-889 44 0
-44 889 0
-883 890 0
-884 891 0
-890 891 0
-884 -890 0
-885 892 0
-891 892 0
-885 -891 0
-886 893 0
-892 893 0
-886 -892 0
-887 894 0
-893 894 0
-887 -893 0
-888 895 0
-894 895 0
-888 -894 0
-889 -895 0
-897 2 3 0
-2 897 0
-3 897 0
-898 9 10 0
-9 898 0
-10 898 0
-899 16 17 0
-16 899 0
-17 899 0
-900 23 24 0
-23 900 0
-24 900 0
-901 30 31 0
-30 901 0
-31 901 0
-902 37 38 0
-37 902 0
-38 902 0
-903 44 45 0
-44 903 0
-45 903 0
-897 904 0
-905 0
-898 906 0
-904 906 0
-898 -904 907 0
-905 907 0
-898 -905 0
-899 908 0
-906 908 0
-899 -906 909 0
-907 909 0
-899 -907 0
-900 910 0
-908 910 0
-900 -908 911 0
-909 911 0
-900 -909 0
-901 912 0
-910 912 0
-901 -910 913 0
-911 913 0
-901 -911 0
-902 914 0
-912 914 0
-902 -912 915 0
-913 915 0
-902 -913 0
-903 -915 0
-918 2 3 4 0
-2 918 0
-3 918 0
-4 918 0
-919 9 10 11 0
-9 919 0
-10 919 0
-11 919 0
-920 16 17 18 0
-16 920 0
-17 920 0
-18 920 0
-921 23 24 25 0
-23 921 0
-24 921 0
-25 921 0
-922 30 31 32 0
-30 922 0
-31 922 0
-32 922 0
-923 37 38 39 0
-37 923 0
-38 923 0
-39 923 0
-924 44 45 46 0
-44 924 0
-45 924 0
-46 924 0
-918 925 0
-926 0
-927 0
-919 928 0
-925 928 0
-919 -925 929 0
-926 929 0
-919 -926 930 0
-927 930 0
-919 -927 0
-920 931 0
-928 931 0
-920 -928 932 0
-929 932 0
-920 -929 933 0
-930 933 0
-920 -930 0
-921 934 0
-931 934 0
-921 -931 935 0
-932 935 0
-921 -932 936 0
-933 936 0
-921 -933 0
-922 937 0
-934 937 0
-922 -934 938 0
-935 938 0
-922 -935 939 0
-936 939 0
-922 -936 0
-923 940 0
-937 940 0
-923 -937 941 0
-938 941 0
-923 -938 942 0
-939 942 0
-923 -939 0
-924 -942 0
-946 2 3 4 5 0
-2 946 0
-3 946 0
-4 946 0
-5 946 0
-947 9 10 11 12 0
-9 947 0
-10 947 0
-11 947 0
-12 947 0
-948 16 17 18 19 0
-16 948 0
-17 948 0
-18 948 0
-19 948 0
-949 23 24 25 26 0
-23 949 0
-24 949 0
-25 949 0
-26 949 0
-950 30 31 32 33 0
-30 950 0
-31 950 0
-32 950 0
-33 950 0
-951 37 38 39 40 0
-37 951 0
-38 951 0
-39 951 0
-40 951 0
-952 44 45 46 47 0
-44 952 0
-45 952 0
-46 952 0
-47 952 0
-946 953 0
-954 0
-955 0
-956 0
-947 957 0
-953 957 0
-947 -953 958 0
-954 958 0
-947 -954 959 0
-955 959 0
-947 -955 960 0
-956 960 0
-947 -956 0
-948 961 0
-957 961 0
-948 -957 962 0
-958 962 0
-948 -958 963 0
-959 963 0
-948 -959 964 0
-960 964 0
-948 -960 0
-949 965 0
-961 965 0
-949 -961 966 0
-962 966 0
-949 -962 967 0
-963 967 0
-949 -963 968 0
-964 968 0
-949 -964 0
-950 969 0
-965 969 0
-950 -965 970 0
-966 970 0
-950 -966 971 0
-967 971 0
-950 -967 972 0
-968 972 0
-950 -968 0
-951 973 0
-969 973 0
-951 -969 974 0
-970 974 0
-951 -970 975 0
-971 975 0
-951 -971 976 0
-972 976 0
-951 -972 0
-952 -976 0
-981 2 3 4 5 6 0
-2 981 0
-3 981 0
-4 981 0
-5 981 0
-6 981 0
-982 9 10 11 12 13 0
-9 982 0
-10 982 0
-11 982 0
-12 982 0
-13 982 0
-983 16 17 18 19 20 0
-16 983 0
-17 983 0
-18 983 0
-19 983 0
-20 983 0
-984 23 24 25 26 27 0
-23 984 0
-24 984 0
-25 984 0
-26 984 0
-27 984 0
-985 30 31 32 33 34 0
-30 985 0
-31 985 0
-32 985 0
-33 985 0
-34 985 0
-986 37 38 39 40 41 0
-37 986 0
-38 986 0
-39 986 0
-40 986 0
-41 986 0
-987 44 45 46 47 48 0
-44 987 0
-45 987 0
-46 987 0
-47 987 0
-48 987 0
-981 988 0
-989 0
-990 0
-991 0
-992 0
-982 993 0
-988 993 0
-982 -988 994 0
-989 994 0
-982 -989 995 0
-990 995 0
-982 -990 996 0
-991 996 0
-982 -991 997 0
-992 997 0
-982 -992 0
-983 998 0
-993 998 0
-983 -993 999 0
-994 999 0
-983 -994 1000 0
-995 1000 0
-983 -995 1001 0
-996 1001 0
-983 -996 1002 0
-997 1002 0
-983 -997 0
-984 1003 0
-998 1003 0
-984 -998 1004 0
-999 1004 0
-984 -999 1005 0
-1000 1005 0
-984 -1000 1006 0
-1001 1006 0
-984 -1001 1007 0
-1002 1007 0
-984 -1002 0
-985 1008 0
-1003 1008 0
-985 -1003 1009 0
-1004 1009 0
-985 -1004 1010 0
-1005 1010 0
-985 -1005 1011 0
-1006 1011 0
-985 -1006 1012 0
-1007 1012 0
-985 -1007 0
-986 1013 0
-1008 1013 0
-986 -1008 1014 0
-1009 1014 0
-986 -1009 1015 0
-1010 1015 0
-986 -1010 1016 0
-1011 1016 0
-986 -1011 1017 0
-1012 1017 0
-986 -1012 0
-987 -1017 0
-1023 2 3 4 5 6 7 0
-2 1023 0
-3 1023 0
-4 1023 0
-5 1023 0
-6 1023 0
-7 1023 0
-1024 9 10 11 12 13 14 0
-9 1024 0
-10 1024 0
-11 1024 0
-12 1024 0
-13 1024 0
-14 1024 0
-1025 16 17 18 19 20 21 0
-16 1025 0
-17 1025 0
-18 1025 0
-19 1025 0
-20 1025 0
-21 1025 0
-1026 23 24 25 26 27 28 0
-23 1026 0
-24 1026 0
-25 1026 0
-26 1026 0
-27 1026 0
-28 1026 0
-1027 30 31 32 33 34 35 0
-30 1027 0
-31 1027 0
-32 1027 0
-33 1027 0
-34 1027 0
-35 1027 0
-1028 37 38 39 40 41 42 0
-37 1028 0
-38 1028 0
-39 1028 0
-40 1028 0
-41 1028 0
-42 1028 0
-1029 44 45 46 47 48 49 0
-44 1029 0
-45 1029 0
-46 1029 0
-47 1029 0
-48 1029 0
-49 1029 0
-1023 1030 0
-1031 0
-1032 0
-1033 0
-1034 0
-1035 0
-1024 1036 0
-1030 1036 0
-1024 -1030 1037 0
-1031 1037 0
-1024 -1031 1038 0
-1032 1038 0
-1024 -1032 1039 0
-1033 1039 0
-1024 -1033 1040 0
-1034 1040 0
-1024 -1034 1041 0
-1035 1041 0
-1024 -1035 0
-1025 1042 0
-1036 1042 0
-1025 -1036 1043 0
-1037 1043 0
-1025 -1037 1044 0
-1038 1044 0
-1025 -1038 1045 0
-1039 1045 0
-1025 -1039 1046 0
-1040 1046 0
-1025 -1040 1047 0
-1041 1047 0
-1025 -1041 0
-1026 1048 0
-1042 1048 0
-1026 -1042 1049 0
-1043 1049 0
-1026 -1043 1050 0
-1044 1050 0
-1026 -1044 1051 0
-1045 1051 0
-1026 -1045 1052 0
-1046 1052 0
-1026 -1046 1053 0
-1047 1053 0
-1026 -1047 0
-1027 1054 0
-1048 1054 0
-1027 -1048 1055 0
-1049 1055 0
-1027 -1049 1056 0
-1050 1056 0
-1027 -1050 1057 0
-1051 1057 0
-1027 -1051 1058 0
-1052 1058 0
-1027 -1052 1059 0
-1053 1059 0
-1027 -1053 0
-1028 1060 0
-1054 1060 0
-1028 -1054 1061 0
-1055 1061 0
-1028 -1055 1062 0
-1056 1062 0
-1028 -1056 1063 0
-1057 1063 0
-1028 -1057 1064 0
-1058 1064 0
-1028 -1058 1065 0
-1059 1065 0
-1028 -1059 0
-1029 -1065 0
-1072 3 0
-3 1072 0
-1073 10 0
-10 1073 0
-1074 17 0
-17 1074 0
-1075 24 0
-24 1075 0
-1076 31 0
-31 1076 0
-1077 38 0
-38 1077 0
-1078 45 0
-45 1078 0
-1072 1079 0
-1073 1080 0
-1079 1080 0
-1073 -1079 0
-1074 1081 0
-1080 1081 0
-1074 -1080 0
-1075 1082 0
-1081 1082 0
-1075 -1081 0
-1076 1083 0
-1082 1083 0
-1076 -1082 0
-1077 1084 0
-1083 1084 0
-1077 -1083 0
-1078 -1084 0
-1086 3 4 0
-3 1086 0
-4 1086 0
-1087 10 11 0
-10 1087 0
-11 1087 0
-1088 17 18 0
-17 1088 0
-18 1088 0
-1089 24 25 0
-24 1089 0
-25 1089 0
-1090 31 32 0
-31 1090 0
-32 1090 0
-1091 38 39 0
-38 1091 0
-39 1091 0
-1092 45 46 0
-45 1092 0
-46 1092 0
-1086 1093 0
-1094 0
-1087 1095 0
-1093 1095 0
-1087 -1093 1096 0
-1094 1096 0
-1087 -1094 0
-1088 1097 0
-1095 1097 0
-1088 -1095 1098 0
-1096 1098 0
-1088 -1096 0
-1089 1099 0
-1097 1099 0
-1089 -1097 1100 0
-1098 1100 0
-1089 -1098 0
-1090 1101 0
-1099 1101 0
-1090 -1099 1102 0
-1100 1102 0
-1090 -1100 0
-1091 1103 0
-1101 1103 0
-1091 -1101 1104 0
-1102 1104 0
-1091 -1102 0
-1092 -1104 0
-1107 3 4 5 0
-3 1107 0
-4 1107 0
-5 1107 0
-1108 10 11 12 0
-10 1108 0
-11 1108 0
-12 1108 0
-1109 17 18 19 0
-17 1109 0
-18 1109 0
-19 1109 0
-1110 24 25 26 0
-24 1110 0
-25 1110 0
-26 1110 0
-1111 31 32 33 0
-31 1111 0
-32 1111 0
-33 1111 0
-1112 38 39 40 0
-38 1112 0
-39 1112 0
-40 1112 0
-1113 45 46 47 0
-45 1113 0
-46 1113 0
-47 1113 0
-1107 1114 0
-1115 0
-1116 0
-1108 1117 0
-1114 1117 0
-1108 -1114 1118 0
-1115 1118 0
-1108 -1115 1119 0
-1116 1119 0
-1108 -1116 0
-1109 1120 0
-1117 1120 0
-1109 -1117 1121 0
-1118 1121 0
-1109 -1118 1122 0
-1119 1122 0
-1109 -1119 0
-1110 1123 0
-1120 1123 0
-1110 -1120 1124 0
-1121 1124 0
-1110 -1121 1125 0
-1122 1125 0
-1110 -1122 0
-1111 1126 0
-1123 1126 0
-1111 -1123 1127 0
-1124 1127 0
-1111 -1124 1128 0
-1125 1128 0
-1111 -1125 0
-1112 1129 0
-1126 1129 0
-1112 -1126 1130 0
-1127 1130 0
-1112 -1127 1131 0
-1128 1131 0
-1112 -1128 0
-1113 -1131 0
-1135 3 4 5 6 0
-3 1135 0
-4 1135 0
-5 1135 0
-6 1135 0
-1136 10 11 12 13 0
-10 1136 0
-11 1136 0
-12 1136 0
-13 1136 0
-1137 17 18 19 20 0
-17 1137 0
-18 1137 0
-19 1137 0
-20 1137 0
-1138 24 25 26 27 0
-24 1138 0
-25 1138 0
-26 1138 0
-27 1138 0
-1139 31 32 33 34 0
-31 1139 0
-32 1139 0
-33 1139 0
-34 1139 0
-1140 38 39 40 41 0
-38 1140 0
-39 1140 0
-40 1140 0
-41 1140 0
-1141 45 46 47 48 0
-45 1141 0
-46 1141 0
-47 1141 0
-48 1141 0
-1135 1142 0
-1143 0
-1144 0
-1145 0
-1136 1146 0
-1142 1146 0
-1136 -1142 1147 0
-1143 1147 0
-1136 -1143 1148 0
-1144 1148 0
-1136 -1144 1149 0
-1145 1149 0
-1136 -1145 0
-1137 1150 0
-1146 1150 0
-1137 -1146 1151 0
-1147 1151 0
-1137 -1147 1152 0
-1148 1152 0
-1137 -1148 1153 0
-1149 1153 0
-1137 -1149 0
-1138 1154 0
-1150 1154 0
-1138 -1150 1155 0
-1151 1155 0
-1138 -1151 1156 0
-1152 1156 0
-1138 -1152 1157 0
-1153 1157 0
-1138 -1153 0
-1139 1158 0
-1154 1158 0
-1139 -1154 1159 0
-1155 1159 0
-1139 -1155 1160 0
-1156 1160 0
-1139 -1156 1161 0
-1157 1161 0
-1139 -1157 0
-1140 1162 0
-1158 1162 0
-1140 -1158 1163 0
-1159 1163 0
-1140 -1159 1164 0
-1160 1164 0
-1140 -1160 1165 0
-1161 1165 0
-1140 -1161 0
-1141 -1165 0
-1170 3 4 5 6 7 0
-3 1170 0
-4 1170 0
-5 1170 0
-6 1170 0
-7 1170 0
-1171 10 11 12 13 14 0
-10 1171 0
-11 1171 0
-12 1171 0
-13 1171 0
-14 1171 0
-1172 17 18 19 20 21 0
-17 1172 0
-18 1172 0
-19 1172 0
-20 1172 0
-21 1172 0
-1173 24 25 26 27 28 0
-24 1173 0
-25 1173 0
-26 1173 0
-27 1173 0
-28 1173 0
-1174 31 32 33 34 35 0
-31 1174 0
-32 1174 0
-33 1174 0
-34 1174 0
-35 1174 0
-1175 38 39 40 41 42 0
-38 1175 0
-39 1175 0
-40 1175 0
-41 1175 0
-42 1175 0
-1176 45 46 47 48 49 0
-45 1176 0
-46 1176 0
-47 1176 0
-48 1176 0
-49 1176 0
-1170 1177 0
-1178 0
-1179 0
-1180 0
-1181 0
-1171 1182 0
-1177 1182 0
-1171 -1177 1183 0
-1178 1183 0
-1171 -1178 1184 0
-1179 1184 0
-1171 -1179 1185 0
-1180 1185 0
-1171 -1180 1186 0
-1181 1186 0
-1171 -1181 0
-1172 1187 0
-1182 1187 0
-1172 -1182 1188 0
-1183 1188 0
-1172 -1183 1189 0
-1184 1189 0
-1172 -1184 1190 0
-1185 1190 0
-1172 -1185 1191 0
-1186 1191 0
-1172 -1186 0
-1173 1192 0
-1187 1192 0
-1173 -1187 1193 0
-1188 1193 0
-1173 -1188 1194 0
-1189 1194 0
-1173 -1189 1195 0
-1190 1195 0
-1173 -1190 1196 0
-1191 1196 0
-1173 -1191 0
-1174 1197 0
-1192 1197 0
-1174 -1192 1198 0
-1193 1198 0
-1174 -1193 1199 0
-1194 1199 0
-1174 -1194 1200 0
-1195 1200 0
-1174 -1195 1201 0
-1196 1201 0
-1174 -1196 0
-1175 1202 0
-1197 1202 0
-1175 -1197 1203 0
-1198 1203 0
-1175 -1198 1204 0
-1199 1204 0
-1175 -1199 1205 0
-1200 1205 0
-1175 -1200 1206 0
-1201 1206 0
-1175 -1201 0
-1176 -1206 0
-1212 4 0
-4 1212 0
-1213 11 0
-11 1213 0
-1214 18 0
-18 1214 0
-1215 25 0
-25 1215 0
-1216 32 0
-32 1216 0
-1217 39 0
-39 1217 0
-1218 46 0
-46 1218 0
-1212 1219 0
-1213 1220 0
-1219 1220 0
-1213 -1219 0
-1214 1221 0
-1220 1221 0
-1214 -1220 0
-1215 1222 0
-1221 1222 0
-1215 -1221 0
-1216 1223 0
-1222 1223 0
-1216 -1222 0
-1217 1224 0
-1223 1224 0
-1217 -1223 0
-1218 -1224 0
-1226 4 5 0
-4 1226 0
-5 1226 0
-1227 11 12 0
-11 1227 0
-12 1227 0
-1228 18 19 0
-18 1228 0
-19 1228 0
-1229 25 26 0
-25 1229 0
-26 1229 0
-1230 32 33 0
-32 1230 0
-33 1230 0
-1231 39 40 0
-39 1231 0
-40 1231 0
-1232 46 47 0
-46 1232 0
-47 1232 0
-1226 1233 0
-1234 0
-1227 1235 0
-1233 1235 0
-1227 -1233 1236 0
-1234 1236 0
-1227 -1234 0
-1228 1237 0
-1235 1237 0
-1228 -1235 1238 0
-1236 1238 0
-1228 -1236 0
-1229 1239 0
-1237 1239 0
-1229 -1237 1240 0
-1238 1240 0
-1229 -1238 0
-1230 1241 0
-1239 1241 0
-1230 -1239 1242 0
-1240 1242 0
-1230 -1240 0
-1231 1243 0
-1241 1243 0
-1231 -1241 1244 0
-1242 1244 0
-1231 -1242 0
-1232 -1244 0
-1247 4 5 6 0
-4 1247 0
-5 1247 0
-6 1247 0
-1248 11 12 13 0
-11 1248 0
-12 1248 0
-13 1248 0
-1249 18 19 20 0
-18 1249 0
-19 1249 0
-20 1249 0
-1250 25 26 27 0
-25 1250 0
-26 1250 0
-27 1250 0
-1251 32 33 34 0
-32 1251 0
-33 1251 0
-34 1251 0
-1252 39 40 41 0
-39 1252 0
-40 1252 0
-41 1252 0
-1253 46 47 48 0
-46 1253 0
-47 1253 0
-48 1253 0
-1247 1254 0
-1255 0
-1256 0
-1248 1257 0
-1254 1257 0
-1248 -1254 1258 0
-1255 1258 0
-1248 -1255 1259 0
-1256 1259 0
-1248 -1256 0
-1249 1260 0
-1257 1260 0
-1249 -1257 1261 0
-1258 1261 0
-1249 -1258 1262 0
-1259 1262 0
-1249 -1259 0
-1250 1263 0
-1260 1263 0
-1250 -1260 1264 0
-1261 1264 0
-1250 -1261 1265 0
-1262 1265 0
-1250 -1262 0
-1251 1266 0
-1263 1266 0
-1251 -1263 1267 0
-1264 1267 0
-1251 -1264 1268 0
-1265 1268 0
-1251 -1265 0
-1252 1269 0
-1266 1269 0
-1252 -1266 1270 0
-1267 1270 0
-1252 -1267 1271 0
-1268 1271 0
-1252 -1268 0
-1253 -1271 0
-1275 4 5 6 7 0
-4 1275 0
-5 1275 0
-6 1275 0
-7 1275 0
-1276 11 12 13 14 0
-11 1276 0
-12 1276 0
-13 1276 0
-14 1276 0
-1277 18 19 20 21 0
-18 1277 0
-19 1277 0
-20 1277 0
-21 1277 0
-1278 25 26 27 28 0
-25 1278 0
-26 1278 0
-27 1278 0
-28 1278 0
-1279 32 33 34 35 0
-32 1279 0
-33 1279 0
-34 1279 0
-35 1279 0
-1280 39 40 41 42 0
-39 1280 0
-40 1280 0
-41 1280 0
-42 1280 0
-1281 46 47 48 49 0
-46 1281 0
-47 1281 0
-48 1281 0
-49 1281 0
-1275 1282 0
-1283 0
-1284 0
-1285 0
-1276 1286 0
-1282 1286 0
-1276 -1282 1287 0
-1283 1287 0
-1276 -1283 1288 0
-1284 1288 0
-1276 -1284 1289 0
-1285 1289 0
-1276 -1285 0
-1277 1290 0
-1286 1290 0
-1277 -1286 1291 0
-1287 1291 0
-1277 -1287 1292 0
-1288 1292 0
-1277 -1288 1293 0
-1289 1293 0
-1277 -1289 0
-1278 1294 0
-1290 1294 0
-1278 -1290 1295 0
-1291 1295 0
-1278 -1291 1296 0
-1292 1296 0
-1278 -1292 1297 0
-1293 1297 0
-1278 -1293 0
-1279 1298 0
-1294 1298 0
-1279 -1294 1299 0
-1295 1299 0
-1279 -1295 1300 0
-1296 1300 0
-1279 -1296 1301 0
-1297 1301 0
-1279 -1297 0
-1280 1302 0
-1298 1302 0
-1280 -1298 1303 0
-1299 1303 0
-1280 -1299 1304 0
-1300 1304 0
-1280 -1300 1305 0
-1301 1305 0
-1280 -1301 0
-1281 -1305 0
-1310 5 0
-5 1310 0
-1311 12 0
-12 1311 0
-1312 19 0
-19 1312 0
-1313 26 0
-26 1313 0
-1314 33 0
-33 1314 0
-1315 40 0
-40 1315 0
-1316 47 0
-47 1316 0
-1310 1317 0
-1311 1318 0
-1317 1318 0
-1311 -1317 0
-1312 1319 0
-1318 1319 0
-1312 -1318 0
-1313 1320 0
-1319 1320 0
-1313 -1319 0
-1314 1321 0
-1320 1321 0
-1314 -1320 0
-1315 1322 0
-1321 1322 0
-1315 -1321 0
-1316 -1322 0
-1324 5 6 0
-5 1324 0
-6 1324 0
-1325 12 13 0
-12 1325 0
-13 1325 0
-1326 19 20 0
-19 1326 0
-20 1326 0
-1327 26 27 0
-26 1327 0
-27 1327 0
-1328 33 34 0
-33 1328 0
-34 1328 0
-1329 40 41 0
-40 1329 0
-41 1329 0
-1330 47 48 0
-47 1330 0
-48 1330 0
-1324 1331 0
-1332 0
-1325 1333 0
-1331 1333 0
-1325 -1331 1334 0
-1332 1334 0
-1325 -1332 0
-1326 1335 0
-1333 1335 0
-1326 -1333 1336 0
-1334 1336 0
-1326 -1334 0
-1327 1337 0
-1335 1337 0
-1327 -1335 1338 0
-1336 1338 0
-1327 -1336 0
-1328 1339 0
-1337 1339 0
-1328 -1337 1340 0
-1338 1340 0
-1328 -1338 0
-1329 1341 0
-1339 1341 0
-1329 -1339 1342 0
-1340 1342 0
-1329 -1340 0
-1330 -1342 0
-1345 5 6 7 0
-5 1345 0
-6 1345 0
-7 1345 0
-1346 12 13 14 0
-12 1346 0
-13 1346 0
-14 1346 0
-1347 19 20 21 0
-19 1347 0
-20 1347 0
-21 1347 0
-1348 26 27 28 0
-26 1348 0
-27 1348 0
-28 1348 0
-1349 33 34 35 0
-33 1349 0
-34 1349 0
-35 1349 0
-1350 40 41 42 0
-40 1350 0
-41 1350 0
-42 1350 0
-1351 47 48 49 0
-47 1351 0
-48 1351 0
-49 1351 0
-1345 1352 0
-1353 0
-1354 0
-1346 1355 0
-1352 1355 0
-1346 -1352 1356 0
-1353 1356 0
-1346 -1353 1357 0
-1354 1357 0
-1346 -1354 0
-1347 1358 0
-1355 1358 0
-1347 -1355 1359 0
-1356 1359 0
-1347 -1356 1360 0
-1357 1360 0
-1347 -1357 0
-1348 1361 0
-1358 1361 0
-1348 -1358 1362 0
-1359 1362 0
-1348 -1359 1363 0
-1360 1363 0
-1348 -1360 0
-1349 1364 0
-1361 1364 0
-1349 -1361 1365 0
-1362 1365 0
-1349 -1362 1366 0
-1363 1366 0
-1349 -1363 0
-1350 1367 0
-1364 1367 0
-1350 -1364 1368 0
-1365 1368 0
-1350 -1365 1369 0
-1366 1369 0
-1350 -1366 0
-1351 -1369 0
-1373 6 0
-6 1373 0
-1374 13 0
-13 1374 0
-1375 20 0
-20 1375 0
-1376 27 0
-27 1376 0
-1377 34 0
-34 1377 0
-1378 41 0
-41 1378 0
-1379 48 0
-48 1379 0
-1373 1380 0
-1374 1381 0
-1380 1381 0
-1374 -1380 0
-1375 1382 0
-1381 1382 0
-1375 -1381 0
-1376 1383 0
-1382 1383 0
-1376 -1382 0
-1377 1384 0
-1383 1384 0
-1377 -1383 0
-1378 1385 0
-1384 1385 0
-1378 -1384 0
-1379 -1385 0
-1387 6 7 0
-6 1387 0
-7 1387 0
-1388 13 14 0
-13 1388 0
-14 1388 0
-1389 20 21 0
-20 1389 0
-21 1389 0
-1390 27 28 0
-27 1390 0
-28 1390 0
-1391 34 35 0
-34 1391 0
-35 1391 0
-1392 41 42 0
-41 1392 0
-42 1392 0
-1393 48 49 0
-48 1393 0
-49 1393 0
-1387 1394 0
-1395 0
-1388 1396 0
-1394 1396 0
-1388 -1394 1397 0
-1395 1397 0
-1388 -1395 0
-1389 1398 0
-1396 1398 0
-1389 -1396 1399 0
-1397 1399 0
-1389 -1397 0
-1390 1400 0
-1398 1400 0
-1390 -1398 1401 0
-1399 1401 0
-1390 -1399 0
-1391 1402 0
-1400 1402 0
-1391 -1400 1403 0
-1401 1403 0
-1391 -1401 0
-1392 1404 0
-1402 1404 0
-1392 -1402 1405 0
-1403 1405 0
-1392 -1403 0
-1393 -1405 0
-1408 7 0
-7 1408 0
-1409 14 0
-14 1409 0
-1410 21 0
-21 1410 0
-1411 28 0
-28 1411 0
-1412 35 0
-35 1412 0
-1413 42 0
-42 1413 0
-1414 49 0
-49 1414 0
-1408 1415 0
-1409 1416 0
-1415 1416 0
-1409 -1415 0
-1410 1417 0
-1416 1417 0
-1410 -1416 0
-1411 1418 0
-1417 1418 0
-1411 -1417 0
-1412 1419 0
-1418 1419 0
-1412 -1418 0
-1413 1420 0
-1419 1420 0
-1413 -1419 0
-1414 -1420 0
-1 1422 0
-8 1423 0
-1422 1423 0
-8 -1422 0
-15 1424 0
-1423 1424 0
-15 -1423 0
-22 1425 0
-1424 1425 0
-22 -1424 0
-29 1426 0
-1425 1426 0
-29 -1425 0
-36 1427 0
-1426 1427 0
-36 -1426 0
-43 -1427 0
1 8 15 22 29 36 43 0
-2 1429 0
-9 1430 0
-1429 1430 0
-9 -1429 0
-16 1431 0
-1430 1431 0
-16 -1430 0
-23 1432 0
-1431 1432 0
-23 -1431 0
-30 1433 0
-1432 1433 0
-30 -1432 0
-37 1434 0
-1433 1434 0
-37 -1433 0
-44 -1434 0
2 9 16 23 30 37 44 0
-3 1436 0
-10 1437 0
-1436 1437 0
-10 -1436 0
-17 1438 0
-1437 1438 0
-17 -1437 0
-24 1439 0
-1438 1439 0
-24 -1438 0
-31 1440 0
-1439 1440 0
-31 -1439 0
-38 1441 0
-1440 1441 0
-38 -1440 0
-45 -1441 0
3 10 17 24 31 38 45 0
-4 1443 0
-11 1444 0
-1443 1444 0
-11 -1443 0
-18 1445 0
-1444 1445 0
-18 -1444 0
-25 1446 0
-1445 1446 0
-25 -1445 0
-32 1447 0
-1446 1447 0
-32 -1446 0
-39 1448 0
-1447 1448 0
-39 -1447 0
-46 -1448 0
4 11 18 25 32 39 46 0
-5 1450 0
-12 1451 0
-1450 1451 0
-12 -1450 0
-19 1452 0
-1451 1452 0
-19 -1451 0
-26 1453 0
-1452 1453 0
-26 -1452 0
-33 1454 0
-1453 1454 0
-33 -1453 0
-40 1455 0
-1454 1455 0
-40 -1454 0
-47 -1455 0
5 12 19 26 33 40 47 0
-6 1457 0
-13 1458 0
-1457 1458 0
-13 -1457 0
-20 1459 0
-1458 1459 0
-20 -1458 0
-27 1460 0
-1459 1460 0
-27 -1459 0
-34 1461 0
-1460 1461 0
-34 -1460 0
-41 1462 0
-1461 1462 0
-41 -1461 0
-48 -1462 0
6 13 20 27 34 41 48 0
-7 1464 0
-14 1465 0
-1464 1465 0
-14 -1464 0
-21 1466 0
-1465 1466 0
-21 -1465 0
-28 1467 0
-1466 1467 0
-28 -1466 0
-35 1468 0
-1467 1468 0
-35 -1467 0
-42 1469 0
-1468 1469 0
-42 -1468 0
-49 -1469 0
7 14 21 28 35 42 49 0
-1471 50 0
-50 1471 0
-1472 57 0
-57 1472 0
-1473 64 0
-64 1473 0
-1474 71 0
-71 1474 0
-1475 78 0
-78 1475 0
-1476 85 0
-85 1476 0
-1477 92 0
-92 1477 0
-1471 1478 0
-1472 1479 0
-1478 1479 0
-1472 -1478 0
-1473 1480 0
-1479 1480 0
-1473 -1479 0
-1474 1481 0
-1480 1481 0
-1474 -1480 0
-1475 1482 0
-1481 1482 0
-1475 -1481 0
-1476 1483 0
-1482 1483 0
-1476 -1482 0
-1477 -1483 0
-1485 50 51 0
-50 1485 0
-51 1485 0
-1486 57 58 0
-57 1486 0
-58 1486 0
-1487 64 65 0
-64 1487 0
-65 1487 0
-1488 71 72 0
-71 1488 0
-72 1488 0
-1489 78 79 0
-78 1489 0
-79 1489 0
-1490 85 86 0
-85 1490 0
-86 1490 0
-1491 92 93 0
-92 1491 0
-93 1491 0
-1485 1492 0
-1493 0
-1486 1494 0
-1492 1494 0
-1486 -1492 1495 0
-1493 1495 0
-1486 -1493 0
-1487 1496 0
-1494 1496 0
-1487 -1494 1497 0
-1495 1497 0
-1487 -1495 0
-1488 1498 0
-1496 1498 0
-1488 -1496 1499 0
-1497 1499 0
-1488 -1497 0
-1489 1500 0
-1498 1500 0
-1489 -1498 1501 0
-1499 1501 0
-1489 -1499 0
-1490 1502 0
-1500 1502 0
-1490 -1500 1503 0
-1501 1503 0
-1490 -1501 0
-1491 -1503 0
-1506 50 51 52 0
-50 1506 0
-51 1506 0
-52 1506 0
-1507 57 58 59 0
-57 1507 0
-58 1507 0
-59 1507 0
-1508 64 65 66 0
-64 1508 0
-65 1508 0
-66 1508 0
-1509 71 72 73 0
-71 1509 0
-72 1509 0
-73 1509 0
-1510 78 79 80 0
-78 1510 0
-79 1510 0
-80 1510 0
-1511 85 86 87 0
-85 1511 0
-86 1511 0
-87 1511 0
-1512 92 93 94 0
-92 1512 0
-93 1512 0
-94 1512 0
-1506 1513 0
-1514 0
-1515 0
-1507 1516 0
-1513 1516 0
-1507 -1513 1517 0
-1514 1517 0
-1507 -1514 1518 0
-1515 1518 0
-1507 -1515 0
-1508 1519 0
-1516 1519 0
-1508 -1516 1520 0
-1517 1520 0
-1508 -1517 1521 0
-1518 1521 0
-1508 -1518 0
-1509 1522 0
-1519 1522 0
-1509 -1519 1523 0
-1520 1523 0
-1509 -1520 1524 0
-1521 1524 0
-1509 -1521 0
-1510 1525 0
-1522 1525 0
-1510 -1522 1526 0
-1523 1526 0
-1510 -1523 1527 0
-1524 1527 0
-1510 -1524 0
-1511 1528 0
-1525 1528 0
-1511 -1525 1529 0
-1526 1529 0
-1511 -1526 1530 0
-1527 1530 0
-1511 -1527 0
-1512 -1530 0
-1534 50 51 52 53 0
-50 1534 0
-51 1534 0
-52 1534 0
-53 1534 0
-1535 57 58 59 60 0
-57 1535 0
-58 1535 0
-59 1535 0
-60 1535 0
-1536 64 65 66 67 0
-64 1536 0
-65 1536 0
-66 1536 0
-67 1536 0
-1537 71 72 73 74 0
-71 1537 0
-72 1537 0
-73 1537 0
-74 1537 0
-1538 78 79 80 81 0
-78 1538 0
-79 1538 0
-80 1538 0
-81 1538 0
-1539 85 86 87 88 0
-85 1539 0
-86 1539 0
-87 1539 0
-88 1539 0
-1540 92 93 94 95 0
-92 1540 0
-93 1540 0
-94 1540 0
-95 1540 0
-1534 1541 0
-1542 0
-1543 0
-1544 0
-1535 1545 0
-1541 1545 0
-1535 -1541 1546 0
-1542 1546 0
-1535 -1542 1547 0
-1543 1547 0
-1535 -1543 1548 0
-1544 1548 0
-1535 -1544 0
-1536 1549 0
-1545 1549 0
-1536 -1545 1550 0
-1546 1550 0
-1536 -1546 1551 0
-1547 1551 0
-1536 -1547 1552 0
-1548 1552 0
-1536 -1548 0
-1537 1553 0
-1549 1553 0
-1537 -1549 1554 0
-1550 1554 0
-1537 -1550 1555 0
-1551 1555 0
-1537 -1551 1556 0
-1552 1556 0
-1537 -1552 0
-1538 1557 0
-1553 1557 0
-1538 -1553 1558 0
-1554 1558 0
-1538 -1554 1559 0
-1555 1559 0
-1538 -1555 1560 0
-1556 1560 0
-1538 -1556 0
-1539 1561 0
-1557 1561 0
-1539 -1557 1562 0
-1558 1562 0
-1539 -1558 1563 0
-1559 1563 0
-1539 -1559 1564 0
-1560 1564 0
-1539 -1560 0
-1540 -1564 0
-1569 50 51 52 53 54 0
-50 1569 0
-51 1569 0
-52 1569 0
-53 1569 0
-54 1569 0
-1570 57 58 59 60 61 0
-57 1570 0
-58 1570 0
-59 1570 0
-60 1570 0
-61 1570 0
-1571 64 65 66 67 68 0
-64 1571 0
-65 1571 0
-66 1571 0
-67 1571 0
-68 1571 0
-1572 71 72 73 74 75 0
-71 1572 0
-72 1572 0
-73 1572 0
-74 1572 0
-75 1572 0
-1573 78 79 80 81 82 0
-78 1573 0
-79 1573 0
-80 1573 0
-81 1573 0
-82 1573 0
-1574 85 86 87 88 89 0
-85 1574 0
-86 1574 0
-87 1574 0
-88 1574 0
-89 1574 0
-1575 92 93 94 95 96 0
-92 1575 0
-93 1575 0
-94 1575 0
-95 1575 0
-96 1575 0
-1569 1576 0
-1577 0
-1578 0
-1579 0
-1580 0
-1570 1581 0
-1576 1581 0
-1570 -1576 1582 0
-1577 1582 0
-1570 -1577 1583 0
-1578 1583 0
-1570 -1578 1584 0
-1579 1584 0
-1570 -1579 1585 0
-1580 1585 0
-1570 -1580 0
-1571 1586 0
-1581 1586 0
-1571 -1581 1587 0
-1582 1587 0
-1571 -1582 1588 0
-1583 1588 0
-1571 -1583 1589 0
-1584 1589 0
-1571 -1584 1590 0
-1585 1590 0
-1571 -1585 0
-1572 1591 0
-1586 1591 0
-1572 -1586 1592 0
-1587 1592 0
-1572 -1587 1593 0
-1588 1593 0
-1572 -1588 1594 0
-1589 1594 0
-1572 -1589 1595 0
-1590 1595 0
-1572 -1590 0
-1573 1596 0
-1591 1596 0
-1573 -1591 1597 0
-1592 1597 0
-1573 -1592 1598 0
-1593 1598 0
-1573 -1593 1599 0
-1594 1599 0
-1573 -1594 1600 0
-1595 1600 0
-1573 -1595 0
-1574 1601 0
-1596 1601 0
-1574 -1596 1602 0
-1597 1602 0
-1574 -1597 1603 0
-1598 1603 0
-1574 -1598 1604 0
-1599 1604 0
-1574 -1599 1605 0
-1600 1605 0
-1574 -1600 0
-1575 -1605 0
-1611 50 51 52 53 54 55 0
-50 1611 0
-51 1611 0
-52 1611 0
-53 1611 0
-54 1611 0
-55 1611 0
-1612 57 58 59 60 61 62 0
-57 1612 0
-58 1612 0
-59 1612 0
-60 1612 0
-61 1612 0
-62 1612 0
-1613 64 65 66 67 68 69 0
-64 1613 0
-65 1613 0
-66 1613 0
-67 1613 0
-68 1613 0
-69 1613 0
-1614 71 72 73 74 75 76 0
-71 1614 0
-72 1614 0
-73 1614 0
-74 1614 0
-75 1614 0
-76 1614 0
-1615 78 79 80 81 82 83 0
-78 1615 0
-79 1615 0
-80 1615 0
-81 1615 0
-82 1615 0
-83 1615 0
-1616 85 86 87 88 89 90 0
-85 1616 0
-86 1616 0
-87 1616 0
-88 1616 0
-89 1616 0
-90 1616 0
-1617 92 93 94 95 96 97 0
-92 1617 0
-93 1617 0
-94 1617 0
-95 1617 0
-96 1617 0
-97 1617 0
-1611 1618 0
-1619 0
-1620 0
-1621 0
-1622 0
-1623 0
-1612 1624 0
-1618 1624 0
-1612 -1618 1625 0
-1619 1625 0
-1612 -1619 1626 0
-1620 1626 0
-1612 -1620 1627 0
-1621 1627 0
-1612 -1621 1628 0
-1622 1628 0
-1612 -1622 1629 0
-1623 1629 0
-1612 -1623 0
-1613 1630 0
-1624 1630 0
-1613 -1624 1631 0
-1625 1631 0
-1613 -1625 1632 0
-1626 1632 0
-1613 -1626 1633 0
-1627 1633 0
-1613 -1627 1634 0
-1628 1634 0
-1613 -1628 1635 0
-1629 1635 0
-1613 -1629 0
-1614 1636 0
-1630 1636 0
-1614 -1630 1637 0
-1631 1637 0
-1614 -1631 1638 0
-1632 1638 0
-1614 -1632 1639 0
-1633 1639 0
-1614 -1633 1640 0
-1634 1640 0
-1614 -1634 1641 0
-1635 1641 0
-1614 -1635 0
-1615 1642 0
-1636 1642 0
-1615 -1636 1643 0
-1637 1643 0
-1615 -1637 1644 0
-1638 1644 0
-1615 -1638 1645 0
-1639 1645 0
-1615 -1639 1646 0
-1640 1646 0
-1615 -1640 1647 0
-1641 1647 0
-1615 -1641 0
-1616 1648 0
-1642 1648 0
-1616 -1642 1649 0
-1643 1649 0
-1616 -1643 1650 0
-1644 1650 0
-1616 -1644 1651 0
-1645 1651 0
-1616 -1645 1652 0
-1646 1652 0
-1616 -1646 1653 0
-1647 1653 0
-1616 -1647 0
-1617 -1653 0
-1660 50 51 52 53 54 55 56 0
-50 1660 0
-51 1660 0
-52 1660 0
-53 1660 0
-54 1660 0
-55 1660 0
-56 1660 0
-1661 57 58 59 60 61 62 63 0
-57 1661 0
-58 1661 0
-59 1661 0
-60 1661 0
-61 1661 0
-62 1661 0
-63 1661 0
-1662 64 65 66 67 68 69 70 0
-64 1662 0
-65 1662 0
-66 1662 0
-67 1662 0
-68 1662 0
-69 1662 0
-70 1662 0
-1663 71 72 73 74 75 76 77 0
-71 1663 0
-72 1663 0
-73 1663 0
-74 1663 0
-75 1663 0
-76 1663 0
-77 1663 0
-1664 78 79 80 81 82 83 84 0
-78 1664 0
-79 1664 0
-80 1664 0
-81 1664 0
-82 1664 0
-83 1664 0
-84 1664 0
-1665 85 86 87 88 89 90 91 0
-85 1665 0
-86 1665 0
-87 1665 0
-88 1665 0
-89 1665 0
-90 1665 0
-91 1665 0
-1666 92 93 94 95 96 97 98 0
-92 1666 0
-93 1666 0
-94 1666 0
-95 1666 0
-96 1666 0
-97 1666 0
-98 1666 0
-1667 51 0
-51 1667 0
-1668 58 0
-58 1668 0
-1669 65 0
-65 1669 0
-1670 72 0
-72 1670 0
-1671 79 0
-79 1671 0
-1672 86 0
-86 1672 0
-1673 93 0
-93 1673 0
-1667 1674 0
-1668 1675 0
-1674 1675 0
-1668 -1674 0
-1669 1676 0
-1675 1676 0
-1669 -1675 0
-1670 1677 0
-1676 1677 0
-1670 -1676 0
-1671 1678 0
-1677 1678 0
-1671 -1677 0
-1672 1679 0
-1678 1679 0
-1672 -1678 0
-1673 -1679 0
-1681 51 52 0
-51 1681 0
-52 1681 0
-1682 58 59 0
-58 1682 0
-59 1682 0
-1683 65 66 0
-65 1683 0
-66 1683 0
-1684 72 73 0
-72 1684 0
-73 1684 0
-1685 79 80 0
-79 1685 0
-80 1685 0
-1686 86 87 0
-86 1686 0
-87 1686 0
-1687 93 94 0
-93 1687 0
-94 1687 0
-1681 1688 0
-1689 0
-1682 1690 0
-1688 1690 0
-1682 -1688 1691 0
-1689 1691 0
-1682 -1689 0
-1683 1692 0
-1690 1692 0
-1683 -1690 1693 0
-1691 1693 0
-1683 -1691 0
-1684 1694 0
-1692 1694 0
-1684 -1692 1695 0
-1693 1695 0
-1684 -1693 0
-1685 1696 0
-1694 1696 0
-1685 -1694 1697 0
-1695 1697 0
-1685 -1695 0
-1686 1698 0
-1696 1698 0
-1686 -1696 1699 0
-1697 1699 0
-1686 -1697 0
-1687 -1699 0
-1702 51 52 53 0
-51 1702 0
-52 1702 0
-53 1702 0
-1703 58 59 60 0
-58 1703 0
-59 1703 0
-60 1703 0
-1704 65 66 67 0
-65 1704 0
-66 1704 0
-67 1704 0
-1705 72 73 74 0
-72 1705 0
-73 1705 0
-74 1705 0
-1706 79 80 81 0
-79 1706 0
-80 1706 0
-81 1706 0
-1707 86 87 88 0
-86 1707 0
-87 1707 0
-88 1707 0
-1708 93 94 95 0
-93 1708 0
-94 1708 0
-95 1708 0
-1702 1709 0
-1710 0
-1711 0
-1703 1712 0
-1709 1712 0
-1703 -1709 1713 0
-1710 1713 0
-1703 -1710 1714 0
-1711 1714 0
-1703 -1711 0
-1704 1715 0
-1712 1715 0
-1704 -1712 1716 0
-1713 1716 0
-1704 -1713 1717 0
-1714 1717 0
-1704 -1714 0
-1705 1718 0
-1715 1718 0
-1705 -1715 1719 0
-1716 1719 0
-1705 -1716 1720 0
-1717 1720 0
-1705 -1717 0
-1706 1721 0
-1718 1721 0
-1706 -1718 1722 0
-1719 1722 0
-1706 -1719 1723 0
-1720 1723 0
-1706 -1720 0
-1707 1724 0
-1721 1724 0
-1707 -1721 1725 0
-1722 1725 0
-1707 -1722 1726 0
-1723 1726 0
-1707 -1723 0
-1708 -1726 0
-1730 51 52 53 54 0
-51 1730 0
-52 1730 0
-53 1730 0
-54 1730 0
-1731 58 59 60 61 0
-58 1731 0
-59 1731 0
-60 1731 0
-61 1731 0
-1732 65 66 67 68 0
-65 1732 0
-66 1732 0
-67 1732 0
-68 1732 0
-1733 72 73 74 75 0
-72 1733 0
-73 1733 0
-74 1733 0
-75 1733 0
-1734 79 80 81 82 0
-79 1734 0
-80 1734 0
-81 1734 0
-82 1734 0
-1735 86 87 88 89 0
-86 1735 0
-87 1735 0
-88 1735 0
-89 1735 0
-1736 93 94 95 96 0
-93 1736 0
-94 1736 0
-95 1736 0
-96 1736 0
-1730 1737 0
-1738 0
-1739 0
-1740 0
-1731 1741 0
-1737 1741 0
-1731 -1737 1742 0
-1738 1742 0
-1731 -1738 1743 0
-1739 1743 0
-1731 -1739 1744 0
-1740 1744 0
-1731 -1740 0
-1732 1745 0
-1741 1745 0
-1732 -1741 1746 0
-1742 1746 0
-1732 -1742 1747 0
-1743 1747 0
-1732 -1743 1748 0
-1744 1748 0
-1732 -1744 0
-1733 1749 0
-1745 1749 0
-1733 -1745 1750 0
-1746 1750 0
-1733 -1746 1751 0
-1747 1751 0
-1733 -1747 1752 0
-1748 1752 0
-1733 -1748 0
-1734 1753 0
-1749 1753 0
-1734 -1749 1754 0
-1750 1754 0
-1734 -1750 1755 0
-1751 1755 0
-1734 -1751 1756 0
-1752 1756 0
-1734 -1752 0
-1735 1757 0
-1753 1757 0
-1735 -1753 1758 0
-1754 1758 0
-1735 -1754 1759 0
-1755 1759 0
-1735 -1755 1760 0
-1756 1760 0
-1735 -1756 0
-1736 -1760 0
-1765 51 52 53 54 55 0
-51 1765 0
-52 1765 0
-53 1765 0
-54 1765 0
-55 1765 0
-1766 58 59 60 61 62 0
-58 1766 0
-59 1766 0
-60 1766 0
-61 1766 0
-62 1766 0
-1767 65 66 67 68 69 0
-65 1767 0
-66 1767 0
-67 1767 0
-68 1767 0
-69 1767 0
-1768 72 73 74 75 76 0
-72 1768 0
-73 1768 0
-74 1768 0
-75 1768 0
-76 1768 0
-1769 79 80 81 82 83 0
-79 1769 0
-80 1769 0
-81 1769 0
-82 1769 0
-83 1769 0
-1770 86 87 88 89 90 0
-86 1770 0
-87 1770 0
-88 1770 0
-89 1770 0
-90 1770 0
-1771 93 94 95 96 97 0
-93 1771 0
-94 1771 0
-95 1771 0
-96 1771 0
-97 1771 0
-1765 1772 0
-1773 0
-1774 0
-1775 0
-1776 0
-1766 1777 0
-1772 1777 0
-1766 -1772 1778 0
-1773 1778 0
-1766 -1773 1779 0
-1774 1779 0
-1766 -1774 1780 0
-1775 1780 0
-1766 -1775 1781 0
-1776 1781 0
-1766 -1776 0
-1767 1782 0
-1777 1782 0
-1767 -1777 1783 0
-1778 1783 0
-1767 -1778 1784 0
-1779 1784 0
-1767 -1779 1785 0
-1780 1785 0
-1767 -1780 1786 0
-1781 1786 0
-1767 -1781 0
-1768 1787 0
-1782 1787 0
-1768 -1782 1788 0
-1783 1788 0
-1768 -1783 1789 0
-1784 1789 0
-1768 -1784 1790 0
-1785 1790 0
-1768 -1785 1791 0
-1786 1791 0
-1768 -1786 0
-1769 1792 0
-1787 1792 0
-1769 -1787 1793 0
-1788 1793 0
-1769 -1788 1794 0
-1789 1794 0
-1769 -1789 1795 0
-1790 1795 0
-1769 -1790 1796 0
-1791 1796 0
-1769 -1791 0
-1770 1797 0
-1792 1797 0
-1770 -1792 1798 0
-1793 1798 0
-1770 -1793 1799 0
-1794 1799 0
-1770 -1794 1800 0
-1795 1800 0
-1770 -1795 1801 0
-1796 1801 0
-1770 -1796 0
-1771 -1801 0
-1807 51 52 53 54 55 56 0
-51 1807 0
-52 1807 0
-53 1807 0
-54 1807 0
-55 1807 0
-56 1807 0
-1808 58 59 60 61 62 63 0
-58 1808 0
-59 1808 0
-60 1808 0
-61 1808 0
-62 1808 0
-63 1808 0
-1809 65 66 67 68 69 70 0
-65 1809 0
-66 1809 0
-67 1809 0
-68 1809 0
-69 1809 0
-70 1809 0
-1810 72 73 74 75 76 77 0
-72 1810 0
-73 1810 0
-74 1810 0
-75 1810 0
-76 1810 0
-77 1810 0
-1811 79 80 81 82 83 84 0
-79 1811 0
-80 1811 0
-81 1811 0
-82 1811 0
-83 1811 0
-84 1811 0
-1812 86 87 88 89 90 91 0
-86 1812 0
-87 1812 0
-88 1812 0
-89 1812 0
-90 1812 0
-91 1812 0
-1813 93 94 95 96 97 98 0
-93 1813 0
-94 1813 0
-95 1813 0
-96 1813 0
-97 1813 0
-98 1813 0
-1807 1814 0
-1815 0
-1816 0
-1817 0
-1818 0
-1819 0
-1808 1820 0
-1814 1820 0
-1808 -1814 1821 0
-1815 1821 0
-1808 -1815 1822 0
-1816 1822 0
-1808 -1816 1823 0
-1817 1823 0
-1808 -1817 1824 0
-1818 1824 0
-1808 -1818 1825 0
-1819 1825 0
-1808 -1819 0
-1809 1826 0
-1820 1826 0
-1809 -1820 1827 0
-1821 1827 0
-1809 -1821 1828 0
-1822 1828 0
-1809 -1822 1829 0
-1823 1829 0
-1809 -1823 1830 0
-1824 1830 0
-1809 -1824 1831 0
-1825 1831 0
-1809 -1825 0
-1810 1832 0
-1826 1832 0
-1810 -1826 1833 0
-1827 1833 0
-1810 -1827 1834 0
-1828 1834 0
-1810 -1828 1835 0
-1829 1835 0
-1810 -1829 1836 0
-1830 1836 0
-1810 -1830 1837 0
-1831 1837 0
-1810 -1831 0
-1811 1838 0
-1832 1838 0
-1811 -1832 1839 0
-1833 1839 0
-1811 -1833 1840 0
-1834 1840 0
-1811 -1834 1841 0
-1835 1841 0
-1811 -1835 1842 0
-1836 1842 0
-1811 -1836 1843 0
-1837 1843 0
-1811 -1837 0
-1812 1844 0
-1838 1844 0
-1812 -1838 1845 0
-1839 1845 0
-1812 -1839 1846 0
-1840 1846 0
-1812 -1840 1847 0
-1841 1847 0
-1812 -1841 1848 0
-1842 1848 0
-1812 -1842 1849 0
-1843 1849 0
-1812 -1843 0
-1813 -1849 0
-1856 52 0
-52 1856 0
-1857 59 0
-59 1857 0
-1858 66 0
-66 1858 0
-1859 73 0
-73 1859 0
-1860 80 0
-80 1860 0
-1861 87 0
-87 1861 0
-1862 94 0
-94 1862 0
-1856 1863 0
-1857 1864 0
-1863 1864 0
-1857 -1863 0
-1858 1865 0
-1864 1865 0
-1858 -1864 0
-1859 1866 0
-1865 1866 0
-1859 -1865 0
-1860 1867 0
-1866 1867 0
-1860 -1866 0
-1861 1868 0
-1867 1868 0
-1861 -1867 0
-1862 -1868 0
-1870 52 53 0
-52 1870 0
-53 1870 0
-1871 59 60 0
-59 1871 0
-60 1871 0
-1872 66 67 0
-66 1872 0
-67 1872 0
-1873 73 74 0
-73 1873 0
-74 1873 0
-1874 80 81 0
-80 1874 0
-81 1874 0
-1875 87 88 0
-87 1875 0
-88 1875 0
-1876 94 95 0
-94 1876 0
-95 1876 0
-1870 1877 0
-1878 0
-1871 1879 0
-1877 1879 0
-1871 -1877 1880 0
-1878 1880 0
-1871 -1878 0
-1872 1881 0
-1879 1881 0
-1872 -1879 1882 0
-1880 1882 0
-1872 -1880 0
-1873 1883 0
-1881 1883 0
-1873 -1881 1884 0
-1882 1884 0
-1873 -1882 0
-1874 1885 0
-1883 1885 0
-1874 -1883 1886 0
-1884 1886 0
-1874 -1884 0
-1875 1887 0
-1885 1887 0
-1875 -1885 1888 0
-1886 1888 0
-1875 -1886 0
-1876 -1888 0
-1891 52 53 54 0
-52 1891 0
-53 1891 0
-54 1891 0
-1892 59 60 61 0
-59 1892 0
-60 1892 0
-61 1892 0
-1893 66 67 68 0
-66 1893 0
-67 1893 0
-68 1893 0
-1894 73 74 75 0
-73 1894 0
-74 1894 0
-75 1894 0
-1895 80 81 82 0
-80 1895 0
-81 1895 0
-82 1895 0
-1896 87 88 89 0
-87 1896 0
-88 1896 0
-89 1896 0
-1897 94 95 96 0
-94 1897 0
-95 1897 0
-96 1897 0
-1891 1898 0
-1899 0
-1900 0
-1892 1901 0
-1898 1901 0
-1892 -1898 1902 0
-1899 1902 0
-1892 -1899 1903 0
-1900 1903 0
-1892 -1900 0
-1893 1904 0
-1901 1904 0
-1893 -1901 1905 0
-1902 1905 0
-1893 -1902 1906 0
-1903 1906 0
-1893 -1903 0
-1894 1907 0
-1904 1907 0
-1894 -1904 1908 0
-1905 1908 0
-1894 -1905 1909 0
-1906 1909 0
-1894 -1906 0
-1895 1910 0
-1907 1910 0
-1895 -1907 1911 0
-1908 1911 0
-1895 -1908 1912 0
-1909 1912 0
-1895 -1909 0
-1896 1913 0
-1910 1913 0
-1896 -1910 1914 0
-1911 1914 0
-1896 -1911 1915 0
-1912 1915 0
-1896 -1912 0
-1897 -1915 0
-1919 52 53 54 55 0
-52 1919 0
-53 1919 0
-54 1919 0
-55 1919 0
-1920 59 60 61 62 0
-59 1920 0
-60 1920 0
-61 1920 0
-62 1920 0
-1921 66 67 68 69 0
-66 1921 0
-67 1921 0
-68 1921 0
-69 1921 0
-1922 73 74 75 76 0
-73 1922 0
-74 1922 0
-75 1922 0
-76 1922 0
-1923 80 81 82 83 0
-80 1923 0
-81 1923 0
-82 1923 0
-83 1923 0
-1924 87 88 89 90 0
-87 1924 0
-88 1924 0
-89 1924 0
-90 1924 0
-1925 94 95 96 97 0
-94 1925 0
-95 1925 0
-96 1925 0
-97 1925 0
-1919 1926 0
-1927 0
-1928 0
-1929 0
-1920 1930 0
-1926 1930 0
-1920 -1926 1931 0
-1927 1931 0
-1920 -1927 1932 0
-1928 1932 0
-1920 -1928 1933 0
-1929 1933 0
-1920 -1929 0
-1921 1934 0
-1930 1934 0
-1921 -1930 1935 0
-1931 1935 0
-1921 -1931 1936 0
-1932 1936 0
-1921 -1932 1937 0
-1933 1937 0
-1921 -1933 0
-1922 1938 0
-1934 1938 0
-1922 -1934 1939 0
-1935 1939 0
-1922 -1935 1940 0
-1936 1940 0
-1922 -1936 1941 0
-1937 1941 0
-1922 -1937 0
-1923 1942 0
-1938 1942 0
-1923 -1938 1943 0
-1939 1943 0
-1923 -1939 1944 0
-1940 1944 0
-1923 -1940 1945 0
-1941 1945 0
-1923 -1941 0
-1924 1946 0
-1942 1946 0
-1924 -1942 1947 0
-1943 1947 0
-1924 -1943 1948 0
-1944 1948 0
-1924 -1944 1949 0
-1945 1949 0
-1924 -1945 0
-1925 -1949 0
-1954 52 53 54 55 56 0
-52 1954 0
-53 1954 0
-54 1954 0
-55 1954 0
-56 1954 0
-1955 59 60 61 62 63 0
-59 1955 0
-60 1955 0
-61 1955 0
-62 1955 0
-63 1955 0
-1956 66 67 68 69 70 0
-66 1956 0
-67 1956 0
-68 1956 0
-69 1956 0
-70 1956 0
-1957 73 74 75 76 77 0
-73 1957 0
-74 1957 0
-75 1957 0
-76 1957 0
-77 1957 0
-1958 80 81 82 83 84 0
-80 1958 0
-81 1958 0
-82 1958 0
-83 1958 0
-84 1958 0
-1959 87 88 89 90 91 0
-87 1959 0
-88 1959 0
-89 1959 0
-90 1959 0
-91 1959 0
-1960 94 95 96 97 98 0
-94 1960 0
-95 1960 0
-96 1960 0
-97 1960 0
-98 1960 0
-1954 1961 0
-1962 0
-1963 0
-1964 0
-1965 0
-1955 1966 0
-1961 1966 0
-1955 -1961 1967 0
-1962 1967 0
-1955 -1962 1968 0
-1963 1968 0
-1955 -1963 1969 0
-1964 1969 0
-1955 -1964 1970 0
-1965 1970 0
-1955 -1965 0
-1956 1971 0
-1966 1971 0
-1956 -1966 1972 0
-1967 1972 0
-1956 -1967 1973 0
-1968 1973 0
-1956 -1968 1974 0
-1969 1974 0
-1956 -1969 1975 0
-1970 1975 0
-1956 -1970 0
-1957 1976 0
-1971 1976 0
-1957 -1971 1977 0
-1972 1977 0
-1957 -1972 1978 0
-1973 1978 0
-1957 -1973 1979 0
-1974 1979 0
-1957 -1974 1980 0
-1975 1980 0
-1957 -1975 0
-1958 1981 0
-1976 1981 0
-1958 -1976 1982 0
-1977 1982 0
-1958 -1977 1983 0
-1978 1983 0
-1958 -1978 1984 0
-1979 1984 0
-1958 -1979 1985 0
-1980 1985 0
-1958 -1980 0
-1959 1986 0
-1981 1986 0
-1959 -1981 1987 0
-1982 1987 0
-1959 -1982 1988 0
-1983 1988 0
-1959 -1983 1989 0
-1984 1989 0
-1959 -1984 1990 0
-1985 1990 0
-1959 -1985 0
-1960 -1990 0
-1996 53 0
-53 1996 0
-1997 60 0
-60 1997 0
-1998 67 0
-67 1998 0
-1999 74 0
-74 1999 0
-2000 81 0
-81 2000 0
-2001 88 0
-88 2001 0
-2002 95 0
-95 2002 0
-1996 2003 0
-1997 2004 0
-2003 2004 0
-1997 -2003 0
-1998 2005 0
-2004 2005 0
-1998 -2004 0
-1999 2006 0
-2005 2006 0
-1999 -2005 0
-2000 2007 0
-2006 2007 0
-2000 -2006 0
-2001 2008 0
-2007 2008 0
-2001 -2007 0
-2002 -2008 0
-2010 53 54 0
-53 2010 0
-54 2010 0
-2011 60 61 0
-60 2011 0
-61 2011 0
-2012 67 68 0
-67 2012 0
-68 2012 0
-2013 74 75 0
-74 2013 0
-75 2013 0
-2014 81 82 0
-81 2014 0
-82 2014 0
-2015 88 89 0
-88 2015 0
-89 2015 0
-2016 95 96 0
-95 2016 0
-96 2016 0
-2010 2017 0
-2018 0
-2011 2019 0
-2017 2019 0
-2011 -2017 2020 0
-2018 2020 0
-2011 -2018 0
-2012 2021 0
-2019 2021 0
-2012 -2019 2022 0
-2020 2022 0
-2012 -2020 0
-2013 2023 0
-2021 2023 0
-2013 -2021 2024 0
-2022 2024 0
-2013 -2022 0
-2014 2025 0
-2023 2025 0
-2014 -2023 2026 0
-2024 2026 0
-2014 -2024 0
-2015 2027 0
-2025 2027 0
-2015 -2025 2028 0
-2026 2028 0
-2015 -2026 0
-2016 -2028 0
-2031 53 54 55 0
-53 2031 0
-54 2031 0
-55 2031 0
-2032 60 61 62 0
-60 2032 0
-61 2032 0
-62 2032 0
-2033 67 68 69 0
-67 2033 0
-68 2033 0
-69 2033 0
-2034 74 75 76 0
-74 2034 0
-75 2034 0
-76 2034 0
-2035 81 82 83 0
-81 2035 0
-82 2035 0
-83 2035 0
-2036 88 89 90 0
-88 2036 0
-89 2036 0
-90 2036 0
-2037 95 96 97 0
-95 2037 0
-96 2037 0
-97 2037 0
-2031 2038 0
-2039 0
-2040 0
-2032 2041 0
-2038 2041 0
-2032 -2038 2042 0
-2039 2042 0
-2032 -2039 2043 0
-2040 2043 0
-2032 -2040 0
-2033 2044 0
-2041 2044 0
-2033 -2041 2045 0
-2042 2045 0
-2033 -2042 2046 0
-2043 2046 0
-2033 -2043 0
-2034 2047 0
-2044 2047 0
-2034 -2044 2048 0
-2045 2048 0
-2034 -2045 2049 0
-2046 2049 0
-2034 -2046 0
-2035 2050 0
-2047 2050 0
-2035 -2047 2051 0
-2048 2051 0
-2035 -2048 2052 0
-2049 2052 0
-2035 -2049 0
-2036 2053 0
-2050 2053 0
-2036 -2050 2054 0
-2051 2054 0
-2036 -2051 2055 0
-2052 2055 0
-2036 -2052 0
-2037 -2055 0
-2059 53 54 55 56 0
-53 2059 0
-54 2059 0
-55 2059 0
-56 2059 0
-2060 60 61 62 63 0
-60 2060 0
-61 2060 0
-62 2060 0
-63 2060 0
-2061 67 68 69 70 0
-67 2061 0
-68 2061 0
-69 2061 0
-70 2061 0
-2062 74 75 76 77 0
-74 2062 0
-75 2062 0
-76 2062 0
-77 2062 0
-2063 81 82 83 84 0
-81 2063 0
-82 2063 0
-83 2063 0
-84 2063 0
-2064 88 89 90 91 0
-88 2064 0
-89 2064 0
-90 2064 0
-91 2064 0
-2065 95 96 97 98 0
-95 2065 0
-96 2065 0
-97 2065 0
-98 2065 0
-2059 2066 0
-2067 0
-2068 0
-2069 0
-2060 2070 0
-2066 2070 0
-2060 -2066 2071 0
-2067 2071 0
-2060 -2067 2072 0
-2068 2072 0
-2060 -2068 2073 0
-2069 2073 0
-2060 -2069 0
-2061 2074 0
-2070 2074 0
-2061 -2070 2075 0
-2071 2075 0
-2061 -2071 2076 0
-2072 2076 0
-2061 -2072 2077 0
-2073 2077 0
-2061 -2073 0
-2062 2078 0
-2074 2078 0
-2062 -2074 2079 0
-2075 2079 0
-2062 -2075 2080 0
-2076 2080 0
-2062 -2076 2081 0
-2077 2081 0
-2062 -2077 0
-2063 2082 0
-2078 2082 0
-2063 -2078 2083 0
-2079 2083 0
-2063 -2079 2084 0
-2080 2084 0
-2063 -2080 2085 0
-2081 2085 0
-2063 -2081 0
-2064 2086 0
-2082 2086 0
-2064 -2082 2087 0
-2083 2087 0
-2064 -2083 2088 0
-2084 2088 0
-2064 -2084 2089 0
-2085 2089 0
-2064 -2085 0
-2065 -2089 0
-2094 54 0
-54 2094 0
-2095 61 0
-61 2095 0
-2096 68 0
-68 2096 0
-2097 75 0
-75 2097 0
-2098 82 0
-82 2098 0
-2099 89 0
-89 2099 0
-2100 96 0
-96 2100 0
-2094 2101 0
-2095 2102 0
-2101 2102 0
-2095 -2101 0
-2096 2103 0
-2102 2103 0
-2096 -2102 0
-2097 2104 0
-2103 2104 0
-2097 -2103 0
-2098 2105 0
-2104 2105 0
-2098 -2104 0
-2099 2106 0
-2105 2106 0
-2099 -2105 0
-2100 -2106 0
-2108 54 55 0
-54 2108 0
-55 2108 0
-2109 61 62 0
-61 2109 0
-62 2109 0
-2110 68 69 0
-68 2110 0
-69 2110 0
-2111 75 76 0
-75 2111 0
-76 2111 0
-2112 82 83 0
-82 2112 0
-83 2112 0
-2113 89 90 0
-89 2113 0
-90 2113 0
-2114 96 97 0
-96 2114 0
-97 2114 0
-2108 2115 0
-2116 0
-2109 2117 0
-2115 2117 0
-2109 -2115 2118 0
-2116 2118 0
-2109 -2116 0
-2110 2119 0
-2117 2119 0
-2110 -2117 2120 0
-2118 2120 0
-2110 -2118 0
-2111 2121 0
-2119 2121 0
-2111 -2119 2122 0
-2120 2122 0
-2111 -2120 0
-2112 2123 0
-2121 2123 0
-2112 -2121 2124 0
-2122 2124 0
-2112 -2122 0
-2113 2125 0
-2123 2125 0
-2113 -2123 2126 0
-2124 2126 0
-2113 -2124 0
-2114 -2126 0
-2129 54 55 56 0
-54 2129 0
-55 2129 0
-56 2129 0
-2130 61 62 63 0
-61 2130 0
-62 2130 0
-63 2130 0
-2131 68 69 70 0
-68 2131 0
-69 2131 0
-70 2131 0
-2132 75 76 77 0
-75 2132 0
-76 2132 0
-77 2132 0
-2133 82 83 84 0
-82 2133 0
-83 2133 0
-84 2133 0
-2134 89 90 91 0
-89 2134 0
-90 2134 0
-91 2134 0
-2135 96 97 98 0
-96 2135 0
-97 2135 0
-98 2135 0
-2129 2136 0
-2137 0
-2138 0
-2130 2139 0
-2136 2139 0
-2130 -2136 2140 0
-2137 2140 0
-2130 -2137 2141 0
-2138 2141 0
-2130 -2138 0
-2131 2142 0
-2139 2142 0
-2131 -2139 2143 0
-2140 2143 0
-2131 -2140 2144 0
-2141 2144 0
-2131 -2141 0
-2132 2145 0
-2142 2145 0
-2132 -2142 2146 0
-2143 2146 0
-2132 -2143 2147 0
-2144 2147 0
-2132 -2144 0
-2133 2148 0
-2145 2148 0
-2133 -2145 2149 0
-2146 2149 0
-2133 -2146 2150 0
-2147 2150 0
-2133 -2147 0
-2134 2151 0
-2148 2151 0
-2134 -2148 2152 0
-2149 2152 0
-2134 -2149 2153 0
-2150 2153 0
-2134 -2150 0
-2135 -2153 0
-2157 55 0
-55 2157 0
-2158 62 0
-62 2158 0
-2159 69 0
-69 2159 0
-2160 76 0
-76 2160 0
-2161 83 0
-83 2161 0
-2162 90 0
-90 2162 0
-2163 97 0
-97 2163 0
-2157 2164 0
-2158 2165 0
-2164 2165 0
-2158 -2164 0
-2159 2166 0
-2165 2166 0
-2159 -2165 0
-2160 2167 0
-2166 2167 0
-2160 -2166 0
-2161 2168 0
-2167 2168 0
-2161 -2167 0
-2162 2169 0
-2168 2169 0
-2162 -2168 0
-2163 -2169 0
-2171 55 56 0
-55 2171 0
-56 2171 0
-2172 62 63 0
-62 2172 0
-63 2172 0
-2173 69 70 0
-69 2173 0
-70 2173 0
-2174 76 77 0
-76 2174 0
-77 2174 0
-2175 83 84 0
-83 2175 0
-84 2175 0
-2176 90 91 0
-90 2176 0
-91 2176 0
-2177 97 98 0
-97 2177 0
-98 2177 0
-2171 2178 0
-2179 0
-2172 2180 0
-2178 2180 0
-2172 -2178 2181 0
-2179 2181 0
-2172 -2179 0
-2173 2182 0
-2180 2182 0
-2173 -2180 2183 0
-2181 2183 0
-2173 -2181 0
-2174 2184 0
-2182 2184 0
-2174 -2182 2185 0
-2183 2185 0
-2174 -2183 0
-2175 2186 0
-2184 2186 0
-2175 -2184 2187 0
-2185 2187 0
-2175 -2185 0
-2176 2188 0
-2186 2188 0
-2176 -2186 2189 0
-2187 2189 0
-2176 -2187 0
-2177 -2189 0
-2192 56 0
-56 2192 0
-2193 63 0
-63 2193 0
-2194 70 0
-70 2194 0
-2195 77 0
-77 2195 0
-2196 84 0
-84 2196 0
-2197 91 0
-91 2197 0
-2198 98 0
-98 2198 0
-2192 2199 0
-2193 2200 0
-2199 2200 0
-2193 -2199 0
-2194 2201 0
-2200 2201 0
-2194 -2200 0
-2195 2202 0
-2201 2202 0
-2195 -2201 0
-2196 2203 0
-2202 2203 0
-2196 -2202 0
-2197 2204 0
-2203 2204 0
-2197 -2203 0
-2198 -2204 0
-50 2206 0
-57 2207 0
-2206 2207 0
-57 -2206 0
-64 2208 0
-2207 2208 0
-64 -2207 0
-71 2209 0
-2208 2209 0
-71 -2208 0
-78 2210 0
-2209 2210 0
-78 -2209 0
-85 2211 0
-2210 2211 0
-85 -2210 0
-92 -2211 0
50 57 64 71 78 85 92 0
-51 2213 0
-58 2214 0
-2213 2214 0
-58 -2213 0
-65 2215 0
-2214 2215 0
-65 -2214 0
-72 2216 0
-2215 2216 0
-72 -2215 0
-79 2217 0
-2216 2217 0
-79 -2216 0
-86 2218 0
-2217 2218 0
-86 -2217 0
-93 -2218 0
51 58 65 72 79 86 93 0
-52 2220 0
-59 2221 0
-2220 2221 0
-59 -2220 0
-66 2222 0
-2221 2222 0
-66 -2221 0
-73 2223 0
-2222 2223 0
-73 -2222 0
-80 2224 0
-2223 2224 0
-80 -2223 0
-87 2225 0
-2224 2225 0
-87 -2224 0
-94 -2225 0
52 59 66 73 80 87 94 0
-53 2227 0
-60 2228 0
-2227 2228 0
-60 -2227 0
-67 2229 0
-2228 2229 0
-67 -2228 0
-74 2230 0
-2229 2230 0
-74 -2229 0
-81 2231 0
-2230 2231 0
-81 -2230 0
-88 2232 0
-2231 2232 0
-88 -2231 0
-95 -2232 0
53 60 67 74 81 88 95 0
-54 2234 0
-61 2235 0
-2234 2235 0
-61 -2234 0
-68 2236 0
-2235 2236 0
-68 -2235 0
-75 2237 0
-2236 2237 0
-75 -2236 0
-82 2238 0
-2237 2238 0
-82 -2237 0
-89 2239 0
-2238 2239 0
-89 -2238 0
-96 -2239 0
54 61 68 75 82 89 96 0
-55 2241 0
-62 2242 0
-2241 2242 0
-62 -2241 0
-69 2243 0
-2242 2243 0
-69 -2242 0
-76 2244 0
-2243 2244 0
-76 -2243 0
-83 2245 0
-2244 2245 0
-83 -2244 0
-90 2246 0
-2245 2246 0
-90 -2245 0
-97 -2246 0
55 62 69 76 83 90 97 0
-56 2248 0
-63 2249 0
-2248 2249 0
-63 -2248 0
-70 2250 0
-2249 2250 0
-70 -2249 0
-77 2251 0
-2250 2251 0
-77 -2250 0
-84 2252 0
-2251 2252 0
-84 -2251 0
-91 2253 0
-2252 2253 0
-91 -2252 0
-98 -2253 0
56 63 70 77 84 91 98 0
-2255 99 0
-99 2255 0
-2256 106 0
-106 2256 0
-2257 113 0
-113 2257 0
-2258 120 0
-120 2258 0
-2259 127 0
-127 2259 0
-2260 134 0
-134 2260 0
-2261 141 0
-141 2261 0
-2255 2262 0
-2256 2263 0
-2262 2263 0
-2256 -2262 0
-2257 2264 0
-2263 2264 0
-2257 -2263 0
-2258 2265 0
-2264 2265 0
-2258 -2264 0
-2259 2266 0
-2265 2266 0
-2259 -2265 0
-2260 2267 0
-2266 2267 0
-2260 -2266 0
-2261 -2267 0
-2269 99 100 0
-99 2269 0
-100 2269 0
-2270 106 107 0
-106 2270 0
-107 2270 0
-2271 113 114 0
-113 2271 0
-114 2271 0
-2272 120 121 0
-120 2272 0
-121 2272 0
-2273 127 128 0
-127 2273 0
-128 2273 0
-2274 134 135 0
-134 2274 0
-135 2274 0
-2275 141 142 0
-141 2275 0
-142 2275 0
-2269 2276 0
-2277 0
-2270 2278 0
-2276 2278 0
-2270 -2276 2279 0
-2277 2279 0
-2270 -2277 0
-2271 2280 0
-2278 2280 0
-2271 -2278 2281 0
-2279 2281 0
-2271 -2279 0
-2272 2282 0
-2280 2282 0
-2272 -2280 2283 0
-2281 2283 0
-2272 -2281 0
-2273 2284 0
-2282 2284 0
-2273 -2282 2285 0
-2283 2285 0
-2273 -2283 0
-2274 2286 0
-2284 2286 0
-2274 -2284 2287 0
-2285 2287 0
-2274 -2285 0
-2275 -2287 0
-2290 99 100 101 0
-99 2290 0
-100 2290 0
-101 2290 0
-2291 106 107 108 0
-106 2291 0
-107 2291 0
-108 2291 0
-2292 113 114 115 0
-113 2292 0
-114 2292 0
-115 2292 0
-2293 120 121 122 0
-120 2293 0
-121 2293 0
-122 2293 0
-2294 127 128 129 0
-127 2294 0
-128 2294 0
-129 2294 0
-2295 134 135 136 0
-134 2295 0
-135 2295 0
-136 2295 0
-2296 141 142 143 0
-141 2296 0
-142 2296 0
-143 2296 0
-2290 2297 0
-2298 0
-2299 0
-2291 2300 0
-2297 2300 0
-2291 -2297 2301 0
-2298 2301 0
-2291 -2298 2302 0
-2299 2302 0
-2291 -2299 0
-2292 2303 0
-2300 2303 0
-2292 -2300 2304 0
-2301 2304 0
-2292 -2301 2305 0
-2302 2305 0
-2292 -2302 0
-2293 2306 0
-2303 2306 0
-2293 -2303 2307 0
-2304 2307 0
-2293 -2304 2308 0
-2305 2308 0
-2293 -2305 0
-2294 2309 0
-2306 2309 0
-2294 -2306 2310 0
-2307 2310 0
-2294 -2307 2311 0
-2308 2311 0
-2294 -2308 0
-2295 2312 0
-2309 2312 0
-2295 -2309 2313 0
-2310 2313 0
-2295 -2310 2314 0
-2311 2314 0
-2295 -2311 0
-2296 -2314 0
-2318 99 100 101 102 0
-99 2318 0
-100 2318 0
-101 2318 0
-102 2318 0
-2319 106 107 108 109 0
-106 2319 0
-107 2319 0
-108 2319 0
-109 2319 0
-2320 113 114 115 116 0
-113 2320 0
-114 2320 0
-115 2320 0
-116 2320 0
-2321 120 121 122 123 0
-120 2321 0
-121 2321 0
-122 2321 0
-123 2321 0
-2322 127 128 129 130 0
-127 2322 0
-128 2322 0
-129 2322 0
-130 2322 0
-2323 134 135 136 137 0
-134 2323 0
-135 2323 0
-136 2323 0
-137 2323 0
-2324 141 142 143 144 0
-141 2324 0
-142 2324 0
-143 2324 0
-144 2324 0
-2318 2325 0
-2326 0
-2327 0
-2328 0
-2319 2329 0
-2325 2329 0
-2319 -2325 2330 0
-2326 2330 0
-2319 -2326 2331 0
-2327 2331 0
-2319 -2327 2332 0
-2328 2332 0
-2319 -2328 0
-2320 2333 0
-2329 2333 0
-2320 -2329 2334 0
-2330 2334 0
-2320 -2330 2335 0
-2331 2335 0
-2320 -2331 2336 0
-2332 2336 0
-2320 -2332 0
-2321 2337 0
-2333 2337 0
-2321 -2333 2338 0
-2334 2338 0
-2321 -2334 2339 0
-2335 2339 0
-2321 -2335 2340 0
-2336 2340 0
-2321 -2336 0
-2322 2341 0
-2337 2341 0
-2322 -2337 2342 0
-2338 2342 0
-2322 -2338 2343 0
-2339 2343 0
-2322 -2339 2344 0
-2340 2344 0
-2322 -2340 0
-2323 2345 0
-2341 2345 0
-2323 -2341 2346 0
-2342 2346 0
-2323 -2342 2347 0
-2343 2347 0
-2323 -2343 2348 0
-2344 2348 0
-2323 -2344 0
-2324 -2348 0
-2353 99 100 101 102 103 0
-99 2353 0
-100 2353 0
-101 2353 0
-102 2353 0
-103 2353 0
-2354 106 107 108 109 110 0
-106 2354 0
-107 2354 0
-108 2354 0
-109 2354 0
-110 2354 0
-2355 113 114 115 116 117 0
-113 2355 0
-114 2355 0
-115 2355 0
-116 2355 0
-117 2355 0
-2356 120 121 122 123 124 0
-120 2356 0
-121 2356 0
-122 2356 0
-123 2356 0
-124 2356 0
-2357 127 128 129 130 131 0
-127 2357 0
-128 2357 0
-129 2357 0
-130 2357 0
-131 2357 0
-2358 134 135 136 137 138 0
-134 2358 0
-135 2358 0
-136 2358 0
-137 2358 0
-138 2358 0
-2359 141 142 143 144 145 0
-141 2359 0
-142 2359 0
-143 2359 0
-144 2359 0
-145 2359 0
-2353 2360 0
-2361 0
-2362 0
-2363 0
-2364 0
-2354 2365 0
-2360 2365 0
-2354 -2360 2366 0
-2361 2366 0
-2354 -2361 2367 0
-2362 2367 0
-2354 -2362 2368 0
-2363 2368 0
-2354 -2363 2369 0
-2364 2369 0
-2354 -2364 0
-2355 2370 0
-2365 2370 0
-2355 -2365 2371 0
-2366 2371 0
-2355 -2366 2372 0
-2367 2372 0
-2355 -2367 2373 0
-2368 2373 0
-2355 -2368 2374 0
-2369 2374 0
-2355 -2369 0
-2356 2375 0
-2370 2375 0
-2356 -2370 2376 0
-2371 2376 0
-2356 -2371 2377 0
-2372 2377 0
-2356 -2372 2378 0
-2373 2378 0
-2356 -2373 2379 0
-2374 2379 0
-2356 -2374 0
-2357 2380 0
-2375 2380 0
-2357 -2375 2381 0
-2376 2381 0
-2357 -2376 2382 0
-2377 2382 0
-2357 -2377 2383 0
-2378 2383 0
-2357 -2378 2384 0
-2379 2384 0
-2357 -2379 0
-2358 2385 0
-2380 2385 0
-2358 -2380 2386 0
-2381 2386 0
-2358 -2381 2387 0
-2382 2387 0
-2358 -2382 2388 0
-2383 2388 0
-2358 -2383 2389 0
-2384 2389 0
-2358 -2384 0
-2359 -2389 0
-2395 99 100 101 102 103 104 0
-99 2395 0
-100 2395 0
-101 2395 0
-102 2395 0
-103 2395 0
-104 2395 0
-2396 106 107 108 109 110 111 0
-106 2396 0
-107 2396 0
-108 2396 0
-109 2396 0
-110 2396 0
-111 2396 0
-2397 113 114 115 116 117 118 0
-113 2397 0
-114 2397 0
-115 2397 0
-116 2397 0
-117 2397 0
-118 2397 0
-2398 120 121 122 123 124 125 0
-120 2398 0
-121 2398 0
-122 2398 0
-123 2398 0
-124 2398 0
-125 2398 0
-2399 127 128 129 130 131 132 0
-127 2399 0
-128 2399 0
-129 2399 0
-130 2399 0
-131 2399 0
-132 2399 0
-2400 134 135 136 137 138 139 0
-134 2400 0
-135 2400 0
-136 2400 0
-137 2400 0
-138 2400 0
-139 2400 0
-2401 141 142 143 144 145 146 0
-141 2401 0
-142 2401 0
-143 2401 0
-144 2401 0
-145 2401 0
-146 2401 0
-2395 2402 0
-2403 0
-2404 0
-2405 0
-2406 0
-2407 0
-2396 2408 0
-2402 2408 0
-2396 -2402 2409 0
-2403 2409 0
-2396 -2403 2410 0
-2404 2410 0
-2396 -2404 2411 0
-2405 2411 0
-2396 -2405 2412 0
-2406 2412 0
-2396 -2406 2413 0
-2407 2413 0
-2396 -2407 0
-2397 2414 0
-2408 2414 0
-2397 -2408 2415 0
-2409 2415 0
-2397 -2409 2416 0
-2410 2416 0
-2397 -2410 2417 0
-2411 2417 0
-2397 -2411 2418 0
-2412 2418 0
-2397 -2412 2419 0
-2413 2419 0
-2397 -2413 0
-2398 2420 0
-2414 2420 0
-2398 -2414 2421 0
-2415 2421 0
-2398 -2415 2422 0
-2416 2422 0
-2398 -2416 2423 0
-2417 2423 0
-2398 -2417 2424 0
-2418 2424 0
-2398 -2418 2425 0
-2419 2425 0
-2398 -2419 0
-2399 2426 0
-2420 2426 0
-2399 -2420 2427 0
-2421 2427 0
-2399 -2421 2428 0
-2422 2428 0
-2399 -2422 2429 0
-2423 2429 0
-2399 -2423 2430 0
-2424 2430 0
-2399 -2424 2431 0
-2425 2431 0
-2399 -2425 0
-2400 2432 0
-2426 2432 0
-2400 -2426 2433 0
-2427 2433 0
-2400 -2427 2434 0
-2428 2434 0
-2400 -2428 2435 0
-2429 2435 0
-2400 -2429 2436 0
-2430 2436 0
-2400 -2430 2437 0
-2431 2437 0
-2400 -2431 0
-2401 -2437 0
-2444 99 100 101 102 103 104 105 0
-99 2444 0
-100 2444 0
-101 2444 0
-102 2444 0
-103 2444 0
-104 2444 0
-105 2444 0
-2445 106 107 108 109 110 111 112 0
-106 2445 0
-107 2445 0
-108 2445 0
-109 2445 0
-110 2445 0
-111 2445 0
-112 2445 0
-2446 113 114 115 116 117 118 119 0
-113 2446 0
-114 2446 0
-115 2446 0
-116 2446 0
-117 2446 0
-118 2446 0
-119 2446 0
-2447 120 121 122 123 124 125 126 0
-120 2447 0
-121 2447 0
-122 2447 0
-123 2447 0
-124 2447 0
-125 2447 0
-126 2447 0
-2448 127 128 129 130 131 132 133 0
-127 2448 0
-128 2448 0
-129 2448 0
-130 2448 0
-131 2448 0
-132 2448 0
-133 2448 0
-2449 134 135 136 137 138 139 140 0
-134 2449 0
-135 2449 0
-136 2449 0
-137 2449 0
-138 2449 0
-139 2449 0
-140 2449 0
-2450 141 142 143 144 145 146 147 0
-141 2450 0
-142 2450 0
-143 2450 0
-144 2450 0
-145 2450 0
-146 2450 0
-147 2450 0
-2451 100 0
-100 2451 0
-2452 107 0
-107 2452 0
-2453 114 0
-114 2453 0
-2454 121 0
-121 2454 0
-2455 128 0
-128 2455 0
-2456 135 0
-135 2456 0
-2457 142 0
-142 2457 0
-2451 2458 0
-2452 2459 0
-2458 2459 0
-2452 -2458 0
-2453 2460 0
-2459 2460 0
-2453 -2459 0
-2454 2461 0
-2460 2461 0
-2454 -2460 0
-2455 2462 0
-2461 2462 0
-2455 -2461 0
-2456 2463 0
-2462 2463 0
-2456 -2462 0
-2457 -2463 0
-2465 100 101 0
-100 2465 0
-101 2465 0
-2466 107 108 0
-107 2466 0
-108 2466 0
-2467 114 115 0
-114 2467 0
-115 2467 0
-2468 121 122 0
-121 2468 0
-122 2468 0
-2469 128 129 0
-128 2469 0
-129 2469 0
-2470 135 136 0
-135 2470 0
-136 2470 0
-2471 142 143 0
-142 2471 0
-143 2471 0
-2465 2472 0
-2473 0
-2466 2474 0
-2472 2474 0
-2466 -2472 2475 0
-2473 2475 0
-2466 -2473 0
-2467 2476 0
-2474 2476 0
-2467 -2474 2477 0
-2475 2477 0
-2467 -2475 0
-2468 2478 0
-2476 2478 0
-2468 -2476 2479 0
-2477 2479 0
-2468 -2477 0
-2469 2480 0
-2478 2480 0
-2469 -2478 2481 0
-2479 2481 0
-2469 -2479 0
-2470 2482 0
-2480 2482 0
-2470 -2480 2483 0
-2481 2483 0
-2470 -2481 0
-2471 -2483 0
-2486 100 101 102 0
-100 2486 0
-101 2486 0
-102 2486 0
-2487 107 108 109 0
-107 2487 0
-108 2487 0
-109 2487 0
-2488 114 115 116 0
-114 2488 0
-115 2488 0
-116 2488 0
-2489 121 122 123 0
-121 2489 0
-122 2489 0
-123 2489 0
-2490 128 129 130 0
-128 2490 0
-129 2490 0
-130 2490 0
-2491 135 136 137 0
-135 2491 0
-136 2491 0
-137 2491 0
-2492 142 143 144 0
-142 2492 0
-143 2492 0
-144 2492 0
-2486 2493 0
-2494 0
-2495 0
-2487 2496 0
-2493 2496 0
-2487 -2493 2497 0
-2494 2497 0
-2487 -2494 2498 0
-2495 2498 0
-2487 -2495 0
-2488 2499 0
-2496 2499 0
-2488 -2496 2500 0
-2497 2500 0
-2488 -2497 2501 0
-2498 2501 0
-2488 -2498 0
-2489 2502 0
-2499 2502 0
-2489 -2499 2503 0
-2500 2503 0
-2489 -2500 2504 0
-2501 2504 0
-2489 -2501 0
-2490 2505 0
-2502 2505 0
-2490 -2502 2506 0
-2503 2506 0
-2490 -2503 2507 0
-2504 2507 0
-2490 -2504 0
-2491 2508 0
-2505 2508 0
-2491 -2505 2509 0
-2506 2509 0
-2491 -2506 2510 0
-2507 2510 0
-2491 -2507 0
-2492 -2510 0
-2514 100 101 102 103 0
-100 2514 0
-101 2514 0
-102 2514 0
-103 2514 0
-2515 107 108 109 110 0
-107 2515 0
-108 2515 0
-109 2515 0
-110 2515 0
-2516 114 115 116 117 0
-114 2516 0
-115 2516 0
-116 2516 0
-117 2516 0
-2517 121 122 123 124 0
-121 2517 0
-122 2517 0
-123 2517 0
-124 2517 0
-2518 128 129 130 131 0
-128 2518 0
-129 2518 0
-130 2518 0
-131 2518 0
-2519 135 136 137 138 0
-135 2519 0
-136 2519 0
-137 2519 0
-138 2519 0
-2520 142 143 144 145 0
-142 2520 0
-143 2520 0
-144 2520 0
-145 2520 0
-2514 2521 0
-2522 0
-2523 0
-2524 0
-2515 2525 0
-2521 2525 0
-2515 -2521 2526 0
-2522 2526 0
-2515 -2522 2527 0
-2523 2527 0
-2515 -2523 2528 0
-2524 2528 0
-2515 -2524 0
-2516 2529 0
-2525 2529 0
-2516 -2525 2530 0
-2526 2530 0
-2516 -2526 2531 0
-2527 2531 0
-2516 -2527 2532 0
-2528 2532 0
-2516 -2528 0
-2517 2533 0
-2529 2533 0
-2517 -2529 2534 0
-2530 2534 0
-2517 -2530 2535 0
-2531 2535 0
-2517 -2531 2536 0
-2532 2536 0
-2517 -2532 0
-2518 2537 0
-2533 2537 0
-2518 -2533 2538 0
-2534 2538 0
-2518 -2534 2539 0
-2535 2539 0
-2518 -2535 2540 0
-2536 2540 0
-2518 -2536 0
-2519 2541 0
-2537 2541 0
-2519 -2537 2542 0
-2538 2542 0
-2519 -2538 2543 0
-2539 2543 0
-2519 -2539 2544 0
-2540 2544 0
-2519 -2540 0
-2520 -2544 0
-2549 100 101 102 103 104 0
-100 2549 0
-101 2549 0
-102 2549 0
-103 2549 0
-104 2549 0
-2550 107 108 109 110 111 0
-107 2550 0
-108 2550 0
-109 2550 0
-110 2550 0
-111 2550 0
-2551 114 115 116 117 118 0
-114 2551 0
-115 2551 0
-116 2551 0
-117 2551 0
-118 2551 0
-2552 121 122 123 124 125 0
-121 2552 0
-122 2552 0
-123 2552 0
-124 2552 0
-125 2552 0
-2553 128 129 130 131 132 0
-128 2553 0
-129 2553 0
-130 2553 0
-131 2553 0
-132 2553 0
-2554 135 136 137 138 139 0
-135 2554 0
-136 2554 0
-137 2554 0
-138 2554 0
-139 2554 0
-2555 142 143 144 145 146 0
-142 2555 0
-143 2555 0
-144 2555 0
-145 2555 0
-146 2555 0
-2549 2556 0
-2557 0
-2558 0
-2559 0
-2560 0
-2550 2561 0
-2556 2561 0
-2550 -2556 2562 0
-2557 2562 0
-2550 -2557 2563 0
-2558 2563 0
-2550 -2558 2564 0
-2559 2564 0
-2550 -2559 2565 0
-2560 2565 0
-2550 -2560 0
-2551 2566 0
-2561 2566 0
-2551 -2561 2567 0
-2562 2567 0
-2551 -2562 2568 0
-2563 2568 0
-2551 -2563 2569 0
-2564 2569 0
-2551 -2564 2570 0
-2565 2570 0
-2551 -2565 0
-2552 2571 0
-2566 2571 0
-2552 -2566 2572 0
-2567 2572 0
-2552 -2567 2573 0
-2568 2573 0
-2552 -2568 2574 0
-2569 2574 0
-2552 -2569 2575 0
-2570 2575 0
-2552 -2570 0
-2553 2576 0
-2571 2576 0
-2553 -2571 2577 0
-2572 2577 0
-2553 -2572 2578 0
-2573 2578 0
-2553 -2573 2579 0
-2574 2579 0
-2553 -2574 2580 0
-2575 2580 0
-2553 -2575 0
-2554 2581 0
-2576 2581 0
-2554 -2576 2582 0
-2577 2582 0
-2554 -2577 2583 0
-2578 2583 0
-2554 -2578 2584 0
-2579 2584 0
-2554 -2579 2585 0
-2580 2585 0
-2554 -2580 0
-2555 -2585 0
-2591 100 101 102 103 104 105 0
-100 2591 0
-101 2591 0
-102 2591 0
-103 2591 0
-104 2591 0
-105 2591 0
-2592 107 108 109 110 111 112 0
-107 2592 0
-108 2592 0
-109 2592 0
-110 2592 0
-111 2592 0
-112 2592 0
-2593 114 115 116 117 118 119 0
-114 2593 0
-115 2593 0
-116 2593 0
-117 2593 0
-118 2593 0
-119 2593 0
-2594 121 122 123 124 125 126 0
-121 2594 0
-122 2594 0
-123 2594 0
-124 2594 0
-125 2594 0
-126 2594 0
-2595 128 129 130 131 132 133 0
-128 2595 0
-129 2595 0
-130 2595 0
-131 2595 0
-132 2595 0
-133 2595 0
-2596 135 136 137 138 139 140 0
-135 2596 0
-136 2596 0
-137 2596 0
-138 2596 0
-139 2596 0
-140 2596 0
-2597 142 143 144 145 146 147 0
-142 2597 0
-143 2597 0
-144 2597 0
-145 2597 0
-146 2597 0
-147 2597 0
-2591 2598 0
-2599 0
-2600 0
-2601 0
-2602 0
-2603 0
-2592 2604 0
-2598 2604 0
-2592 -2598 2605 0
-2599 2605 0
-2592 -2599 2606 0
-2600 2606 0
-2592 -2600 2607 0
-2601 2607 0
-2592 -2601 2608 0
-2602 2608 0
-2592 -2602 2609 0
-2603 2609 0
-2592 -2603 0
-2593 2610 0
-2604 2610 0
-2593 -2604 2611 0
-2605 2611 0
-2593 -2605 2612 0
-2606 2612 0
-2593 -2606 2613 0
-2607 2613 0
-2593 -2607 2614 0
-2608 2614 0
-2593 -2608 2615 0
-2609 2615 0
-2593 -2609 0
-2594 2616 0
-2610 2616 0
-2594 -2610 2617 0
-2611 2617 0
-2594 -2611 2618 0
-2612 2618 0
-2594 -2612 2619 0
-2613 2619 0
-2594 -2613 2620 0
-2614 2620 0
-2594 -2614 2621 0
-2615 2621 0
-2594 -2615 0
-2595 2622 0
-2616 2622 0
-2595 -2616 2623 0
-2617 2623 0
-2595 -2617 2624 0
-2618 2624 0
-2595 -2618 2625 0
-2619 2625 0
-2595 -2619 2626 0
-2620 2626 0
-2595 -2620 2627 0
-2621 2627 0
-2595 -2621 0
-2596 2628 0
-2622 2628 0
-2596 -2622 2629 0
-2623 2629 0
-2596 -2623 2630 0
-2624 2630 0
-2596 -2624 2631 0
-2625 2631 0
-2596 -2625 2632 0
-2626 2632 0
-2596 -2626 2633 0
-2627 2633 0
-2596 -2627 0
-2597 -2633 0
-2640 101 0
-101 2640 0
-2641 108 0
-108 2641 0
-2642 115 0
-115 2642 0
-2643 122 0
-122 2643 0
-2644 129 0
-129 2644 0
-2645 136 0
-136 2645 0
-2646 143 0
-143 2646 0
-2640 2647 0
-2641 2648 0
-2647 2648 0
-2641 -2647 0
-2642 2649 0
-2648 2649 0
-2642 -2648 0
-2643 2650 0
-2649 2650 0
-2643 -2649 0
-2644 2651 0
-2650 2651 0
-2644 -2650 0
-2645 2652 0
-2651 2652 0
-2645 -2651 0
-2646 -2652 0
-2654 101 102 0
-101 2654 0
-102 2654 0
-2655 108 109 0
-108 2655 0
-109 2655 0
-2656 115 116 0
-115 2656 0
-116 2656 0
-2657 122 123 0
-122 2657 0
-123 2657 0
-2658 129 130 0
-129 2658 0
-130 2658 0
-2659 136 137 0
-136 2659 0
-137 2659 0
-2660 143 144 0
-143 2660 0
-144 2660 0
-2654 2661 0
-2662 0
-2655 2663 0
-2661 2663 0
-2655 -2661 2664 0
-2662 2664 0
-2655 -2662 0
-2656 2665 0
-2663 2665 0
-2656 -2663 2666 0
-2664 2666 0
-2656 -2664 0
-2657 2667 0
-2665 2667 0
-2657 -2665 2668 0
-2666 2668 0
-2657 -2666 0
-2658 2669 0
-2667 2669 0
-2658 -2667 2670 0
-2668 2670 0
-2658 -2668 0
-2659 2671 0
-2669 2671 0
-2659 -2669 2672 0
-2670 2672 0
-2659 -2670 0
-2660 -2672 0
-2675 101 102 103 0
-101 2675 0
-102 2675 0
-103 2675 0
-2676 108 109 110 0
-108 2676 0
-109 2676 0
-110 2676 0
-2677 115 116 117 0
-115 2677 0
-116 2677 0
-117 2677 0
-2678 122 123 124 0
-122 2678 0
-123 2678 0
-124 2678 0
-2679 129 130 131 0
-129 2679 0
-130 2679 0
-131 2679 0
-2680 136 137 138 0
-136 2680 0
-137 2680 0
-138 2680 0
-2681 143 144 145 0
-143 2681 0
-144 2681 0
-145 2681 0
-2675 2682 0
-2683 0
-2684 0
-2676 2685 0
-2682 2685 0
-2676 -2682 2686 0
-2683 2686 0
-2676 -2683 2687 0
-2684 2687 0
-2676 -2684 0
-2677 2688 0
-2685 2688 0
-2677 -2685 2689 0
-2686 2689 0
-2677 -2686 2690 0
-2687 2690 0
-2677 -2687 0
-2678 2691 0
-2688 2691 0
-2678 -2688 2692 0
-2689 2692 0
-2678 -2689 2693 0
-2690 2693 0
-2678 -2690 0
-2679 2694 0
-2691 2694 0
-2679 -2691 2695 0
-2692 2695 0
-2679 -2692 2696 0
-2693 2696 0
-2679 -2693 0
-2680 2697 0
-2694 2697 0
-2680 -2694 2698 0
-2695 2698 0
-2680 -2695 2699 0
-2696 2699 0
-2680 -2696 0
-2681 -2699 0
-2703 101 102 103 104 0
-101 2703 0
-102 2703 0
-103 2703 0
-104 2703 0
-2704 108 109 110 111 0
-108 2704 0
-109 2704 0
-110 2704 0
-111 2704 0
-2705 115 116 117 118 0
-115 2705 0
-116 2705 0
-117 2705 0
-118 2705 0
-2706 122 123 124 125 0
-122 2706 0
-123 2706 0
-124 2706 0
-125 2706 0
-2707 129 130 131 132 0
-129 2707 0
-130 2707 0
-131 2707 0
-132 2707 0
-2708 136 137 138 139 0
-136 2708 0
-137 2708 0
-138 2708 0
-139 2708 0
-2709 143 144 145 146 0
-143 2709 0
-144 2709 0
-145 2709 0
-146 2709 0
-2703 2710 0
-2711 0
-2712 0
-2713 0
-2704 2714 0
-2710 2714 0
-2704 -2710 2715 0
-2711 2715 0
-2704 -2711 2716 0
-2712 2716 0
-2704 -2712 2717 0
-2713 2717 0
-2704 -2713 0
-2705 2718 0
-2714 2718 0
-2705 -2714 2719 0
-2715 2719 0
-2705 -2715 2720 0
-2716 2720 0
-2705 -2716 2721 0
-2717 2721 0
-2705 -2717 0
-2706 2722 0
-2718 2722 0
-2706 -2718 2723 0
-2719 2723 0
-2706 -2719 2724 0
-2720 2724 0
-2706 -2720 2725 0
-2721 2725 0
-2706 -2721 0
-2707 2726 0
-2722 2726 0
-2707 -2722 2727 0
-2723 2727 0
-2707 -2723 2728 0
-2724 2728 0
-2707 -2724 2729 0
-2725 2729 0
-2707 -2725 0
-2708 2730 0
-2726 2730 0
-2708 -2726 2731 0
-2727 2731 0
-2708 -2727 2732 0
-2728 2732 0
-2708 -2728 2733 0
-2729 2733 0
-2708 -2729 0
-2709 -2733 0
-2738 101 102 103 104 105 0
-101 2738 0
-102 2738 0
-103 2738 0
-104 2738 0
-105 2738 0
-2739 108 109 110 111 112 0
-108 2739 0
-109 2739 0
-110 2739 0
-111 2739 0
-112 2739 0
-2740 115 116 117 118 119 0
-115 2740 0
-116 2740 0
-117 2740 0
-118 2740 0
-119 2740 0
-2741 122 123 124 125 126 0
-122 2741 0
-123 2741 0
-124 2741 0
-125 2741 0
-126 2741 0
-2742 129 130 131 132 133 0
-129 2742 0
-130 2742 0
-131 2742 0
-132 2742 0
-133 2742 0
-2743 136 137 138 139 140 0
-136 2743 0
-137 2743 0
-138 2743 0
-139 2743 0
-140 2743 0
-2744 143 144 145 146 147 0
-143 2744 0
-144 2744 0
-145 2744 0
-146 2744 0
-147 2744 0
-2738 2745 0
-2746 0
-2747 0
-2748 0
-2749 0
-2739 2750 0
-2745 2750 0
-2739 -2745 2751 0
-2746 2751 0
-2739 -2746 2752 0
-2747 2752 0
-2739 -2747 2753 0
-2748 2753 0
-2739 -2748 2754 0
-2749 2754 0
-2739 -2749 0
-2740 2755 0
-2750 2755 0
-2740 -2750 2756 0
-2751 2756 0
-2740 -2751 2757 0
-2752 2757 0
-2740 -2752 2758 0
-2753 2758 0
-2740 -2753 2759 0
-2754 2759 0
-2740 -2754 0
-2741 2760 0
-2755 2760 0
-2741 -2755 2761 0
-2756 2761 0
-2741 -2756 2762 0
-2757 2762 0
-2741 -2757 2763 0
-2758 2763 0
-2741 -2758 2764 0
-2759 2764 0
-2741 -2759 0
-2742 2765 0
-2760 2765 0
-2742 -2760 2766 0
-2761 2766 0
-2742 -2761 2767 0
-2762 2767 0
-2742 -2762 2768 0
-2763 2768 0
-2742 -2763 2769 0
-2764 2769 0
-2742 -2764 0
-2743 2770 0
-2765 2770 0
-2743 -2765 2771 0
-2766 2771 0
-2743 -2766 2772 0
-2767 2772 0
-2743 -2767 2773 0
-2768 2773 0
-2743 -2768 2774 0
-2769 2774 0
-2743 -2769 0
-2744 -2774 0
-2780 102 0
-102 2780 0
-2781 109 0
-109 2781 0
-2782 116 0
-116 2782 0
-2783 123 0
-123 2783 0
-2784 130 0
-130 2784 0
-2785 137 0
-137 2785 0
-2786 144 0
-144 2786 0
-2780 2787 0
-2781 2788 0
-2787 2788 0
-2781 -2787 0
-2782 2789 0
-2788 2789 0
-2782 -2788 0
-2783 2790 0
-2789 2790 0
-2783 -2789 0
-2784 2791 0
-2790 2791 0
-2784 -2790 0
-2785 2792 0
-2791 2792 0
-2785 -2791 0
-2786 -2792 0
-2794 102 103 0
-102 2794 0
-103 2794 0
-2795 109 110 0
-109 2795 0
-110 2795 0
-2796 116 117 0
-116 2796 0
-117 2796 0
-2797 123 124 0
-123 2797 0
-124 2797 0
-2798 130 131 0
-130 2798 0
-131 2798 0
-2799 137 138 0
-137 2799 0
-138 2799 0
-2800 144 145 0
-144 2800 0
-145 2800 0
-2794 2801 0
-2802 0
-2795 2803 0
-2801 2803 0
-2795 -2801 2804 0
-2802 2804 0
-2795 -2802 0
-2796 2805 0
-2803 2805 0
-2796 -2803 2806 0
-2804 2806 0
-2796 -2804 0
-2797 2807 0
-2805 2807 0
-2797 -2805 2808 0
-2806 2808 0
-2797 -2806 0
-2798 2809 0
-2807 2809 0
-2798 -2807 2810 0
-2808 2810 0
-2798 -2808 0
-2799 2811 0
-2809 2811 0
-2799 -2809 2812 0
-2810 2812 0
-2799 -2810 0
-2800 -2812 0
-2815 102 103 104 0
-102 2815 0
-103 2815 0
-104 2815 0
-2816 109 110 111 0
-109 2816 0
-110 2816 0
-111 2816 0
-2817 116 117 118 0
-116 2817 0
-117 2817 0
-118 2817 0
-2818 123 124 125 0
-123 2818 0
-124 2818 0
-125 2818 0
-2819 130 131 132 0
-130 2819 0
-131 2819 0
-132 2819 0
-2820 137 138 139 0
-137 2820 0
-138 2820 0
-139 2820 0
-2821 144 145 146 0
-144 2821 0
-145 2821 0
-146 2821 0
-2815 2822 0
-2823 0
-2824 0
-2816 2825 0
-2822 2825 0
-2816 -2822 2826 0
-2823 2826 0
-2816 -2823 2827 0
-2824 2827 0
-2816 -2824 0
-2817 2828 0
-2825 2828 0
-2817 -2825 2829 0
-2826 2829 0
-2817 -2826 2830 0
-2827 2830 0
-2817 -2827 0
-2818 2831 0
-2828 2831 0
-2818 -2828 2832 0
-2829 2832 0
-2818 -2829 2833 0
-2830 2833 0
-2818 -2830 0
-2819 2834 0
-2831 2834 0
-2819 -2831 2835 0
-2832 2835 0
-2819 -2832 2836 0
-2833 2836 0
-2819 -2833 0
-2820 2837 0
-2834 2837 0
-2820 -2834 2838 0
-2835 2838 0
-2820 -2835 2839 0
-2836 2839 0
-2820 -2836 0
-2821 -2839 0
-2843 102 103 104 105 0
-102 2843 0
-103 2843 0
-104 2843 0
-105 2843 0
-2844 109 110 111 112 0
-109 2844 0
-110 2844 0
-111 2844 0
-112 2844 0
-2845 116 117 118 119 0
-116 2845 0
-117 2845 0
-118 2845 0
-119 2845 0
-2846 123 124 125 126 0
-123 2846 0
-124 2846 0
-125 2846 0
-126 2846 0
-2847 130 131 132 133 0
-130 2847 0
-131 2847 0
-132 2847 0
-133 2847 0
-2848 137 138 139 140 0
-137 2848 0
-138 2848 0
-139 2848 0
-140 2848 0
-2849 144 145 146 147 0
-144 2849 0
-145 2849 0
-146 2849 0
-147 2849 0
-2843 2850 0
-2851 0
-2852 0
-2853 0
-2844 2854 0
-2850 2854 0
-2844 -2850 2855 0
-2851 2855 0
-2844 -2851 2856 0
-2852 2856 0
-2844 -2852 2857 0
-2853 2857 0
-2844 -2853 0
-2845 2858 0
-2854 2858 0
-2845 -2854 2859 0
-2855 2859 0
-2845 -2855 2860 0
-2856 2860 0
-2845 -2856 2861 0
-2857 2861 0
-2845 -2857 0
-2846 2862 0
-2858 2862 0
-2846 -2858 2863 0
-2859 2863 0
-2846 -2859 2864 0
-2860 2864 0
-2846 -2860 2865 0
-2861 2865 0
-2846 -2861 0
-2847 2866 0
-2862 2866 0
-2847 -2862 2867 0
-2863 2867 0
-2847 -2863 2868 0
-2864 2868 0
-2847 -2864 2869 0
-2865 2869 0
-2847 -2865 0
-2848 2870 0
-2866 2870 0
-2848 -2866 2871 0
-2867 2871 0
-2848 -2867 2872 0
-2868 2872 0
-2848 -2868 2873 0
-2869 2873 0
-2848 -2869 0
-2849 -2873 0
-2878 103 0
-103 2878 0
-2879 110 0
-110 2879 0
-2880 117 0
-117 2880 0
-2881 124 0
-124 2881 0
-2882 131 0
-131 2882 0
-2883 138 0
-138 2883 0
-2884 145 0
-145 2884 0
-2878 2885 0
-2879 2886 0
-2885 2886 0
-2879 -2885 0
-2880 2887 0
-2886 2887 0
-2880 -2886 0
-2881 2888 0
-2887 2888 0
-2881 -2887 0
-2882 2889 0
-2888 2889 0
-2882 -2888 0
-2883 2890 0
-2889 2890 0
-2883 -2889 0
-2884 -2890 0
-2892 103 104 0
-103 2892 0
-104 2892 0
-2893 110 111 0
-110 2893 0
-111 2893 0
-2894 117 118 0
-117 2894 0
-118 2894 0
-2895 124 125 0
-124 2895 0
-125 2895 0
-2896 131 132 0
-131 2896 0
-132 2896 0
-2897 138 139 0
-138 2897 0
-139 2897 0
-2898 145 146 0
-145 2898 0
-146 2898 0
-2892 2899 0
-2900 0
-2893 2901 0
-2899 2901 0
-2893 -2899 2902 0
-2900 2902 0
-2893 -2900 0
-2894 2903 0
-2901 2903 0
-2894 -2901 2904 0
-2902 2904 0
-2894 -2902 0
-2895 2905 0
-2903 2905 0
-2895 -2903 2906 0
-2904 2906 0
-2895 -2904 0
-2896 2907 0
-2905 2907 0
-2896 -2905 2908 0
-2906 2908 0
-2896 -2906 0
-2897 2909 0
-2907 2909 0
-2897 -2907 2910 0
-2908 2910 0
-2897 -2908 0
-2898 -2910 0
-2913 103 104 105 0
-103 2913 0
-104 2913 0
-105 2913 0
-2914 110 111 112 0
-110 2914 0
-111 2914 0
-112 2914 0
-2915 117 118 119 0
-117 2915 0
-118 2915 0
-119 2915 0
-2916 124 125 126 0
-124 2916 0
-125 2916 0
-126 2916 0
-2917 131 132 133 0
-131 2917 0
-132 2917 0
-133 2917 0
-2918 138 139 140 0
-138 2918 0
-139 2918 0
-140 2918 0
-2919 145 146 147 0
-145 2919 0
-146 2919 0
-147 2919 0
-2913 2920 0
-2921 0
-2922 0
-2914 2923 0
-2920 2923 0
-2914 -2920 2924 0
-2921 2924 0
-2914 -2921 2925 0
-2922 2925 0
-2914 -2922 0
-2915 2926 0
-2923 2926 0
-2915 -2923 2927 0
-2924 2927 0
-2915 -2924 2928 0
-2925 2928 0
-2915 -2925 0
-2916 2929 0
-2926 2929 0
-2916 -2926 2930 0
-2927 2930 0
-2916 -2927 2931 0
-2928 2931 0
-2916 -2928 0
-2917 2932 0
-2929 2932 0
-2917 -2929 2933 0
-2930 2933 0
-2917 -2930 2934 0
-2931 2934 0
-2917 -2931 0
-2918 2935 0
-2932 2935 0
-2918 -2932 2936 0
-2933 2936 0
-2918 -2933 2937 0
-2934 2937 0
-2918 -2934 0
-2919 -2937 0
-2941 104 0
-104 2941 0
-2942 111 0
-111 2942 0
-2943 118 0
-118 2943 0
-2944 125 0
-125 2944 0
-2945 132 0
-132 2945 0
-2946 139 0
-139 2946 0
-2947 146 0
-146 2947 0
-2941 2948 0
-2942 2949 0
-2948 2949 0
-2942 -2948 0
-2943 2950 0
-2949 2950 0
-2943 -2949 0
-2944 2951 0
-2950 2951 0
-2944 -2950 0
-2945 2952 0
-2951 2952 0
-2945 -2951 0
-2946 2953 0
-2952 2953 0
-2946 -2952 0
-2947 -2953 0
-2955 104 105 0
-104 2955 0
-105 2955 0
-2956 111 112 0
-111 2956 0
-112 2956 0
-2957 118 119 0
-118 2957 0
-119 2957 0
-2958 125 126 0
-125 2958 0
-126 2958 0
-2959 132 133 0
-132 2959 0
-133 2959 0
-2960 139 140 0
-139 2960 0
-140 2960 0
-2961 146 147 0
-146 2961 0
-147 2961 0
-2955 2962 0
-2963 0
-2956 2964 0
-2962 2964 0
-2956 -2962 2965 0
-2963 2965 0
-2956 -2963 0
-2957 2966 0
-2964 2966 0
-2957 -2964 2967 0
-2965 2967 0
-2957 -2965 0
-2958 2968 0
-2966 2968 0
-2958 -2966 2969 0
-2967 2969 0
-2958 -2967 0
-2959 2970 0
-2968 2970 0
-2959 -2968 2971 0
-2969 2971 0
-2959 -2969 0
-2960 2972 0
-2970 2972 0
-2960 -2970 2973 0
-2971 2973 0
-2960 -2971 0
-2961 -2973 0
-2976 105 0
-105 2976 0
-2977 112 0
-112 2977 0
-2978 119 0
-119 2978 0
-2979 126 0
-126 2979 0
-2980 133 0
-133 2980 0
-2981 140 0
-140 2981 0
-2982 147 0
-147 2982 0
-2976 2983 0
-2977 2984 0
-2983 2984 0
-2977 -2983 0
-2978 2985 0
-2984 2985 0
-2978 -2984 0
-2979 2986 0
-2985 2986 0
-2979 -2985 0
-2980 2987 0
-2986 2987 0
-2980 -2986 0
-2981 2988 0
-2987 2988 0
-2981 -2987 0
-2982 -2988 0
-99 2990 0
-106 2991 0
-2990 2991 0
-106 -2990 0
-113 2992 0
-2991 2992 0
-113 -2991 0
-120 2993 0
-2992 2993 0
-120 -2992 0
-127 2994 0
-2993 2994 0
-127 -2993 0
-134 2995 0
-2994 2995 0
-134 -2994 0
-141 -2995 0
99 106 113 120 127 134 141 0
-100 2997 0
-107 2998 0
-2997 2998 0
-107 -2997 0
-114 2999 0
-2998 2999 0
-114 -2998 0
-121 3000 0
-2999 3000 0
-121 -2999 0
-128 3001 0
-3000 3001 0
-128 -3000 0
-135 3002 0
-3001 3002 0
-135 -3001 0
-142 -3002 0
100 107 114 121 128 135 142 0
-101 3004 0
-108 3005 0
-3004 3005 0
-108 -3004 0
-115 3006 0
-3005 3006 0
-115 -3005 0
-122 3007 0
-3006 3007 0
-122 -3006 0
-129 3008 0
-3007 3008 0
-129 -3007 0
-136 3009 0
-3008 3009 0
-136 -3008 0
-143 -3009 0
101 108 115 122 129 136 143 0
-102 3011 0
-109 3012 0
-3011 3012 0
-109 -3011 0
-116 3013 0
-3012 3013 0
-116 -3012 0
-123 3014 0
-3013 3014 0
-123 -3013 0
-130 3015 0
-3014 3015 0
-130 -3014 0
-137 3016 0
-3015 3016 0
-137 -3015 0
-144 -3016 0
102 109 116 123 130 137 144 0
-103 3018 0
-110 3019 0
-3018 3019 0
-110 -3018 0
-117 3020 0
-3019 3020 0
-117 -3019 0
-124 3021 0
-3020 3021 0
-124 -3020 0
-131 3022 0
-3021 3022 0
-131 -3021 0
-138 3023 0
-3022 3023 0
-138 -3022 0
-145 -3023 0
103 110 117 124 131 138 145 0
-104 3025 0
-111 3026 0
-3025 3026 0
-111 -3025 0
-118 3027 0
-3026 3027 0
-118 -3026 0
-125 3028 0
-3027 3028 0
-125 -3027 0
-132 3029 0
-3028 3029 0
-132 -3028 0
-139 3030 0
-3029 3030 0
-139 -3029 0
-146 -3030 0
104 111 118 125 132 139 146 0
-105 3032 0
-112 3033 0
-3032 3033 0
-112 -3032 0
-119 3034 0
-3033 3034 0
-119 -3033 0
-126 3035 0
-3034 3035 0
-126 -3034 0
-133 3036 0
-3035 3036 0
-133 -3035 0
-140 3037 0
-3036 3037 0
-140 -3036 0
-147 -3037 0
105 112 119 126 133 140 147 0
-3039 148 0
-148 3039 0
-3040 155 0
-155 3040 0
-3041 162 0
-162 3041 0
-3042 169 0
-169 3042 0
-3043 176 0
-176 3043 0
-3044 183 0
-183 3044 0
-3045 190 0
-190 3045 0
-3039 3046 0
-3040 3047 0
-3046 3047 0
-3040 -3046 0
-3041 3048 0
-3047 3048 0
-3041 -3047 0
-3042 3049 0
-3048 3049 0
-3042 -3048 0
-3043 3050 0
-3049 3050 0
-3043 -3049 0
-3044 3051 0
-3050 3051 0
-3044 -3050 0
-3045 -3051 0
-3053 148 149 0
-148 3053 0
-149 3053 0
-3054 155 156 0
-155 3054 0
-156 3054 0
-3055 162 163 0
-162 3055 0
-163 3055 0
-3056 169 170 0
-169 3056 0
-170 3056 0
-3057 176 177 0
-176 3057 0
-177 3057 0
-3058 183 184 0
-183 3058 0
-184 3058 0
-3059 190 191 0
-190 3059 0
-191 3059 0
-3053 3060 0
-3061 0
-3054 3062 0
-3060 3062 0
-3054 -3060 3063 0
-3061 3063 0
-3054 -3061 0
-3055 3064 0
-3062 3064 0
-3055 -3062 3065 0
-3063 3065 0
-3055 -3063 0
-3056 3066 0
-3064 3066 0
-3056 -3064 3067 0
-3065 3067 0
-3056 -3065 0
-3057 3068 0
-3066 3068 0
-3057 -3066 3069 0
-3067 3069 0
-3057 -3067 0
-3058 3070 0
-3068 3070 0
-3058 -3068 3071 0
-3069 3071 0
-3058 -3069 0
-3059 -3071 0
-3074 148 149 150 0
-148 3074 0
-149 3074 0
-150 3074 0
-3075 155 156 157 0
-155 3075 0
-156 3075 0
-157 3075 0
-3076 162 163 164 0
-162 3076 0
-163 3076 0
-164 3076 0
-3077 169 170 171 0
-169 3077 0
-170 3077 0
-171 3077 0
-3078 176 177 178 0
-176 3078 0
-177 3078 0
-178 3078 0
-3079 183 184 185 0
-183 3079 0
-184 3079 0
-185 3079 0
-3080 190 191 192 0
-190 3080 0
-191 3080 0
-192 3080 0
-3074 3081 0
-3082 0
-3083 0
-3075 3084 0
-3081 3084 0
-3075 -3081 3085 0
-3082 3085 0
-3075 -3082 3086 0
-3083 3086 0
-3075 -3083 0
-3076 3087 0
-3084 3087 0
-3076 -3084 3088 0
-3085 3088 0
-3076 -3085 3089 0
-3086 3089 0
-3076 -3086 0
-3077 3090 0
-3087 3090 0
-3077 -3087 3091 0
-3088 3091 0
-3077 -3088 3092 0
-3089 3092 0
-3077 -3089 0
-3078 3093 0
-3090 3093 0
-3078 -3090 3094 0
-3091 3094 0
-3078 -3091 3095 0
-3092 3095 0
-3078 -3092 0
-3079 3096 0
-3093 3096 0
-3079 -3093 3097 0
-3094 3097 0
-3079 -3094 3098 0
-3095 3098 0
-3079 -3095 0
-3080 -3098 0
-3102 148 149 150 151 0
-148 3102 0
-149 3102 0
-150 3102 0
-151 3102 0
-3103 155 156 157 158 0
-155 3103 0
-156 3103 0
-157 3103 0
-158 3103 0
-3104 162 163 164 165 0
-162 3104 0
-163 3104 0
-164 3104 0
-165 3104 0
-3105 169 170 171 172 0
-169 3105 0
-170 3105 0
-171 3105 0
-172 3105 0
-3106 176 177 178 179 0
-176 3106 0
-177 3106 0
-178 3106 0
-179 3106 0
-3107 183 184 185 186 0
-183 3107 0
-184 3107 0
-185 3107 0
-186 3107 0
-3108 190 191 192 193 0
-190 3108 0
-191 3108 0
-192 3108 0
-193 3108 0
-3102 3109 0
-3110 0
-3111 0
-3112 0
-3103 3113 0
-3109 3113 0
-3103 -3109 3114 0
-3110 3114 0
-3103 -3110 3115 0
-3111 3115 0
-3103 -3111 3116 0
-3112 3116 0
-3103 -3112 0
-3104 3117 0
-3113 3117 0
-3104 -3113 3118 0
-3114 3118 0
-3104 -3114 3119 0
-3115 3119 0
-3104 -3115 3120 0
-3116 3120 0
-3104 -3116 0
-3105 3121 0
-3117 3121 0
-3105 -3117 3122 0
-3118 3122 0
-3105 -3118 3123 0
-3119 3123 0
-3105 -3119 3124 0
-3120 3124 0
-3105 -3120 0
-3106 3125 0
-3121 3125 0
-3106 -3121 3126 0
-3122 3126 0
-3106 -3122 3127 0
-3123 3127 0
-3106 -3123 3128 0
-3124 3128 0
-3106 -3124 0
-3107 3129 0
-3125 3129 0
-3107 -3125 3130 0
-3126 3130 0
-3107 -3126 3131 0
-3127 3131 0
-3107 -3127 3132 0
-3128 3132 0
-3107 -3128 0
-3108 -3132 0
-3137 148 149 150 151 152 0
-148 3137 0
-149 3137 0
-150 3137 0
-151 3137 0
-152 3137 0
-3138 155 156 157 158 159 0
-155 3138 0
-156 3138 0
-157 3138 0
-158 3138 0
-159 3138 0
-3139 162 163 164 165 166 0
-162 3139 0
-163 3139 0
-164 3139 0
-165 3139 0
-166 3139 0
-3140 169 170 171 172 173 0
-169 3140 0
-170 3140 0
-171 3140 0
-172 3140 0
-173 3140 0
-3141 176 177 178 179 180 0
-176 3141 0
-177 3141 0
-178 3141 0
-179 3141 0
-180 3141 0
-3142 183 184 185 186 187 0
-183 3142 0
-184 3142 0
-185 3142 0
-186 3142 0
-187 3142 0
-3143 190 191 192 193 194 0
-190 3143 0
-191 3143 0
-192 3143 0
-193 3143 0
-194 3143 0
-3137 3144 0
-3145 0
-3146 0
-3147 0
-3148 0
-3138 3149 0
-3144 3149 0
-3138 -3144 3150 0
-3145 3150 0
-3138 -3145 3151 0
-3146 3151 0
-3138 -3146 3152 0
-3147 3152 0
-3138 -3147 3153 0
-3148 3153 0
-3138 -3148 0
-3139 3154 0
-3149 3154 0
-3139 -3149 3155 0
-3150 3155 0
-3139 -3150 3156 0
-3151 3156 0
-3139 -3151 3157 0
-3152 3157 0
-3139 -3152 3158 0
-3153 3158 0
-3139 -3153 0
-3140 3159 0
-3154 3159 0
-3140 -3154 3160 0
-3155 3160 0
-3140 -3155 3161 0
-3156 3161 0
-3140 -3156 3162 0
-3157 3162 0
-3140 -3157 3163 0
-3158 3163 0
-3140 -3158 0
-3141 3164 0
-3159 3164 0
-3141 -3159 3165 0
-3160 3165 0
-3141 -3160 3166 0
-3161 3166 0
-3141 -3161 3167 0
-3162 3167 0
-3141 -3162 3168 0
-3163 3168 0
-3141 -3163 0
-3142 3169 0
-3164 3169 0
-3142 -3164 3170 0
-3165 3170 0
-3142 -3165 3171 0
-3166 3171 0
-3142 -3166 3172 0
-3167 3172 0
-3142 -3167 3173 0
-3168 3173 0
-3142 -3168 0
-3143 -3173 0
-3179 148 149 150 151 152 153 0
-148 3179 0
-149 3179 0
-150 3179 0
-151 3179 0
-152 3179 0
-153 3179 0
-3180 155 156 157 158 159 160 0
-155 3180 0
-156 3180 0
-157 3180 0
-158 3180 0
-159 3180 0
-160 3180 0
-3181 162 163 164 165 166 167 0
-162 3181 0
-163 3181 0
-164 3181 0
-165 3181 0
-166 3181 0
-167 3181 0
-3182 169 170 171 172 173 174 0
-169 3182 0
-170 3182 0
-171 3182 0
-172 3182 0
-173 3182 0
-174 3182 0
-3183 176 177 178 179 180 181 0
-176 3183 0
-177 3183 0
-178 3183 0
-179 3183 0
-180 3183 0
-181 3183 0
-3184 183 184 185 186 187 188 0
-183 3184 0
-184 3184 0
-185 3184 0
-186 3184 0
-187 3184 0
-188 3184 0
-3185 190 191 192 193 194 195 0
-190 3185 0
-191 3185 0
-192 3185 0
-193 3185 0
-194 3185 0
-195 3185 0
-3179 3186 0
-3187 0
-3188 0
-3189 0
-3190 0
-3191 0
-3180 3192 0
-3186 3192 0
-3180 -3186 3193 0
-3187 3193 0
-3180 -3187 3194 0
-3188 3194 0
-3180 -3188 3195 0
-3189 3195 0
-3180 -3189 3196 0
-3190 3196 0
-3180 -3190 3197 0
-3191 3197 0
-3180 -3191 0
-3181 3198 0
-3192 3198 0
-3181 -3192 3199 0
-3193 3199 0
-3181 -3193 3200 0
-3194 3200 0
-3181 -3194 3201 0
-3195 3201 0
-3181 -3195 3202 0
-3196 3202 0
-3181 -3196 3203 0
-3197 3203 0
-3181 -3197 0
-3182 3204 0
-3198 3204 0
-3182 -3198 3205 0
-3199 3205 0
-3182 -3199 3206 0
-3200 3206 0
-3182 -3200 3207 0
-3201 3207 0
-3182 -3201 3208 0
-3202 3208 0
-3182 -3202 3209 0
-3203 3209 0
-3182 -3203 0
-3183 3210 0
-3204 3210 0
-3183 -3204 3211 0
-3205 3211 0
-3183 -3205 3212 0
-3206 3212 0
-3183 -3206 3213 0
-3207 3213 0
-3183 -3207 3214 0
-3208 3214 0
-3183 -3208 3215 0
-3209 3215 0
-3183 -3209 0
-3184 3216 0
-3210 3216 0
-3184 -3210 3217 0
-3211 3217 0
-3184 -3211 3218 0
-3212 3218 0
-3184 -3212 3219 0
-3213 3219 0
-3184 -3213 3220 0
-3214 3220 0
-3184 -3214 3221 0
-3215 3221 0
-3184 -3215 0
-3185 -3221 0
-3228 148 149 150 151 152 153 154 0
-148 3228 0
-149 3228 0
-150 3228 0
-151 3228 0
-152 3228 0
-153 3228 0
-154 3228 0
-3229 155 156 157 158 159 160 161 0
-155 3229 0
-156 3229 0
-157 3229 0
-158 3229 0
-159 3229 0
-160 3229 0
-161 3229 0
-3230 162 163 164 165 166 167 168 0
-162 3230 0
-163 3230 0
-164 3230 0
-165 3230 0
-166 3230 0
-167 3230 0
-168 3230 0
-3231 169 170 171 172 173 174 175 0
-169 3231 0
-170 3231 0
-171 3231 0
-172 3231 0
-173 3231 0
-174 3231 0
-175 3231 0
-3232 176 177 178 179 180 181 182 0
-176 3232 0
-177 3232 0
-178 3232 0
-179 3232 0
-180 3232 0
-181 3232 0
-182 3232 0
-3233 183 184 185 186 187 188 189 0
-183 3233 0
-184 3233 0
-185 3233 0
-186 3233 0
-187 3233 0
-188 3233 0
-189 3233 0
-3234 190 191 192 193 194 195 196 0
-190 3234 0
-191 3234 0
-192 3234 0
-193 3234 0
-194 3234 0
-195 3234 0
-196 3234 0
-3235 149 0
-149 3235 0
-3236 156 0
-156 3236 0
-3237 163 0
-163 3237 0
-3238 170 0
-170 3238 0
-3239 177 0
-177 3239 0
-3240 184 0
-184 3240 0
-3241 191 0
-191 3241 0
-3235 3242 0
-3236 3243 0
-3242 3243 0
-3236 -3242 0
-3237 3244 0
-3243 3244 0
-3237 -3243 0
-3238 3245 0
-3244 3245 0
-3238 -3244 0
-3239 3246 0
-3245 3246 0
-3239 -3245 0
-3240 3247 0
-3246 3247 0
-3240 -3246 0
-3241 -3247 0
-3249 149 150 0
-149 3249 0
-150 3249 0
-3250 156 157 0
-156 3250 0
-157 3250 0
-3251 163 164 0
-163 3251 0
-164 3251 0
-3252 170 171 0
-170 3252 0
-171 3252 0
-3253 177 178 0
-177 3253 0
-178 3253 0
-3254 184 185 0
-184 3254 0
-185 3254 0
-3255 191 192 0
-191 3255 0
-192 3255 0
-3249 3256 0
-3257 0
-3250 3258 0
-3256 3258 0
-3250 -3256 3259 0
-3257 3259 0
-3250 -3257 0
-3251 3260 0
-3258 3260 0
-3251 -3258 3261 0
-3259 3261 0
-3251 -3259 0
-3252 3262 0
-3260 3262 0
-3252 -3260 3263 0
-3261 3263 0
-3252 -3261 0
-3253 3264 0
-3262 3264 0
-3253 -3262 3265 0
-3263 3265 0
-3253 -3263 0
-3254 3266 0
-3264 3266 0
-3254 -3264 3267 0
-3265 3267 0
-3254 -3265 0
-3255 -3267 0
-3270 149 150 151 0
-149 3270 0
-150 3270 0
-151 3270 0
-3271 156 157 158 0
-156 3271 0
-157 3271 0
-158 3271 0
-3272 163 164 165 0
-163 3272 0
-164 3272 0
-165 3272 0
-3273 170 171 172 0
-170 3273 0
-171 3273 0
-172 3273 0
-3274 177 178 179 0
-177 3274 0
-178 3274 0
-179 3274 0
-3275 184 185 186 0
-184 3275 0
-185 3275 0
-186 3275 0
-3276 191 192 193 0
-191 3276 0
-192 3276 0
-193 3276 0
-3270 3277 0
-3278 0
-3279 0
-3271 3280 0
-3277 3280 0
-3271 -3277 3281 0
-3278 3281 0
-3271 -3278 3282 0
-3279 3282 0
-3271 -3279 0
-3272 3283 0
-3280 3283 0
-3272 -3280 3284 0
-3281 3284 0
-3272 -3281 3285 0
-3282 3285 0
-3272 -3282 0
-3273 3286 0
-3283 3286 0
-3273 -3283 3287 0
-3284 3287 0
-3273 -3284 3288 0
-3285 3288 0
-3273 -3285 0
-3274 3289 0
-3286 3289 0
-3274 -3286 3290 0
-3287 3290 0
-3274 -3287 3291 0
-3288 3291 0
-3274 -3288 0
-3275 3292 0
-3289 3292 0
-3275 -3289 3293 0
-3290 3293 0
-3275 -3290 3294 0
-3291 3294 0
-3275 -3291 0
-3276 -3294 0
-3298 149 150 151 152 0
-149 3298 0
-150 3298 0
-151 3298 0
-152 3298 0
-3299 156 157 158 159 0
-156 3299 0
-157 3299 0
-158 3299 0
-159 3299 0
-3300 163 164 165 166 0
-163 3300 0
-164 3300 0
-165 3300 0
-166 3300 0
-3301 170 171 172 173 0
-170 3301 0
-171 3301 0
-172 3301 0
-173 3301 0
-3302 177 178 179 180 0
-177 3302 0
-178 3302 0
-179 3302 0
-180 3302 0
-3303 184 185 186 187 0
-184 3303 0
-185 3303 0
-186 3303 0
-187 3303 0
-3304 191 192 193 194 0
-191 3304 0
-192 3304 0
-193 3304 0
-194 3304 0
-3298 3305 0
-3306 0
-3307 0
-3308 0
-3299 3309 0
-3305 3309 0
-3299 -3305 3310 0
-3306 3310 0
-3299 -3306 3311 0
-3307 3311 0
-3299 -3307 3312 0
-3308 3312 0
-3299 -3308 0
-3300 3313 0
-3309 3313 0
-3300 -3309 3314 0
-3310 3314 0
-3300 -3310 3315 0
-3311 3315 0
-3300 -3311 3316 0
-3312 3316 0
-3300 -3312 0
-3301 3317 0
-3313 3317 0
-3301 -3313 3318 0
-3314 3318 0
-3301 -3314 3319 0
-3315 3319 0
-3301 -3315 3320 0
-3316 3320 0
-3301 -3316 0
-3302 3321 0
-3317 3321 0
-3302 -3317 3322 0
-3318 3322 0
-3302 -3318 3323 0
-3319 3323 0
-3302 -3319 3324 0
-3320 3324 0
-3302 -3320 0
-3303 3325 0
-3321 3325 0
-3303 -3321 3326 0
-3322 3326 0
-3303 -3322 3327 0
-3323 3327 0
-3303 -3323 3328 0
-3324 3328 0
-3303 -3324 0
-3304 -3328 0
-3333 149 150 151 152 153 0
-149 3333 0
-150 3333 0
-151 3333 0
-152 3333 0
-153 3333 0
-3334 156 157 158 159 160 0
-156 3334 0
-157 3334 0
-158 3334 0
-159 3334 0
-160 3334 0
-3335 163 164 165 166 167 0
-163 3335 0
-164 3335 0
-165 3335 0
-166 3335 0
-167 3335 0
-3336 170 171 172 173 174 0
-170 3336 0
-171 3336 0
-172 3336 0
-173 3336 0
-174 3336 0
-3337 177 178 179 180 181 0
-177 3337 0
-178 3337 0
-179 3337 0
-180 3337 0
-181 3337 0
-3338 184 185 186 187 188 0
-184 3338 0
-185 3338 0
-186 3338 0
-187 3338 0
-188 3338 0
-3339 191 192 193 194 195 0
-191 3339 0
-192 3339 0
-193 3339 0
-194 3339 0
-195 3339 0
-3333 3340 0
-3341 0
-3342 0
-3343 0
-3344 0
-3334 3345 0
-3340 3345 0
-3334 -3340 3346 0
-3341 3346 0
-3334 -3341 3347 0
-3342 3347 0
-3334 -3342 3348 0
-3343 3348 0
-3334 -3343 3349 0
-3344 3349 0
-3334 -3344 0
-3335 3350 0
-3345 3350 0
-3335 -3345 3351 0
-3346 3351 0
-3335 -3346 3352 0
-3347 3352 0
-3335 -3347 3353 0
-3348 3353 0
-3335 -3348 3354 0
-3349 3354 0
-3335 -3349 0
-3336 3355 0
-3350 3355 0
-3336 -3350 3356 0
-3351 3356 0
-3336 -3351 3357 0
-3352 3357 0
-3336 -3352 3358 0
-3353 3358 0
-3336 -3353 3359 0
-3354 3359 0
-3336 -3354 0
-3337 3360 0
-3355 3360 0
-3337 -3355 3361 0
-3356 3361 0
-3337 -3356 3362 0
-3357 3362 0
-3337 -3357 3363 0
-3358 3363 0
-3337 -3358 3364 0
-3359 3364 0
-3337 -3359 0
-3338 3365 0
-3360 3365 0
-3338 -3360 3366 0
-3361 3366 0
-3338 -3361 3367 0
-3362 3367 0
-3338 -3362 3368 0
-3363 3368 0
-3338 -3363 3369 0
-3364 3369 0
-3338 -3364 0
-3339 -3369 0
-3375 149 150 151 152 153 154 0
-149 3375 0
-150 3375 0
-151 3375 0
-152 3375 0
-153 3375 0
-154 3375 0
-3376 156 157 158 159 160 161 0
-156 3376 0
-157 3376 0
-158 3376 0
-159 3376 0
-160 3376 0
-161 3376 0
-3377 163 164 165 166 167 168 0
-163 3377 0
-164 3377 0
-165 3377 0
-166 3377 0
-167 3377 0
-168 3377 0
-3378 170 171 172 173 174 175 0
-170 3378 0
-171 3378 0
-172 3378 0
-173 3378 0
-174 3378 0
-175 3378 0
-3379 177 178 179 180 181 182 0
-177 3379 0
-178 3379 0
-179 3379 0
-180 3379 0
-181 3379 0
-182 3379 0
-3380 184 185 186 187 188 189 0
-184 3380 0
-185 3380 0
-186 3380 0
-187 3380 0
-188 3380 0
-189 3380 0
-3381 191 192 193 194 195 196 0
-191 3381 0
-192 3381 0
-193 3381 0
-194 3381 0
-195 3381 0
-196 3381 0
-3375 3382 0
-3383 0
-3384 0
-3385 0
-3386 0
-3387 0
-3376 3388 0
-3382 3388 0
-3376 -3382 3389 0
-3383 3389 0
-3376 -3383 3390 0
-3384 3390 0
-3376 -3384 3391 0
-3385 3391 0
-3376 -3385 3392 0
-3386 3392 0
-3376 -3386 3393 0
-3387 3393 0
-3376 -3387 0
-3377 3394 0
-3388 3394 0
-3377 -3388 3395 0
-3389 3395 0
-3377 -3389 3396 0
-3390 3396 0
-3377 -3390 3397 0
-3391 3397 0
-3377 -3391 3398 0
-3392 3398 0
-3377 -3392 3399 0
-3393 3399 0
-3377 -3393 0
-3378 3400 0
-3394 3400 0
-3378 -3394 3401 0
-3395 3401 0
-3378 -3395 3402 0
-3396 3402 0
-3378 -3396 3403 0
-3397 3403 0
-3378 -3397 3404 0
-3398 3404 0
-3378 -3398 3405 0
-3399 3405 0
-3378 -3399 0
-3379 3406 0
-3400 3406 0
-3379 -3400 3407 0
-3401 3407 0
-3379 -3401 3408 0
-3402 3408 0
-3379 -3402 3409 0
-3403 3409 0
-3379 -3403 3410 0
-3404 3410 0
-3379 -3404 3411 0
-3405 3411 0
-3379 -3405 0
-3380 3412 0
-3406 3412 0
-3380 -3406 3413 0
-3407 3413 0
-3380 -3407 3414 0
-3408 3414 0
-3380 -3408 3415 0
-3409 3415 0
-3380 -3409 3416 0
-3410 3416 0
-3380 -3410 3417 0
-3411 3417 0
-3380 -3411 0
-3381 -3417 0
-3424 150 0
-150 3424 0
-3425 157 0
-157 3425 0
-3426 164 0
-164 3426 0
-3427 171 0
-171 3427 0
-3428 178 0
-178 3428 0
-3429 185 0
-185 3429 0
-3430 192 0
-192 3430 0
-3424 3431 0
-3425 3432 0
-3431 3432 0
-3425 -3431 0
-3426 3433 0
-3432 3433 0
-3426 -3432 0
-3427 3434 0
-3433 3434 0
-3427 -3433 0
-3428 3435 0
-3434 3435 0
-3428 -3434 0
-3429 3436 0
-3435 3436 0
-3429 -3435 0
-3430 -3436 0
-3438 150 151 0
-150 3438 0
-151 3438 0
-3439 157 158 0
-157 3439 0
-158 3439 0
-3440 164 165 0
-164 3440 0
-165 3440 0
-3441 171 172 0
-171 3441 0
-172 3441 0
-3442 178 179 0
-178 3442 0
-179 3442 0
-3443 185 186 0
-185 3443 0
-186 3443 0
-3444 192 193 0
-192 3444 0
-193 3444 0
-3438 3445 0
-3446 0
-3439 3447 0
-3445 3447 0
-3439 -3445 3448 0
-3446 3448 0
-3439 -3446 0
-3440 3449 0
-3447 3449 0
-3440 -3447 3450 0
-3448 3450 0
-3440 -3448 0
-3441 3451 0
-3449 3451 0
-3441 -3449 3452 0
-3450 3452 0
-3441 -3450 0
-3442 3453 0
-3451 3453 0
-3442 -3451 3454 0
-3452 3454 0
-3442 -3452 0
-3443 3455 0
-3453 3455 0
-3443 -3453 3456 0
-3454 3456 0
-3443 -3454 0
-3444 -3456 0
-3459 150 151 152 0
-150 3459 0
-151 3459 0
-152 3459 0
-3460 157 158 159 0
-157 3460 0
-158 3460 0
-159 3460 0
-3461 164 165 166 0
-164 3461 0
-165 3461 0
-166 3461 0
-3462 171 172 173 0
-171 3462 0
-172 3462 0
-173 3462 0
-3463 178 179 180 0
-178 3463 0
-179 3463 0
-180 3463 0
-3464 185 186 187 0
-185 3464 0
-186 3464 0
-187 3464 0
-3465 192 193 194 0
-192 3465 0
-193 3465 0
-194 3465 0
-3459 3466 0
-3467 0
-3468 0
-3460 3469 0
-3466 3469 0
-3460 -3466 3470 0
-3467 3470 0
-3460 -3467 3471 0
-3468 3471 0
-3460 -3468 0
-3461 3472 0
-3469 3472 0
-3461 -3469 3473 0
-3470 3473 0
-3461 -3470 3474 0
-3471 3474 0
-3461 -3471 0
-3462 3475 0
-3472 3475 0
-3462 -3472 3476 0
-3473 3476 0
-3462 -3473 3477 0
-3474 3477 0
-3462 -3474 0
-3463 3478 0
-3475 3478 0
-3463 -3475 3479 0
-3476 3479 0
-3463 -3476 3480 0
-3477 3480 0
-3463 -3477 0
-3464 3481 0
-3478 3481 0
-3464 -3478 3482 0
-3479 3482 0
-3464 -3479 3483 0
-3480 3483 0
-3464 -3480 0
-3465 -3483 0
-3487 150 151 152 153 0
-150 3487 0
-151 3487 0
-152 3487 0
-153 3487 0
-3488 157 158 159 160 0
-157 3488 0
-158 3488 0
-159 3488 0
-160 3488 0
-3489 164 165 166 167 0
-164 3489 0
-165 3489 0
-166 3489 0
-167 3489 0
-3490 171 172 173 174 0
-171 3490 0
-172 3490 0
-173 3490 0
-174 3490 0
-3491 178 179 180 181 0
-178 3491 0
-179 3491 0
-180 3491 0
-181 3491 0
-3492 185 186 187 188 0
-185 3492 0
-186 3492 0
-187 3492 0
-188 3492 0
-3493 192 193 194 195 0
-192 3493 0
-193 3493 0
-194 3493 0
-195 3493 0
-3487 3494 0
-3495 0
-3496 0
-3497 0
-3488 3498 0
-3494 3498 0
-3488 -3494 3499 0
-3495 3499 0
-3488 -3495 3500 0
-3496 3500 0
-3488 -3496 3501 0
-3497 3501 0
-3488 -3497 0
-3489 3502 0
-3498 3502 0
-3489 -3498 3503 0
-3499 3503 0
-3489 -3499 3504 0
-3500 3504 0
-3489 -3500 3505 0
-3501 3505 0
-3489 -3501 0
-3490 3506 0
-3502 3506 0
-3490 -3502 3507 0
-3503 3507 0
-3490 -3503 3508 0
-3504 3508 0
-3490 -3504 3509 0
-3505 3509 0
-3490 -3505 0
-3491 3510 0
-3506 3510 0
-3491 -3506 3511 0
-3507 3511 0
-3491 -3507 3512 0
-3508 3512 0
-3491 -3508 3513 0
-3509 3513 0
-3491 -3509 0
-3492 3514 0
-3510 3514 0
-3492 -3510 3515 0
-3511 3515 0
-3492 -3511 3516 0
-3512 3516 0
-3492 -3512 3517 0
-3513 3517 0
-3492 -3513 0
-3493 -3517 0
-3522 150 151 152 153 154 0
-150 3522 0
-151 3522 0
-152 3522 0
-153 3522 0
-154 3522 0
-3523 157 158 159 160 161 0
-157 3523 0
-158 3523 0
-159 3523 0
-160 3523 0
-161 3523 0
-3524 164 165 166 167 168 0
-164 3524 0
-165 3524 0
-166 3524 0
-167 3524 0
-168 3524 0
-3525 171 172 173 174 175 0
-171 3525 0
-172 3525 0
-173 3525 0
-174 3525 0
-175 3525 0
-3526 178 179 180 181 182 0
-178 3526 0
-179 3526 0
-180 3526 0
-181 3526 0
-182 3526 0
-3527 185 186 187 188 189 0
-185 3527 0
-186 3527 0
-187 3527 0
-188 3527 0
-189 3527 0
-3528 192 193 194 195 196 0
-192 3528 0
-193 3528 0
-194 3528 0
-195 3528 0
-196 3528 0
-3522 3529 0
-3530 0
-3531 0
-3532 0
-3533 0
-3523 3534 0
-3529 3534 0
-3523 -3529 3535 0
-3530 3535 0
-3523 -3530 3536 0
-3531 3536 0
-3523 -3531 3537 0
-3532 3537 0
-3523 -3532 3538 0
-3533 3538 0
-3523 -3533 0
-3524 3539 0
-3534 3539 0
-3524 -3534 3540 0
-3535 3540 0
-3524 -3535 3541 0
-3536 3541 0
-3524 -3536 3542 0
-3537 3542 0
-3524 -3537 3543 0
-3538 3543 0
-3524 -3538 0
-3525 3544 0
-3539 3544 0
-3525 -3539 3545 0
-3540 3545 0
-3525 -3540 3546 0
-3541 3546 0
-3525 -3541 3547 0
-3542 3547 0
-3525 -3542 3548 0
-3543 3548 0
-3525 -3543 0
-3526 3549 0
-3544 3549 0
-3526 -3544 3550 0
-3545 3550 0
-3526 -3545 3551 0
-3546 3551 0
-3526 -3546 3552 0
-3547 3552 0
-3526 -3547 3553 0
-3548 3553 0
-3526 -3548 0
-3527 3554 0
-3549 3554 0
-3527 -3549 3555 0
-3550 3555 0
-3527 -3550 3556 0
-3551 3556 0
-3527 -3551 3557 0
-3552 3557 0
-3527 -3552 3558 0
-3553 3558 0
-3527 -3553 0
-3528 -3558 0
-3564 151 0
-151 3564 0
-3565 158 0
-158 3565 0
-3566 165 0
-165 3566 0
-3567 172 0
-172 3567 0
-3568 179 0
-179 3568 0
-3569 186 0
-186 3569 0
-3570 193 0
-193 3570 0
-3564 3571 0
-3565 3572 0
-3571 3572 0
-3565 -3571 0
-3566 3573 0
-3572 3573 0
-3566 -3572 0
-3567 3574 0
-3573 3574 0
-3567 -3573 0
-3568 3575 0
-3574 3575 0
-3568 -3574 0
-3569 3576 0
-3575 3576 0
-3569 -3575 0
-3570 -3576 0
-3578 151 152 0
-151 3578 0
-152 3578 0
-3579 158 159 0
-158 3579 0
-159 3579 0
-3580 165 166 0
-165 3580 0
-166 3580 0
-3581 172 173 0
-172 3581 0
-173 3581 0
-3582 179 180 0
-179 3582 0
-180 3582 0
-3583 186 187 0
-186 3583 0
-187 3583 0
-3584 193 194 0
-193 3584 0
-194 3584 0
-3578 3585 0
-3586 0
-3579 3587 0
-3585 3587 0
-3579 -3585 3588 0
-3586 3588 0
-3579 -3586 0
-3580 3589 0
-3587 3589 0
-3580 -3587 3590 0
-3588 3590 0
-3580 -3588 0
-3581 3591 0
-3589 3591 0
-3581 -3589 3592 0
-3590 3592 0
-3581 -3590 0
-3582 3593 0
-3591 3593 0
-3582 -3591 3594 0
-3592 3594 0
-3582 -3592 0
-3583 3595 0
-3593 3595 0
-3583 -3593 3596 0
-3594 3596 0
-3583 -3594 0
-3584 -3596 0
-3599 151 152 153 0
-151 3599 0
-152 3599 0
-153 3599 0
-3600 158 159 160 0
-158 3600 0
-159 3600 0
-160 3600 0
-3601 165 166 167 0
-165 3601 0
-166 3601 0
-167 3601 0
-3602 172 173 174 0
-172 3602 0
-173 3602 0
-174 3602 0
-3603 179 180 181 0
-179 3603 0
-180 3603 0
-181 3603 0
-3604 186 187 188 0
-186 3604 0
-187 3604 0
-188 3604 0
-3605 193 194 195 0
-193 3605 0
-194 3605 0
-195 3605 0
-3599 3606 0
-3607 0
-3608 0
-3600 3609 0
-3606 3609 0
-3600 -3606 3610 0
-3607 3610 0
-3600 -3607 3611 0
-3608 3611 0
-3600 -3608 0
-3601 3612 0
-3609 3612 0
-3601 -3609 3613 0
-3610 3613 0
-3601 -3610 3614 0
-3611 3614 0
-3601 -3611 0
-3602 3615 0
-3612 3615 0
-3602 -3612 3616 0
-3613 3616 0
-3602 -3613 3617 0
-3614 3617 0
-3602 -3614 0
-3603 3618 0
-3615 3618 0
-3603 -3615 3619 0
-3616 3619 0
-3603 -3616 3620 0
-3617 3620 0
-3603 -3617 0
-3604 3621 0
-3618 3621 0
-3604 -3618 3622 0
-3619 3622 0
-3604 -3619 3623 0
-3620 3623 0
-3604 -3620 0
-3605 -3623 0
-3627 151 152 153 154 0
-151 3627 0
-152 3627 0
-153 3627 0
-154 3627 0
-3628 158 159 160 161 0
-158 3628 0
-159 3628 0
-160 3628 0
-161 3628 0
-3629 165 166 167 168 0
-165 3629 0
-166 3629 0
-167 3629 0
-168 3629 0
-3630 172 173 174 175 0
-172 3630 0
-173 3630 0
-174 3630 0
-175 3630 0
-3631 179 180 181 182 0
-179 3631 0
-180 3631 0
-181 3631 0
-182 3631 0
-3632 186 187 188 189 0
-186 3632 0
-187 3632 0
-188 3632 0
-189 3632 0
-3633 193 194 195 196 0
-193 3633 0
-194 3633 0
-195 3633 0
-196 3633 0
-3627 3634 0
-3635 0
-3636 0
-3637 0
-3628 3638 0
-3634 3638 0
-3628 -3634 3639 0
-3635 3639 0
-3628 -3635 3640 0
-3636 3640 0
-3628 -3636 3641 0
-3637 3641 0
-3628 -3637 0
-3629 3642 0
-3638 3642 0
-3629 -3638 3643 0
-3639 3643 0
-3629 -3639 3644 0
-3640 3644 0
-3629 -3640 3645 0
-3641 3645 0
-3629 -3641 0
-3630 3646 0
-3642 3646 0
-3630 -3642 3647 0
-3643 3647 0
-3630 -3643 3648 0
-3644 3648 0
-3630 -3644 3649 0
-3645 3649 0
-3630 -3645 0
-3631 3650 0
-3646 3650 0
-3631 -3646 3651 0
-3647 3651 0
-3631 -3647 3652 0
-3648 3652 0
-3631 -3648 3653 0
-3649 3653 0
-3631 -3649 0
-3632 3654 0
-3650 3654 0
-3632 -3650 3655 0
-3651 3655 0
-3632 -3651 3656 0
-3652 3656 0
-3632 -3652 3657 0
-3653 3657 0
-3632 -3653 0
-3633 -3657 0
-3662 152 0
-152 3662 0
-3663 159 0
-159 3663 0
-3664 166 0
-166 3664 0
-3665 173 0
-173 3665 0
-3666 180 0
-180 3666 0
-3667 187 0
-187 3667 0
-3668 194 0
-194 3668 0
-3662 3669 0
-3663 3670 0
-3669 3670 0
-3663 -3669 0
-3664 3671 0
-3670 3671 0
-3664 -3670 0
-3665 3672 0
-3671 3672 0
-3665 -3671 0
-3666 3673 0
-3672 3673 0
-3666 -3672 0
-3667 3674 0
-3673 3674 0
-3667 -3673 0
-3668 -3674 0
-3676 152 153 0
-152 3676 0
-153 3676 0
-3677 159 160 0
-159 3677 0
-160 3677 0
-3678 166 167 0
-166 3678 0
-167 3678 0
-3679 173 174 0
-173 3679 0
-174 3679 0
-3680 180 181 0
-180 3680 0
-181 3680 0
-3681 187 188 0
-187 3681 0
-188 3681 0
-3682 194 195 0
-194 3682 0
-195 3682 0
-3676 3683 0
-3684 0
-3677 3685 0
-3683 3685 0
-3677 -3683 3686 0
-3684 3686 0
-3677 -3684 0
-3678 3687 0
-3685 3687 0
-3678 -3685 3688 0
-3686 3688 0
-3678 -3686 0
-3679 3689 0
-3687 3689 0
-3679 -3687 3690 0
-3688 3690 0
-3679 -3688 0
-3680 3691 0
-3689 3691 0
-3680 -3689 3692 0
-3690 3692 0
-3680 -3690 0
-3681 3693 0
-3691 3693 0
-3681 -3691 3694 0
-3692 3694 0
-3681 -3692 0
-3682 -3694 0
-3697 152 153 154 0
-152 3697 0
-153 3697 0
-154 3697 0
-3698 159 160 161 0
-159 3698 0
-160 3698 0
-161 3698 0
-3699 166 167 168 0
-166 3699 0
-167 3699 0
-168 3699 0
-3700 173 174 175 0
-173 3700 0
-174 3700 0
-175 3700 0
-3701 180 181 182 0
-180 3701 0
-181 3701 0
-182 3701 0
-3702 187 188 189 0
-187 3702 0
-188 3702 0
-189 3702 0
-3703 194 195 196 0
-194 3703 0
-195 3703 0
-196 3703 0
-3697 3704 0
-3705 0
-3706 0
-3698 3707 0
-3704 3707 0
-3698 -3704 3708 0
-3705 3708 0
-3698 -3705 3709 0
-3706 3709 0
-3698 -3706 0
-3699 3710 0
-3707 3710 0
-3699 -3707 3711 0
-3708 3711 0
-3699 -3708 3712 0
-3709 3712 0
-3699 -3709 0
-3700 3713 0
-3710 3713 0
-3700 -3710 3714 0
-3711 3714 0
-3700 -3711 3715 0
-3712 3715 0
-3700 -3712 0
-3701 3716 0
-3713 3716 0
-3701 -3713 3717 0
-3714 3717 0
-3701 -3714 3718 0
-3715 3718 0
-3701 -3715 0
-3702 3719 0
-3716 3719 0
-3702 -3716 3720 0
-3717 3720 0
-3702 -3717 3721 0
-3718 3721 0
-3702 -3718 0
-3703 -3721 0
-3725 153 0
-153 3725 0
-3726 160 0
-160 3726 0
-3727 167 0
-167 3727 0
-3728 174 0
-174 3728 0
-3729 181 0
-181 3729 0
-3730 188 0
-188 3730 0
-3731 195 0
-195 3731 0
-3725 3732 0
-3726 3733 0
-3732 3733 0
-3726 -3732 0
-3727 3734 0
-3733 3734 0
-3727 -3733 0
-3728 3735 0
-3734 3735 0
-3728 -3734 0
-3729 3736 0
-3735 3736 0
-3729 -3735 0
-3730 3737 0
-3736 3737 0
-3730 -3736 0
-3731 -3737 0
-3739 153 154 0
-153 3739 0
-154 3739 0
-3740 160 161 0
-160 3740 0
-161 3740 0
-3741 167 168 0
-167 3741 0
-168 3741 0
-3742 174 175 0
-174 3742 0
-175 3742 0
-3743 181 182 0
-181 3743 0
-182 3743 0
-3744 188 189 0
-188 3744 0
-189 3744 0
-3745 195 196 0
-195 3745 0
-196 3745 0
-3739 3746 0
-3747 0
-3740 3748 0
-3746 3748 0
-3740 -3746 3749 0
-3747 3749 0
-3740 -3747 0
-3741 3750 0
-3748 3750 0
-3741 -3748 3751 0
-3749 3751 0
-3741 -3749 0
-3742 3752 0
-3750 3752 0
-3742 -3750 3753 0
-3751 3753 0
-3742 -3751 0
-3743 3754 0
-3752 3754 0
-3743 -3752 3755 0
-3753 3755 0
-3743 -3753 0
-3744 3756 0
-3754 3756 0
-3744 -3754 3757 0
-3755 3757 0
-3744 -3755 0
-3745 -3757 0
-3760 154 0
-154 3760 0
-3761 161 0
-161 3761 0
-3762 168 0
-168 3762 0
-3763 175 0
-175 3763 0
-3764 182 0
-182 3764 0
-3765 189 0
-189 3765 0
-3766 196 0
-196 3766 0
-3760 3767 0
-3761 3768 0
-3767 3768 0
-3761 -3767 0
-3762 3769 0
-3768 3769 0
-3762 -3768 0
-3763 3770 0
-3769 3770 0
-3763 -3769 0
-3764 3771 0
-3770 3771 0
-3764 -3770 0
-3765 3772 0
-3771 3772 0
-3765 -3771 0
-3766 -3772 0
-148 3774 0
-155 3775 0
-3774 3775 0
-155 -3774 0
-162 3776 0
-3775 3776 0
-162 -3775 0
-169 3777 0
-3776 3777 0
-169 -3776 0
-176 3778 0
-3777 3778 0
-176 -3777 0
-183 3779 0
-3778 3779 0
-183 -3778 0
-190 -3779 0
148 155 162 169 176 183 190 0
-149 3781 0
-156 3782 0
-3781 3782 0
-156 -3781 0
-163 3783 0
-3782 3783 0
-163 -3782 0
-170 3784 0
-3783 3784 0
-170 -3783 0
-177 3785 0
-3784 3785 0
-177 -3784 0
-184 3786 0
-3785 3786 0
-184 -3785 0
-191 -3786 0
149 156 163 170 177 184 191 0
-150 3788 0
-157 3789 0
-3788 3789 0
-157 -3788 0
-164 3790 0
-3789 3790 0
-164 -3789 0
-171 3791 0
-3790 3791 0
-171 -3790 0
-178 3792 0
-3791 3792 0
-178 -3791 0
-185 3793 0
-3792 3793 0
-185 -3792 0
-192 -3793 0
150 157 164 171 178 185 192 0
-151 3795 0
-158 3796 0
-3795 3796 0
-158 -3795 0
-165 3797 0
-3796 3797 0
-165 -3796 0
-172 3798 0
-3797 3798 0
-172 -3797 0
-179 3799 0
-3798 3799 0
-179 -3798 0
-186 3800 0
-3799 3800 0
-186 -3799 0
-193 -3800 0
151 158 165 172 179 186 193 0
-152 3802 0
-159 3803 0
-3802 3803 0
-159 -3802 0
-166 3804 0
-3803 3804 0
-166 -3803 0
-173 3805 0
-3804 3805 0
-173 -3804 0
-180 3806 0
-3805 3806 0
-180 -3805 0
-187 3807 0
-3806 3807 0
-187 -3806 0
-194 -3807 0
152 159 166 173 180 187 194 0
-153 3809 0
-160 3810 0
-3809 3810 0
-160 -3809 0
-167 3811 0
-3810 3811 0
-167 -3810 0
-174 3812 0
-3811 3812 0
-174 -3811 0
-181 3813 0
-3812 3813 0
-181 -3812 0
-188 3814 0
-3813 3814 0
-188 -3813 0
-195 -3814 0
153 160 167 174 181 188 195 0
-154 3816 0
-161 3817 0
-3816 3817 0
-161 -3816 0
-168 3818 0
-3817 3818 0
-168 -3817 0
-175 3819 0
-3818 3819 0
-175 -3818 0
-182 3820 0
-3819 3820 0
-182 -3819 0
-189 3821 0
-3820 3821 0
-189 -3820 0
-196 -3821 0
154 161 168 175 182 189 196 0
-3823 197 0
-197 3823 0
-3824 204 0
-204 3824 0
-3825 211 0
-211 3825 0
-3826 218 0
-218 3826 0
-3827 225 0
-225 3827 0
-3828 232 0
-232 3828 0
-3829 239 0
-239 3829 0
-3823 3830 0
-3824 3831 0
-3830 3831 0
-3824 -3830 0
-3825 3832 0
-3831 3832 0
-3825 -3831 0
-3826 3833 0
-3832 3833 0
-3826 -3832 0
-3827 3834 0
-3833 3834 0
-3827 -3833 0
-3828 3835 0
-3834 3835 0
-3828 -3834 0
-3829 -3835 0
-3837 197 198 0
-197 3837 0
-198 3837 0
-3838 204 205 0
-204 3838 0
-205 3838 0
-3839 211 212 0
-211 3839 0
-212 3839 0
-3840 218 219 0
-218 3840 0
-219 3840 0
-3841 225 226 0
-225 3841 0
-226 3841 0
-3842 232 233 0
-232 3842 0
-233 3842 0
-3843 239 240 0
-239 3843 0
-240 3843 0
-3837 3844 0
-3845 0
-3838 3846 0
-3844 3846 0
-3838 -3844 3847 0
-3845 3847 0
-3838 -3845 0
-3839 3848 0
-3846 3848 0
-3839 -3846 3849 0
-3847 3849 0
-3839 -3847 0
-3840 3850 0
-3848 3850 0
-3840 -3848 3851 0
-3849 3851 0
-3840 -3849 0
-3841 3852 0
-3850 3852 0
-3841 -3850 3853 0
-3851 3853 0
-3841 -3851 0
-3842 3854 0
-3852 3854 0
-3842 -3852 3855 0
-3853 3855 0
-3842 -3853 0
-3843 -3855 0
-3858 197 198 199 0
-197 3858 0
-198 3858 0
-199 3858 0
-3859 204 205 206 0
-204 3859 0
-205 3859 0
-206 3859 0
-3860 211 212 213 0
-211 3860 0
-212 3860 0
-213 3860 0
-3861 218 219 220 0
-218 3861 0
-219 3861 0
-220 3861 0
-3862 225 226 227 0
-225 3862 0
-226 3862 0
-227 3862 0
-3863 232 233 234 0
-232 3863 0
-233 3863 0
-234 3863 0
-3864 239 240 241 0
-239 3864 0
-240 3864 0
-241 3864 0
-3858 3865 0
-3866 0
-3867 0
-3859 3868 0
-3865 3868 0
-3859 -3865 3869 0
-3866 3869 0
-3859 -3866 3870 0
-3867 3870 0
-3859 -3867 0
-3860 3871 0
-3868 3871 0
-3860 -3868 3872 0
-3869 3872 0
-3860 -3869 3873 0
-3870 3873 0
-3860 -3870 0
-3861 3874 0
-3871 3874 0
-3861 -3871 3875 0
-3872 3875 0
-3861 -3872 3876 0
-3873 3876 0
-3861 -3873 0
-3862 3877 0
-3874 3877 0
-3862 -3874 3878 0
-3875 3878 0
-3862 -3875 3879 0
-3876 3879 0
-3862 -3876 0
-3863 3880 0
-3877 3880 0
-3863 -3877 3881 0
-3878 3881 0
-3863 -3878 3882 0
-3879 3882 0
-3863 -3879 0
-3864 -3882 0
-3886 197 198 199 200 0
-197 3886 0
-198 3886 0
-199 3886 0
-200 3886 0
-3887 204 205 206 207 0
-204 3887 0
-205 3887 0
-206 3887 0
-207 3887 0
-3888 211 212 213 214 0
-211 3888 0
-212 3888 0
-213 3888 0
-214 3888 0
-3889 218 219 220 221 0
-218 3889 0
-219 3889 0
-220 3889 0
-221 3889 0
-3890 225 226 227 228 0
-225 3890 0
-226 3890 0
-227 3890 0
-228 3890 0
-3891 232 233 234 235 0
-232 3891 0
-233 3891 0
-234 3891 0
-235 3891 0
-3892 239 240 241 242 0
-239 3892 0
-240 3892 0
-241 3892 0
-242 3892 0
-3886 3893 0
-3894 0
-3895 0
-3896 0
-3887 3897 0
-3893 3897 0
-3887 -3893 3898 0
-3894 3898 0
-3887 -3894 3899 0
-3895 3899 0
-3887 -3895 3900 0
-3896 3900 0
-3887 -3896 0
-3888 3901 0
-3897 3901 0
-3888 -3897 3902 0
-3898 3902 0
-3888 -3898 3903 0
-3899 3903 0
-3888 -3899 3904 0
-3900 3904 0
-3888 -3900 0
-3889 3905 0
-3901 3905 0
-3889 -3901 3906 0
-3902 3906 0
-3889 -3902 3907 0
-3903 3907 0
-3889 -3903 3908 0
-3904 3908 0
-3889 -3904 0
-3890 3909 0
-3905 3909 0
-3890 -3905 3910 0
-3906 3910 0
-3890 -3906 3911 0
-3907 3911 0
-3890 -3907 3912 0
-3908 3912 0
-3890 -3908 0
-3891 3913 0
-3909 3913 0
-3891 -3909 3914 0
-3910 3914 0
-3891 -3910 3915 0
-3911 3915 0
-3891 -3911 3916 0
-3912 3916 0
-3891 -3912 0
-3892 -3916 0
-3921 197 198 199 200 201 0
-197 3921 0
-198 3921 0
-199 3921 0
-200 3921 0
-201 3921 0
-3922 204 205 206 207 208 0
-204 3922 0
-205 3922 0
-206 3922 0
-207 3922 0
-208 3922 0
-3923 211 212 213 214 215 0
-211 3923 0
-212 3923 0
-213 3923 0
-214 3923 0
-215 3923 0
-3924 218 219 220 221 222 0
-218 3924 0
-219 3924 0
-220 3924 0
-221 3924 0
-222 3924 0
-3925 225 226 227 228 229 0
-225 3925 0
-226 3925 0
-227 3925 0
-228 3925 0
-229 3925 0
-3926 232 233 234 235 236 0
-232 3926 0
-233 3926 0
-234 3926 0
-235 3926 0
-236 3926 0
-3927 239 240 241 242 243 0
-239 3927 0
-240 3927 0
-241 3927 0
-242 3927 0
-243 3927 0
-3921 3928 0
-3929 0
-3930 0
-3931 0
-3932 0
-3922 3933 0
-3928 3933 0
-3922 -3928 3934 0
-3929 3934 0
-3922 -3929 3935 0
-3930 3935 0
-3922 -3930 3936 0
-3931 3936 0
-3922 -3931 3937 0
-3932 3937 0
-3922 -3932 0
-3923 3938 0
-3933 3938 0
-3923 -3933 3939 0
-3934 3939 0
-3923 -3934 3940 0
-3935 3940 0
-3923 -3935 3941 0
-3936 3941 0
-3923 -3936 3942 0
-3937 3942 0
-3923 -3937 0
-3924 3943 0
-3938 3943 0
-3924 -3938 3944 0
-3939 3944 0
-3924 -3939 3945 0
-3940 3945 0
-3924 -3940 3946 0
-3941 3946 0
-3924 -3941 3947 0
-3942 3947 0
-3924 -3942 0
-3925 3948 0
-3943 3948 0
-3925 -3943 3949 0
-3944 3949 0
-3925 -3944 3950 0
-3945 3950 0
-3925 -3945 3951 0
-3946 3951 0
-3925 -3946 3952 0
-3947 3952 0
-3925 -3947 0
-3926 3953 0
-3948 3953 0
-3926 -3948 3954 0
-3949 3954 0
-3926 -3949 3955 0
-3950 3955 0
-3926 -3950 3956 0
-3951 3956 0
-3926 -3951 3957 0
-3952 3957 0
-3926 -3952 0
-3927 -3957 0
-3963 197 198 199 200 201 202 0
-197 3963 0
-198 3963 0
-199 3963 0
-200 3963 0
-201 3963 0
-202 3963 0
-3964 204 205 206 207 208 209 0
-204 3964 0
-205 3964 0
-206 3964 0
-207 3964 0
-208 3964 0
-209 3964 0
-3965 211 212 213 214 215 216 0
-211 3965 0
-212 3965 0
-213 3965 0
-214 3965 0
-215 3965 0
-216 3965 0
-3966 218 219 220 221 222 223 0
-218 3966 0
-219 3966 0
-220 3966 0
-221 3966 0
-222 3966 0
-223 3966 0
-3967 225 226 227 228 229 230 0
-225 3967 0
-226 3967 0
-227 3967 0
-228 3967 0
-229 3967 0
-230 3967 0
-3968 232 233 234 235 236 237 0
-232 3968 0
-233 3968 0
-234 3968 0
-235 3968 0
-236 3968 0
-237 3968 0
-3969 239 240 241 242 243 244 0
-239 3969 0
-240 3969 0
-241 3969 0
-242 3969 0
-243 3969 0
-244 3969 0
-3963 3970 0
-3971 0
-3972 0
-3973 0
-3974 0
-3975 0
-3964 3976 0
-3970 3976 0
-3964 -3970 3977 0
-3971 3977 0
-3964 -3971 3978 0
-3972 3978 0
-3964 -3972 3979 0
-3973 3979 0
-3964 -3973 3980 0
-3974 3980 0
-3964 -3974 3981 0
-3975 3981 0
-3964 -3975 0
-3965 3982 0
-3976 3982 0
-3965 -3976 3983 0
-3977 3983 0
-3965 -3977 3984 0
-3978 3984 0
-3965 -3978 3985 0
-3979 3985 0
-3965 -3979 3986 0
-3980 3986 0
-3965 -3980 3987 0
-3981 3987 0
-3965 -3981 0
-3966 3988 0
-3982 3988 0
-3966 -3982 3989 0
-3983 3989 0
-3966 -3983 3990 0
-3984 3990 0
-3966 -3984 3991 0
-3985 3991 0
-3966 -3985 3992 0
-3986 3992 0
-3966 -3986 3993 0
-3987 3993 0
-3966 -3987 0
-3967 3994 0
-3988 3994 0
-3967 -3988 3995 0
-3989 3995 0
-3967 -3989 3996 0
-3990 3996 0
-3967 -3990 3997 0
-3991 3997 0
-3967 -3991 3998 0
-3992 3998 0
-3967 -3992 3999 0
-3993 3999 0
-3967 -3993 0
-3968 4000 0
-3994 4000 0
-3968 -3994 4001 0
-3995 4001 0
-3968 -3995 4002 0
-3996 4002 0
-3968 -3996 4003 0
-3997 4003 0
-3968 -3997 4004 0
-3998 4004 0
-3968 -3998 4005 0
-3999 4005 0
-3968 -3999 0
-3969 -4005 0
-4012 197 198 199 200 201 202 203 0
-197 4012 0
-198 4012 0
-199 4012 0
-200 4012 0
-201 4012 0
-202 4012 0
-203 4012 0
-4013 204 205 206 207 208 209 210 0
-204 4013 0
-205 4013 0
-206 4013 0
-207 4013 0
-208 4013 0
-209 4013 0
-210 4013 0
-4014 211 212 213 214 215 216 217 0
-211 4014 0
-212 4014 0
-213 4014 0
-214 4014 0
-215 4014 0
-216 4014 0
-217 4014 0
-4015 218 219 220 221 222 223 224 0
-218 4015 0
-219 4015 0
-220 4015 0
-221 4015 0
-222 4015 0
-223 4015 0
-224 4015 0
-4016 225 226 227 228 229 230 231 0
-225 4016 0
-226 4016 0
-227 4016 0
-228 4016 0
-229 4016 0
-230 4016 0
-231 4016 0
-4017 232 233 234 235 236 237 238 0
-232 4017 0
-233 4017 0
-234 4017 0
-235 4017 0
-236 4017 0
-237 4017 0
-238 4017 0
-4018 239 240 241 242 243 244 245 0
-239 4018 0
-240 4018 0
-241 4018 0
-242 4018 0
-243 4018 0
-244 4018 0
-245 4018 0
-4019 198 0
-198 4019 0
-4020 205 0
-205 4020 0
-4021 212 0
-212 4021 0
-4022 219 0
-219 4022 0
-4023 226 0
-226 4023 0
-4024 233 0
-233 4024 0
-4025 240 0
-240 4025 0
-4019 4026 0
-4020 4027 0
-4026 4027 0
-4020 -4026 0
-4021 4028 0
-4027 4028 0
-4021 -4027 0
-4022 4029 0
-4028 4029 0
-4022 -4028 0
-4023 4030 0
-4029 4030 0
-4023 -4029 0
-4024 4031 0
-4030 4031 0
-4024 -4030 0
-4025 -4031 0
-4033 198 199 0
-198 4033 0
-199 4033 0
-4034 205 206 0
-205 4034 0
-206 4034 0
-4035 212 213 0
-212 4035 0
-213 4035 0
-4036 219 220 0
-219 4036 0
-220 4036 0
-4037 226 227 0
-226 4037 0
-227 4037 0
-4038 233 234 0
-233 4038 0
-234 4038 0
-4039 240 241 0
-240 4039 0
-241 4039 0
-4033 4040 0
-4041 0
-4034 4042 0
-4040 4042 0
-4034 -4040 4043 0
-4041 4043 0
-4034 -4041 0
-4035 4044 0
-4042 4044 0
-4035 -4042 4045 0
-4043 4045 0
-4035 -4043 0
-4036 4046 0
-4044 4046 0
-4036 -4044 4047 0
-4045 4047 0
-4036 -4045 0
-4037 4048 0
-4046 4048 0
-4037 -4046 4049 0
-4047 4049 0
-4037 -4047 0
-4038 4050 0
-4048 4050 0
-4038 -4048 4051 0
-4049 4051 0
-4038 -4049 0
-4039 -4051 0
-4054 198 199 200 0
-198 4054 0
-199 4054 0
-200 4054 0
-4055 205 206 207 0
-205 4055 0
-206 4055 0
-207 4055 0
-4056 212 213 214 0
-212 4056 0
-213 4056 0
-214 4056 0
-4057 219 220 221 0
-219 4057 0
-220 4057 0
-221 4057 0
-4058 226 227 228 0
-226 4058 0
-227 4058 0
-228 4058 0
-4059 233 234 235 0
-233 4059 0
-234 4059 0
-235 4059 0
-4060 240 241 242 0
-240 4060 0
-241 4060 0
-242 4060 0
-4054 4061 0
-4062 0
-4063 0
-4055 4064 0
-4061 4064 0
-4055 -4061 4065 0
-4062 4065 0
-4055 -4062 4066 0
-4063 4066 0
-4055 -4063 0
-4056 4067 0
-4064 4067 0
-4056 -4064 4068 0
-4065 4068 0
-4056 -4065 4069 0
-4066 4069 0
-4056 -4066 0
-4057 4070 0
-4067 4070 0
-4057 -4067 4071 0
-4068 4071 0
-4057 -4068 4072 0
-4069 4072 0
-4057 -4069 0
-4058 4073 0
-4070 4073 0
-4058 -4070 4074 0
-4071 4074 0
-4058 -4071 4075 0
-4072 4075 0
-4058 -4072 0
-4059 4076 0
-4073 4076 0
-4059 -4073 4077 0
-4074 4077 0
-4059 -4074 4078 0
-4075 4078 0
-4059 -4075 0
-4060 -4078 0
-4082 198 199 200 201 0
-198 4082 0
-199 4082 0
-200 4082 0
-201 4082 0
-4083 205 206 207 208 0
-205 4083 0
-206 4083 0
-207 4083 0
-208 4083 0
-4084 212 213 214 215 0
-212 4084 0
-213 4084 0
-214 4084 0
-215 4084 0
-4085 219 220 221 222 0
-219 4085 0
-220 4085 0
-221 4085 0
-222 4085 0
-4086 226 227 228 229 0
-226 4086 0
-227 4086 0
-228 4086 0
-229 4086 0
-4087 233 234 235 236 0
-233 4087 0
-234 4087 0
-235 4087 0
-236 4087 0
-4088 240 241 242 243 0
-240 4088 0
-241 4088 0
-242 4088 0
-243 4088 0
-4082 4089 0
-4090 0
-4091 0
-4092 0
-4083 4093 0
-4089 4093 0
-4083 -4089 4094 0
-4090 4094 0
-4083 -4090 4095 0
-4091 4095 0
-4083 -4091 4096 0
-4092 4096 0
-4083 -4092 0
-4084 4097 0
-4093 4097 0
-4084 -4093 4098 0
-4094 4098 0
-4084 -4094 4099 0
-4095 4099 0
-4084 -4095 4100 0
-4096 4100 0
-4084 -4096 0
-4085 4101 0
-4097 4101 0
-4085 -4097 4102 0
-4098 4102 0
-4085 -4098 4103 0
-4099 4103 0
-4085 -4099 4104 0
-4100 4104 0
-4085 -4100 0
-4086 4105 0
-4101 4105 0
-4086 -4101 4106 0
-4102 4106 0
-4086 -4102 4107 0
-4103 4107 0
-4086 -4103 4108 0
-4104 4108 0
-4086 -4104 0
-4087 4109 0
-4105 4109 0
-4087 -4105 4110 0
-4106 4110 0
-4087 -4106 4111 0
-4107 4111 0
-4087 -4107 4112 0
-4108 4112 0
-4087 -4108 0
-4088 -4112 0
-4117 198 199 200 201 202 0
-198 4117 0
-199 4117 0
-200 4117 0
-201 4117 0
-202 4117 0
-4118 205 206 207 208 209 0
-205 4118 0
-206 4118 0
-207 4118 0
-208 4118 0
-209 4118 0
-4119 212 213 214 215 216 0
-212 4119 0
-213 4119 0
-214 4119 0
-215 4119 0
-216 4119 0
-4120 219 220 221 222 223 0
-219 4120 0
-220 4120 0
-221 4120 0
-222 4120 0
-223 4120 0
-4121 226 227 228 229 230 0
-226 4121 0
-227 4121 0
-228 4121 0
-229 4121 0
-230 4121 0
-4122 233 234 235 236 237 0
-233 4122 0
-234 4122 0
-235 4122 0
-236 4122 0
-237 4122 0
-4123 240 241 242 243 244 0
-240 4123 0
-241 4123 0
-242 4123 0
-243 4123 0
-244 4123 0
-4117 4124 0
-4125 0
-4126 0
-4127 0
-4128 0
-4118 4129 0
-4124 4129 0
-4118 -4124 4130 0
-4125 4130 0
-4118 -4125 4131 0
-4126 4131 0
-4118 -4126 4132 0
-4127 4132 0
-4118 -4127 4133 0
-4128 4133 0
-4118 -4128 0
-4119 4134 0
-4129 4134 0
-4119 -4129 4135 0
-4130 4135 0
-4119 -4130 4136 0
-4131 4136 0
-4119 -4131 4137 0
-4132 4137 0
-4119 -4132 4138 0
-4133 4138 0
-4119 -4133 0
-4120 4139 0
-4134 4139 0
-4120 -4134 4140 0
-4135 4140 0
-4120 -4135 4141 0
-4136 4141 0
-4120 -4136 4142 0
-4137 4142 0
-4120 -4137 4143 0
-4138 4143 0
-4120 -4138 0
-4121 4144 0
-4139 4144 0
-4121 -4139 4145 0
-4140 4145 0
-4121 -4140 4146 0
-4141 4146 0
-4121 -4141 4147 0
-4142 4147 0
-4121 -4142 4148 0
-4143 4148 0
-4121 -4143 0
-4122 4149 0
-4144 4149 0
-4122 -4144 4150 0
-4145 4150 0
-4122 -4145 4151 0
-4146 4151 0
-4122 -4146 4152 0
-4147 4152 0
-4122 -4147 4153 0
-4148 4153 0
-4122 -4148 0
-4123 -4153 0
-4159 198 199 200 201 202 203 0
-198 4159 0
-199 4159 0
-200 4159 0
-201 4159 0
-202 4159 0
-203 4159 0
-4160 205 206 207 208 209 210 0
-205 4160 0
-206 4160 0
-207 4160 0
-208 4160 0
-209 4160 0
-210 4160 0
-4161 212 213 214 215 216 217 0
-212 4161 0
-213 4161 0
-214 4161 0
-215 4161 0
-216 4161 0
-217 4161 0
-4162 219 220 221 222 223 224 0
-219 4162 0
-220 4162 0
-221 4162 0
-222 4162 0
-223 4162 0
-224 4162 0
-4163 226 227 228 229 230 231 0
-226 4163 0
-227 4163 0
-228 4163 0
-229 4163 0
-230 4163 0
-231 4163 0
-4164 233 234 235 236 237 238 0
-233 4164 0
-234 4164 0
-235 4164 0
-236 4164 0
-237 4164 0
-238 4164 0
-4165 240 241 242 243 244 245 0
-240 4165 0
-241 4165 0
-242 4165 0
-243 4165 0
-244 4165 0
-245 4165 0
-4159 4166 0
-4167 0
-4168 0
-4169 0
-4170 0
-4171 0
-4160 4172 0
-4166 4172 0
-4160 -4166 4173 0
-4167 4173 0
-4160 -4167 4174 0
-4168 4174 0
-4160 -4168 4175 0
-4169 4175 0
-4160 -4169 4176 0
-4170 4176 0
-4160 -4170 4177 0
-4171 4177 0
-4160 -4171 0
-4161 4178 0
-4172 4178 0
-4161 -4172 4179 0
-4173 4179 0
-4161 -4173 4180 0
-4174 4180 0
-4161 -4174 4181 0
-4175 4181 0
-4161 -4175 4182 0
-4176 4182 0
-4161 -4176 4183 0
-4177 4183 0
-4161 -4177 0
-4162 4184 0
-4178 4184 0
-4162 -4178 4185 0
-4179 4185 0
-4162 -4179 4186 0
-4180 4186 0
-4162 -4180 4187 0
-4181 4187 0
-4162 -4181 4188 0
-4182 4188 0
-4162 -4182 4189 0
-4183 4189 0
-4162 -4183 0
-4163 4190 0
-4184 4190 0
-4163 -4184 4191 0
-4185 4191 0
-4163 -4185 4192 0
-4186 4192 0
-4163 -4186 4193 0
-4187 4193 0
-4163 -4187 4194 0
-4188 4194 0
-4163 -4188 4195 0
-4189 4195 0
-4163 -4189 0
-4164 4196 0
-4190 4196 0
-4164 -4190 4197 0
-4191 4197 0
-4164 -4191 4198 0
-4192 4198 0
-4164 -4192 4199 0
-4193 4199 0
-4164 -4193 4200 0
-4194 4200 0
-4164 -4194 4201 0
-4195 4201 0
-4164 -4195 0
-4165 -4201 0
-4208 199 0
-199 4208 0
-4209 206 0
-206 4209 0
-4210 213 0
-213 4210 0
-4211 220 0
-220 4211 0
-4212 227 0
-227 4212 0
-4213 234 0
-234 4213 0
-4214 241 0
-241 4214 0
-4208 4215 0
-4209 4216 0
-4215 4216 0
-4209 -4215 0
-4210 4217 0
-4216 4217 0
-4210 -4216 0
-4211 4218 0
-4217 4218 0
-4211 -4217 0
-4212 4219 0
-4218 4219 0
-4212 -4218 0
-4213 4220 0
-4219 4220 0
-4213 -4219 0
-4214 -4220 0
-4222 199 200 0
-199 4222 0
-200 4222 0
-4223 206 207 0
-206 4223 0
-207 4223 0
-4224 213 214 0
-213 4224 0
-214 4224 0
-4225 220 221 0
-220 4225 0
-221 4225 0
-4226 227 228 0
-227 4226 0
-228 4226 0
-4227 234 235 0
-234 4227 0
-235 4227 0
-4228 241 242 0
-241 4228 0
-242 4228 0
-4222 4229 0
-4230 0
-4223 4231 0
-4229 4231 0
-4223 -4229 4232 0
-4230 4232 0
-4223 -4230 0
-4224 4233 0
-4231 4233 0
-4224 -4231 4234 0
-4232 4234 0
-4224 -4232 0
-4225 4235 0
-4233 4235 0
-4225 -4233 4236 0
-4234 4236 0
-4225 -4234 0
-4226 4237 0
-4235 4237 0
-4226 -4235 4238 0
-4236 4238 0
-4226 -4236 0
-4227 4239 0
-4237 4239 0
-4227 -4237 4240 0
-4238 4240 0
-4227 -4238 0
-4228 -4240 0
-4243 199 200 201 0
-199 4243 0
-200 4243 0
-201 4243 0
-4244 206 207 208 0
-206 4244 0
-207 4244 0
-208 4244 0
-4245 213 214 215 0
-213 4245 0
-214 4245 0
-215 4245 0
-4246 220 221 222 0
-220 4246 0
-221 4246 0
-222 4246 0
-4247 227 228 229 0
-227 4247 0
-228 4247 0
-229 4247 0
-4248 234 235 236 0
-234 4248 0
-235 4248 0
-236 4248 0
-4249 241 242 243 0
-241 4249 0
-242 4249 0
-243 4249 0
-4243 4250 0
-4251 0
-4252 0
-4244 4253 0
-4250 4253 0
-4244 -4250 4254 0
-4251 4254 0
-4244 -4251 4255 0
-4252 4255 0
-4244 -4252 0
-4245 4256 0
-4253 4256 0
-4245 -4253 4257 0
-4254 4257 0
-4245 -4254 4258 0
-4255 4258 0
-4245 -4255 0
-4246 4259 0
-4256 4259 0
-4246 -4256 4260 0
-4257 4260 0
-4246 -4257 4261 0
-4258 4261 0
-4246 -4258 0
-4247 4262 0
-4259 4262 0
-4247 -4259 4263 0
-4260 4263 0
-4247 -4260 4264 0
-4261 4264 0
-4247 -4261 0
-4248 4265 0
-4262 4265 0
-4248 -4262 4266 0
-4263 4266 0
-4248 -4263 4267 0
-4264 4267 0
-4248 -4264 0
-4249 -4267 0
-4271 199 200 201 202 0
-199 4271 0
-200 4271 0
-201 4271 0
-202 4271 0
-4272 206 207 208 209 0
-206 4272 0
-207 4272 0
-208 4272 0
-209 4272 0
-4273 213 214 215 216 0
-213 4273 0
-214 4273 0
-215 4273 0
-216 4273 0
-4274 220 221 222 223 0
-220 4274 0
-221 4274 0
-222 4274 0
-223 4274 0
-4275 227 228 229 230 0
-227 4275 0
-228 4275 0
-229 4275 0
-230 4275 0
-4276 234 235 236 237 0
-234 4276 0
-235 4276 0
-236 4276 0
-237 4276 0
-4277 241 242 243 244 0
-241 4277 0
-242 4277 0
-243 4277 0
-244 4277 0
-4271 4278 0
-4279 0
-4280 0
-4281 0
-4272 4282 0
-4278 4282 0
-4272 -4278 4283 0
-4279 4283 0
-4272 -4279 4284 0
-4280 4284 0
-4272 -4280 4285 0
-4281 4285 0
-4272 -4281 0
-4273 4286 0
-4282 4286 0
-4273 -4282 4287 0
-4283 4287 0
-4273 -4283 4288 0
-4284 4288 0
-4273 -4284 4289 0
-4285 4289 0
-4273 -4285 0
-4274 4290 0
-4286 4290 0
-4274 -4286 4291 0
-4287 4291 0
-4274 -4287 4292 0
-4288 4292 0
-4274 -4288 4293 0
-4289 4293 0
-4274 -4289 0
-4275 4294 0
-4290 4294 0
-4275 -4290 4295 0
-4291 4295 0
-4275 -4291 4296 0
-4292 4296 0
-4275 -4292 4297 0
-4293 4297 0
-4275 -4293 0
-4276 4298 0
-4294 4298 0
-4276 -4294 4299 0
-4295 4299 0
-4276 -4295 4300 0
-4296 4300 0
-4276 -4296 4301 0
-4297 4301 0
-4276 -4297 0
-4277 -4301 0
-4306 199 200 201 202 203 0
-199 4306 0
-200 4306 0
-201 4306 0
-202 4306 0
-203 4306 0
-4307 206 207 208 209 210 0
-206 4307 0
-207 4307 0
-208 4307 0
-209 4307 0
-210 4307 0
-4308 213 214 215 216 217 0
-213 4308 0
-214 4308 0
-215 4308 0
-216 4308 0
-217 4308 0
-4309 220 221 222 223 224 0
-220 4309 0
-221 4309 0
-222 4309 0
-223 4309 0
-224 4309 0
-4310 227 228 229 230 231 0
-227 4310 0
-228 4310 0
-229 4310 0
-230 4310 0
-231 4310 0
-4311 234 235 236 237 238 0
-234 4311 0
-235 4311 0
-236 4311 0
-237 4311 0
-238 4311 0
-4312 241 242 243 244 245 0
-241 4312 0
-242 4312 0
-243 4312 0
-244 4312 0
-245 4312 0
-4306 4313 0
-4314 0
-4315 0
-4316 0
-4317 0
-4307 4318 0
-4313 4318 0
-4307 -4313 4319 0
-4314 4319 0
-4307 -4314 4320 0
-4315 4320 0
-4307 -4315 4321 0
-4316 4321 0
-4307 -4316 4322 0
-4317 4322 0
-4307 -4317 0
-4308 4323 0
-4318 4323 0
-4308 -4318 4324 0
-4319 4324 0
-4308 -4319 4325 0
-4320 4325 0
-4308 -4320 4326 0
-4321 4326 0
-4308 -4321 4327 0
-4322 4327 0
-4308 -4322 0
-4309 4328 0
-4323 4328 0
-4309 -4323 4329 0
-4324 4329 0
-4309 -4324 4330 0
-4325 4330 0
-4309 -4325 4331 0
-4326 4331 0
-4309 -4326 4332 0
-4327 4332 0
-4309 -4327 0
-4310 4333 0
-4328 4333 0
-4310 -4328 4334 0
-4329 4334 0
-4310 -4329 4335 0
-4330 4335 0
-4310 -4330 4336 0
-4331 4336 0
-4310 -4331 4337 0
-4332 4337 0
-4310 -4332 0
-4311 4338 0
-4333 4338 0
-4311 -4333 4339 0
-4334 4339 0
-4311 -4334 4340 0
-4335 4340 0
-4311 -4335 4341 0
-4336 4341 0
-4311 -4336 4342 0
-4337 4342 0
-4311 -4337 0
-4312 -4342 0
-4348 200 0
-200 4348 0
-4349 207 0
-207 4349 0
-4350 214 0
-214 4350 0
-4351 221 0
-221 4351 0
-4352 228 0
-228 4352 0
-4353 235 0
-235 4353 0
-4354 242 0
-242 4354 0
-4348 4355 0
-4349 4356 0
-4355 4356 0
-4349 -4355 0
-4350 4357 0
-4356 4357 0
-4350 -4356 0
-4351 4358 0
-4357 4358 0
-4351 -4357 0
-4352 4359 0
-4358 4359 0
-4352 -4358 0
-4353 4360 0
-4359 4360 0
-4353 -4359 0
-4354 -4360 0
-4362 200 201 0
-200 4362 0
-201 4362 0
-4363 207 208 0
-207 4363 0
-208 4363 0
-4364 214 215 0
-214 4364 0
-215 4364 0
-4365 221 222 0
-221 4365 0
-222 4365 0
-4366 228 229 0
-228 4366 0
-229 4366 0
-4367 235 236 0
-235 4367 0
-236 4367 0
-4368 242 243 0
-242 4368 0
-243 4368 0
-4362 4369 0
-4370 0
-4363 4371 0
-4369 4371 0
-4363 -4369 4372 0
-4370 4372 0
-4363 -4370 0
-4364 4373 0
-4371 4373 0
-4364 -4371 4374 0
-4372 4374 0
-4364 -4372 0
-4365 4375 0
-4373 4375 0
-4365 -4373 4376 0
-4374 4376 0
-4365 -4374 0
-4366 4377 0
-4375 4377 0
-4366 -4375 4378 0
-4376 4378 0
-4366 -4376 0
-4367 4379 0
-4377 4379 0
-4367 -4377 4380 0
-4378 4380 0
-4367 -4378 0
-4368 -4380 0
-4383 200 201 202 0
-200 4383 0
-201 4383 0
-202 4383 0
-4384 207 208 209 0
-207 4384 0
-208 4384 0
-209 4384 0
-4385 214 215 216 0
-214 4385 0
-215 4385 0
-216 4385 0
-4386 221 222 223 0
-221 4386 0
-222 4386 0
-223 4386 0
-4387 228 229 230 0
-228 4387 0
-229 4387 0
-230 4387 0
-4388 235 236 237 0
-235 4388 0
-236 4388 0
-237 4388 0
-4389 242 243 244 0
-242 4389 0
-243 4389 0
-244 4389 0
-4383 4390 0
-4391 0
-4392 0
-4384 4393 0
-4390 4393 0
-4384 -4390 4394 0
-4391 4394 0
-4384 -4391 4395 0
-4392 4395 0
-4384 -4392 0
-4385 4396 0
-4393 4396 0
-4385 -4393 4397 0
-4394 4397 0
-4385 -4394 4398 0
-4395 4398 0
-4385 -4395 0
-4386 4399 0
-4396 4399 0
-4386 -4396 4400 0
-4397 4400 0
-4386 -4397 4401 0
-4398 4401 0
-4386 -4398 0
-4387 4402 0
-4399 4402 0
-4387 -4399 4403 0
-4400 4403 0
-4387 -4400 4404 0
-4401 4404 0
-4387 -4401 0
-4388 4405 0
-4402 4405 0
-4388 -4402 4406 0
-4403 4406 0
-4388 -4403 4407 0
-4404 4407 0
-4388 -4404 0
-4389 -4407 0
-4411 200 201 202 203 0
-200 4411 0
-201 4411 0
-202 4411 0
-203 4411 0
-4412 207 208 209 210 0
-207 4412 0
-208 4412 0
-209 4412 0
-210 4412 0
-4413 214 215 216 217 0
-214 4413 0
-215 4413 0
-216 4413 0
-217 4413 0
-4414 221 222 223 224 0
-221 4414 0
-222 4414 0
-223 4414 0
-224 4414 0
-4415 228 229 230 231 0
-228 4415 0
-229 4415 0
-230 4415 0
-231 4415 0
-4416 235 236 237 238 0
-235 4416 0
-236 4416 0
-237 4416 0
-238 4416 0
-4417 242 243 244 245 0
-242 4417 0
-243 4417 0
-244 4417 0
-245 4417 0
-4411 4418 0
-4419 0
-4420 0
-4421 0
-4412 4422 0
-4418 4422 0
-4412 -4418 4423 0
-4419 4423 0
-4412 -4419 4424 0
-4420 4424 0
-4412 -4420 4425 0
-4421 4425 0
-4412 -4421 0
-4413 4426 0
-4422 4426 0
-4413 -4422 4427 0
-4423 4427 0
-4413 -4423 4428 0
-4424 4428 0
-4413 -4424 4429 0
-4425 4429 0
-4413 -4425 0
-4414 4430 0
-4426 4430 0
-4414 -4426 4431 0
-4427 4431 0
-4414 -4427 4432 0
-4428 4432 0
-4414 -4428 4433 0
-4429 4433 0
-4414 -4429 0
-4415 4434 0
-4430 4434 0
-4415 -4430 4435 0
-4431 4435 0
-4415 -4431 4436 0
-4432 4436 0
-4415 -4432 4437 0
-4433 4437 0
-4415 -4433 0
-4416 4438 0
-4434 4438 0
-4416 -4434 4439 0
-4435 4439 0
-4416 -4435 4440 0
-4436 4440 0
-4416 -4436 4441 0
-4437 4441 0
-4416 -4437 0
-4417 -4441 0
-4446 201 0
-201 4446 0
-4447 208 0
-208 4447 0
-4448 215 0
-215 4448 0
-4449 222 0
-222 4449 0
-4450 229 0
-229 4450 0
-4451 236 0
-236 4451 0
-4452 243 0
-243 4452 0
-4446 4453 0
-4447 4454 0
-4453 4454 0
-4447 -4453 0
-4448 4455 0
-4454 4455 0
-4448 -4454 0
-4449 4456 0
-4455 4456 0
-4449 -4455 0
-4450 4457 0
-4456 4457 0
-4450 -4456 0
-4451 4458 0
-4457 4458 0
-4451 -4457 0
-4452 -4458 0
-4460 201 202 0
-201 4460 0
-202 4460 0
-4461 208 209 0
-208 4461 0
-209 4461 0
-4462 215 216 0
-215 4462 0
-216 4462 0
-4463 222 223 0
-222 4463 0
-223 4463 0
-4464 229 230 0
-229 4464 0
-230 4464 0
-4465 236 237 0
-236 4465 0
-237 4465 0
-4466 243 244 0
-243 4466 0
-244 4466 0
-4460 4467 0
-4468 0
-4461 4469 0
-4467 4469 0
-4461 -4467 4470 0
-4468 4470 0
-4461 -4468 0
-4462 4471 0
-4469 4471 0
-4462 -4469 4472 0
-4470 4472 0
-4462 -4470 0
-4463 4473 0
-4471 4473 0
-4463 -4471 4474 0
-4472 4474 0
-4463 -4472 0
-4464 4475 0
-4473 4475 0
-4464 -4473 4476 0
-4474 4476 0
-4464 -4474 0
-4465 4477 0
-4475 4477 0
-4465 -4475 4478 0
-4476 4478 0
-4465 -4476 0
-4466 -4478 0
-4481 201 202 203 0
-201 4481 0
-202 4481 0
-203 4481 0
-4482 208 209 210 0
-208 4482 0
-209 4482 0
-210 4482 0
-4483 215 216 217 0
-215 4483 0
-216 4483 0
-217 4483 0
-4484 222 223 224 0
-222 4484 0
-223 4484 0
-224 4484 0
-4485 229 230 231 0
-229 4485 0
-230 4485 0
-231 4485 0
-4486 236 237 238 0
-236 4486 0
-237 4486 0
-238 4486 0
-4487 243 244 245 0
-243 4487 0
-244 4487 0
-245 4487 0
-4481 4488 0
-4489 0
-4490 0
-4482 4491 0
-4488 4491 0
-4482 -4488 4492 0
-4489 4492 0
-4482 -4489 4493 0
-4490 4493 0
-4482 -4490 0
-4483 4494 0
-4491 4494 0
-4483 -4491 4495 0
-4492 4495 0
-4483 -4492 4496 0
-4493 4496 0
-4483 -4493 0
-4484 4497 0
-4494 4497 0
-4484 -4494 4498 0
-4495 4498 0
-4484 -4495 4499 0
-4496 4499 0
-4484 -4496 0
-4485 4500 0
-4497 4500 0
-4485 -4497 4501 0
-4498 4501 0
-4485 -4498 4502 0
-4499 4502 0
-4485 -4499 0
-4486 4503 0
-4500 4503 0
-4486 -4500 4504 0
-4501 4504 0
-4486 -4501 4505 0
-4502 4505 0
-4486 -4502 0
-4487 -4505 0
-4509 202 0
-202 4509 0
-4510 209 0
-209 4510 0
-4511 216 0
-216 4511 0
-4512 223 0
-223 4512 0
-4513 230 0
-230 4513 0
-4514 237 0
-237 4514 0
-4515 244 0
-244 4515 0
-4509 4516 0
-4510 4517 0
-4516 4517 0
-4510 -4516 0
-4511 4518 0
-4517 4518 0
-4511 -4517 0
-4512 4519 0
-4518 4519 0
-4512 -4518 0
-4513 4520 0
-4519 4520 0
-4513 -4519 0
-4514 4521 0
-4520 4521 0
-4514 -4520 0
-4515 -4521 0
-4523 202 203 0
-202 4523 0
-203 4523 0
-4524 209 210 0
-209 4524 0
-210 4524 0
-4525 216 217 0
-216 4525 0
-217 4525 0
-4526 223 224 0
-223 4526 0
-224 4526 0
-4527 230 231 0
-230 4527 0
-231 4527 0
-4528 237 238 0
-237 4528 0
-238 4528 0
-4529 244 245 0
-244 4529 0
-245 4529 0
-4523 4530 0
-4531 0
-4524 4532 0
-4530 4532 0
-4524 -4530 4533 0
-4531 4533 0
-4524 -4531 0
-4525 4534 0
-4532 4534 0
-4525 -4532 4535 0
-4533 4535 0
-4525 -4533 0
-4526 4536 0
-4534 4536 0
-4526 -4534 4537 0
-4535 4537 0
-4526 -4535 0
-4527 4538 0
-4536 4538 0
-4527 -4536 4539 0
-4537 4539 0
-4527 -4537 0
-4528 4540 0
-4538 4540 0
-4528 -4538 4541 0
-4539 4541 0
-4528 -4539 0
-4529 -4541 0
-4544 203 0
-203 4544 0
-4545 210 0
-210 4545 0
-4546 217 0
-217 4546 0
-4547 224 0
-224 4547 0
-4548 231 0
-231 4548 0
-4549 238 0
-238 4549 0
-4550 245 0
-245 4550 0
-4544 4551 0
-4545 4552 0
-4551 4552 0
-4545 -4551 0
-4546 4553 0
-4552 4553 0
-4546 -4552 0
-4547 4554 0
-4553 4554 0
-4547 -4553 0
-4548 4555 0
-4554 4555 0
-4548 -4554 0
-4549 4556 0
-4555 4556 0
-4549 -4555 0
-4550 -4556 0
-197 4558 0
-204 4559 0
-4558 4559 0
-204 -4558 0
-211 4560 0
-4559 4560 0
-211 -4559 0
-218 4561 0
-4560 4561 0
-218 -4560 0
-225 4562 0
-4561 4562 0
-225 -4561 0
-232 4563 0
-4562 4563 0
-232 -4562 0
-239 -4563 0
197 204 211 218 225 232 239 0
-198 4565 0
-205 4566 0
-4565 4566 0
-205 -4565 0
-212 4567 0
-4566 4567 0
-212 -4566 0
-219 4568 0
-4567 4568 0
-219 -4567 0
-226 4569 0
-4568 4569 0
-226 -4568 0
-233 4570 0
-4569 4570 0
-233 -4569 0
-240 -4570 0
198 205 212 219 226 233 240 0
-199 4572 0
-206 4573 0
-4572 4573 0
-206 -4572 0
-213 4574 0
-4573 4574 0
-213 -4573 0
-220 4575 0
-4574 4575 0
-220 -4574 0
-227 4576 0
-4575 4576 0
-227 -4575 0
-234 4577 0
-4576 4577 0
-234 -4576 0
-241 -4577 0
199 206 213 220 227 234 241 0
-200 4579 0
-207 4580 0
-4579 4580 0
-207 -4579 0
-214 4581 0
-4580 4581 0
-214 -4580 0
-221 4582 0
-4581 4582 0
-221 -4581 0
-228 4583 0
-4582 4583 0
-228 -4582 0
-235 4584 0
-4583 4584 0
-235 -4583 0
-242 -4584 0
200 207 214 221 228 235 242 0
-201 4586 0
-208 4587 0
-4586 4587 0
-208 -4586 0
-215 4588 0
-4587 4588 0
-215 -4587 0
-222 4589 0
-4588 4589 0
-222 -4588 0
-229 4590 0
-4589 4590 0
-229 -4589 0
-236 4591 0
-4590 4591 0
-236 -4590 0
-243 -4591 0
201 208 215 222 229 236 243 0
-202 4593 0
-209 4594 0
-4593 4594 0
-209 -4593 0
-216 4595 0
-4594 4595 0
-216 -4594 0
-223 4596 0
-4595 4596 0
-223 -4595 0
-230 4597 0
-4596 4597 0
-230 -4596 0
-237 4598 0
-4597 4598 0
-237 -4597 0
-244 -4598 0
202 209 216 223 230 237 244 0
-203 4600 0
-210 4601 0
-4600 4601 0
-210 -4600 0
-217 4602 0
-4601 4602 0
-217 -4601 0
-224 4603 0
-4602 4603 0
-224 -4602 0
-231 4604 0
-4603 4604 0
-231 -4603 0
-238 4605 0
-4604 4605 0
-238 -4604 0
-245 -4605 0
203 210 217 224 231 238 245 0
-4607 246 0
-246 4607 0
-4608 253 0
-253 4608 0
-4609 260 0
-260 4609 0
-4610 267 0
-267 4610 0
-4611 274 0
-274 4611 0
-4612 281 0
-281 4612 0
-4613 288 0
-288 4613 0
-4607 4614 0
-4608 4615 0
-4614 4615 0
-4608 -4614 0
-4609 4616 0
-4615 4616 0
-4609 -4615 0
-4610 4617 0
-4616 4617 0
-4610 -4616 0
-4611 4618 0
-4617 4618 0
-4611 -4617 0
-4612 4619 0
-4618 4619 0
-4612 -4618 0
-4613 -4619 0
-4621 246 247 0
-246 4621 0
-247 4621 0
-4622 253 254 0
-253 4622 0
-254 4622 0
-4623 260 261 0
-260 4623 0
-261 4623 0
-4624 267 268 0
-267 4624 0
-268 4624 0
-4625 274 275 0
-274 4625 0
-275 4625 0
-4626 281 282 0
-281 4626 0
-282 4626 0
-4627 288 289 0
-288 4627 0
-289 4627 0
-4621 4628 0
-4629 0
-4622 4630 0
-4628 4630 0
-4622 -4628 4631 0
-4629 4631 0
-4622 -4629 0
-4623 4632 0
-4630 4632 0
-4623 -4630 4633 0
-4631 4633 0
-4623 -4631 0
-4624 4634 0
-4632 4634 0
-4624 -4632 4635 0
-4633 4635 0
-4624 -4633 0
-4625 4636 0
-4634 4636 0
-4625 -4634 4637 0
-4635 4637 0
-4625 -4635 0
-4626 4638 0
-4636 4638 0
-4626 -4636 4639 0
-4637 4639 0
-4626 -4637 0
-4627 -4639 0
-4642 246 247 248 0
-246 4642 0
-247 4642 0
-248 4642 0
-4643 253 254 255 0
-253 4643 0
-254 4643 0
-255 4643 0
-4644 260 261 262 0
-260 4644 0
-261 4644 0
-262 4644 0
-4645 267 268 269 0
-267 4645 0
-268 4645 0
-269 4645 0
-4646 274 275 276 0
-274 4646 0
-275 4646 0
-276 4646 0
-4647 281 282 283 0
-281 4647 0
-282 4647 0
-283 4647 0
-4648 288 289 290 0
-288 4648 0
-289 4648 0
-290 4648 0
-4642 4649 0
-4650 0
-4651 0
-4643 4652 0
-4649 4652 0
-4643 -4649 4653 0
-4650 4653 0
-4643 -4650 4654 0
-4651 4654 0
-4643 -4651 0
-4644 4655 0
-4652 4655 0
-4644 -4652 4656 0
-4653 4656 0
-4644 -4653 4657 0
-4654 4657 0
-4644 -4654 0
-4645 4658 0
-4655 4658 0
-4645 -4655 4659 0
-4656 4659 0
-4645 -4656 4660 0
-4657 4660 0
-4645 -4657 0
-4646 4661 0
-4658 4661 0
-4646 -4658 4662 0
-4659 4662 0
-4646 -4659 4663 0
-4660 4663 0
-4646 -4660 0
-4647 4664 0
-4661 4664 0
-4647 -4661 4665 0
-4662 4665 0
-4647 -4662 4666 0
-4663 4666 0
-4647 -4663 0
-4648 -4666 0
-4670 246 247 248 249 0
-246 4670 0
-247 4670 0
-248 4670 0
-249 4670 0
-4671 253 254 255 256 0
-253 4671 0
-254 4671 0
-255 4671 0
-256 4671 0
-4672 260 261 262 263 0
-260 4672 0
-261 4672 0
-262 4672 0
-263 4672 0
-4673 267 268 269 270 0
-267 4673 0
-268 4673 0
-269 4673 0
-270 4673 0
-4674 274 275 276 277 0
-274 4674 0
-275 4674 0
-276 4674 0
-277 4674 0
-4675 281 282 283 284 0
-281 4675 0
-282 4675 0
-283 4675 0
-284 4675 0
-4676 288 289 290 291 0
-288 4676 0
-289 4676 0
-290 4676 0
-291 4676 0
-4670 4677 0
-4678 0
-4679 0
-4680 0
-4671 4681 0
-4677 4681 0
-4671 -4677 4682 0
-4678 4682 0
-4671 -4678 4683 0
-4679 4683 0
-4671 -4679 4684 0
-4680 4684 0
-4671 -4680 0
-4672 4685 0
-4681 4685 0
-4672 -4681 4686 0
-4682 4686 0
-4672 -4682 4687 0
-4683 4687 0
-4672 -4683 4688 0
-4684 4688 0
-4672 -4684 0
-4673 4689 0
-4685 4689 0
-4673 -4685 4690 0
-4686 4690 0
-4673 -4686 4691 0
-4687 4691 0
-4673 -4687 4692 0
-4688 4692 0
-4673 -4688 0
-4674 4693 0
-4689 4693 0
-4674 -4689 4694 0
-4690 4694 0
-4674 -4690 4695 0
-4691 4695 0
-4674 -4691 4696 0
-4692 4696 0
-4674 -4692 0
-4675 4697 0
-4693 4697 0
-4675 -4693 4698 0
-4694 4698 0
-4675 -4694 4699 0
-4695 4699 0
-4675 -4695 4700 0
-4696 4700 0
-4675 -4696 0
-4676 -4700 0
-4705 246 247 248 249 250 0
-246 4705 0
-247 4705 0
-248 4705 0
-249 4705 0
-250 4705 0
-4706 253 254 255 256 257 0
-253 4706 0
-254 4706 0
-255 4706 0
-256 4706 0
-257 4706 0
-4707 260 261 262 263 264 0
-260 4707 0
-261 4707 0
-262 4707 0
-263 4707 0
-264 4707 0
-4708 267 268 269 270 271 0
-267 4708 0
-268 4708 0
-269 4708 0
-270 4708 0
-271 4708 0
-4709 274 275 276 277 278 0
-274 4709 0
-275 4709 0
-276 4709 0
-277 4709 0
-278 4709 0
-4710 281 282 283 284 285 0
-281 4710 0
-282 4710 0
-283 4710 0
-284 4710 0
-285 4710 0
-4711 288 289 290 291 292 0
-288 4711 0
-289 4711 0
-290 4711 0
-291 4711 0
-292 4711 0
-4705 4712 0
-4713 0
-4714 0
-4715 0
-4716 0
-4706 4717 0
-4712 4717 0
-4706 -4712 4718 0
-4713 4718 0
-4706 -4713 4719 0
-4714 4719 0
-4706 -4714 4720 0
-4715 4720 0
-4706 -4715 4721 0
-4716 4721 0
-4706 -4716 0
-4707 4722 0
-4717 4722 0
-4707 -4717 4723 0
-4718 4723 0
-4707 -4718 4724 0
-4719 4724 0
-4707 -4719 4725 0
-4720 4725 0
-4707 -4720 4726 0
-4721 4726 0
-4707 -4721 0
-4708 4727 0
-4722 4727 0
-4708 -4722 4728 0
-4723 4728 0
-4708 -4723 4729 0
-4724 4729 0
-4708 -4724 4730 0
-4725 4730 0
-4708 -4725 4731 0
-4726 4731 0
-4708 -4726 0
-4709 4732 0
-4727 4732 0
-4709 -4727 4733 0
-4728 4733 0
-4709 -4728 4734 0
-4729 4734 0
-4709 -4729 4735 0
-4730 4735 0
-4709 -4730 4736 0
-4731 4736 0
-4709 -4731 0
-4710 4737 0
-4732 4737 0
-4710 -4732 4738 0
-4733 4738 0
-4710 -4733 4739 0
-4734 4739 0
-4710 -4734 4740 0
-4735 4740 0
-4710 -4735 4741 0
-4736 4741 0
-4710 -4736 0
-4711 -4741 0
-4747 246 247 248 249 250 251 0
-246 4747 0
-247 4747 0
-248 4747 0
-249 4747 0
-250 4747 0
-251 4747 0
-4748 253 254 255 256 257 258 0
-253 4748 0
-254 4748 0
-255 4748 0
-256 4748 0
-257 4748 0
-258 4748 0
-4749 260 261 262 263 264 265 0
-260 4749 0
-261 4749 0
-262 4749 0
-263 4749 0
-264 4749 0
-265 4749 0
-4750 267 268 269 270 271 272 0
-267 4750 0
-268 4750 0
-269 4750 0
-270 4750 0
-271 4750 0
-272 4750 0
-4751 274 275 276 277 278 279 0
-274 4751 0
-275 4751 0
-276 4751 0
-277 4751 0
-278 4751 0
-279 4751 0
-4752 281 282 283 284 285 286 0
-281 4752 0
-282 4752 0
-283 4752 0
-284 4752 0
-285 4752 0
-286 4752 0
-4753 288 289 290 291 292 293 0
-288 4753 0
-289 4753 0
-290 4753 0
-291 4753 0
-292 4753 0
-293 4753 0
-4747 4754 0
-4755 0
-4756 0
-4757 0
-4758 0
-4759 0
-4748 4760 0
-4754 4760 0
-4748 -4754 4761 0
-4755 4761 0
-4748 -4755 4762 0
-4756 4762 0
-4748 -4756 4763 0
-4757 4763 0
-4748 -4757 4764 0
-4758 4764 0
-4748 -4758 4765 0
-4759 4765 0
-4748 -4759 0
-4749 4766 0
-4760 4766 0
-4749 -4760 4767 0
-4761 4767 0
-4749 -4761 4768 0
-4762 4768 0
-4749 -4762 4769 0
-4763 4769 0
-4749 -4763 4770 0
-4764 4770 0
-4749 -4764 4771 0
-4765 4771 0
-4749 -4765 0
-4750 4772 0
-4766 4772 0
-4750 -4766 4773 0
-4767 4773 0
-4750 -4767 4774 0
-4768 4774 0
-4750 -4768 4775 0
-4769 4775 0
-4750 -4769 4776 0
-4770 4776 0
-4750 -4770 4777 0
-4771 4777 0
-4750 -4771 0
-4751 4778 0
-4772 4778 0
-4751 -4772 4779 0
-4773 4779 0
-4751 -4773 4780 0
-4774 4780 0
-4751 -4774 4781 0
-4775 4781 0
-4751 -4775 4782 0
-4776 4782 0
-4751 -4776 4783 0
-4777 4783 0
-4751 -4777 0
-4752 4784 0
-4778 4784 0
-4752 -4778 4785 0
-4779 4785 0
-4752 -4779 4786 0
-4780 4786 0
-4752 -4780 4787 0
-4781 4787 0
-4752 -4781 4788 0
-4782 4788 0
-4752 -4782 4789 0
-4783 4789 0
-4752 -4783 0
-4753 -4789 0
-4796 246 247 248 249 250 251 252 0
-246 4796 0
-247 4796 0
-248 4796 0
-249 4796 0
-250 4796 0
-251 4796 0
-252 4796 0
-4797 253 254 255 256 257 258 259 0
-253 4797 0
-254 4797 0
-255 4797 0
-256 4797 0
-257 4797 0
-258 4797 0
-259 4797 0
-4798 260 261 262 263 264 265 266 0
-260 4798 0
-261 4798 0
-262 4798 0
-263 4798 0
-264 4798 0
-265 4798 0
-266 4798 0
-4799 267 268 269 270 271 272 273 0
-267 4799 0
-268 4799 0
-269 4799 0
-270 4799 0
-271 4799 0
-272 4799 0
-273 4799 0
-4800 274 275 276 277 278 279 280 0
-274 4800 0
-275 4800 0
-276 4800 0
-277 4800 0
-278 4800 0
-279 4800 0
-280 4800 0
-4801 281 282 283 284 285 286 287 0
-281 4801 0
-282 4801 0
-283 4801 0
-284 4801 0
-285 4801 0
-286 4801 0
-287 4801 0
-4802 288 289 290 291 292 293 294 0
-288 4802 0
-289 4802 0
-290 4802 0
-291 4802 0
-292 4802 0
-293 4802 0
-294 4802 0
-4803 247 0
-247 4803 0
-4804 254 0
-254 4804 0
-4805 261 0
-261 4805 0
-4806 268 0
-268 4806 0
-4807 275 0
-275 4807 0
-4808 282 0
-282 4808 0
-4809 289 0
-289 4809 0
-4803 4810 0
-4804 4811 0
-4810 4811 0
-4804 -4810 0
-4805 4812 0
-4811 4812 0
-4805 -4811 0
-4806 4813 0
-4812 4813 0
-4806 -4812 0
-4807 4814 0
-4813 4814 0
-4807 -4813 0
-4808 4815 0
-4814 4815 0
-4808 -4814 0
-4809 -4815 0
-4817 247 248 0
-247 4817 0
-248 4817 0
-4818 254 255 0
-254 4818 0
-255 4818 0
-4819 261 262 0
-261 4819 0
-262 4819 0
-4820 268 269 0
-268 4820 0
-269 4820 0
-4821 275 276 0
-275 4821 0
-276 4821 0
-4822 282 283 0
-282 4822 0
-283 4822 0
-4823 289 290 0
-289 4823 0
-290 4823 0
-4817 4824 0
-4825 0
-4818 4826 0
-4824 4826 0
-4818 -4824 4827 0
-4825 4827 0
-4818 -4825 0
-4819 4828 0
-4826 4828 0
-4819 -4826 4829 0
-4827 4829 0
-4819 -4827 0
-4820 4830 0
-4828 4830 0
-4820 -4828 4831 0
-4829 4831 0
-4820 -4829 0
-4821 4832 0
-4830 4832 0
-4821 -4830 4833 0
-4831 4833 0
-4821 -4831 0
-4822 4834 0
-4832 4834 0
-4822 -4832 4835 0
-4833 4835 0
-4822 -4833 0
-4823 -4835 0
-4838 247 248 249 0
-247 4838 0
-248 4838 0
-249 4838 0
-4839 254 255 256 0
-254 4839 0
-255 4839 0
-256 4839 0
-4840 261 262 263 0
-261 4840 0
-262 4840 0
-263 4840 0
-4841 268 269 270 0
-268 4841 0
-269 4841 0
-270 4841 0
-4842 275 276 277 0
-275 4842 0
-276 4842 0
-277 4842 0
-4843 282 283 284 0
-282 4843 0
-283 4843 0
-284 4843 0
-4844 289 290 291 0
-289 4844 0
-290 4844 0
-291 4844 0
-4838 4845 0
-4846 0
-4847 0
-4839 4848 0
-4845 4848 0
-4839 -4845 4849 0
-4846 4849 0
-4839 -4846 4850 0
-4847 4850 0
-4839 -4847 0
-4840 4851 0
-4848 4851 0
-4840 -4848 4852 0
-4849 4852 0
-4840 -4849 4853 0
-4850 4853 0
-4840 -4850 0
-4841 4854 0
-4851 4854 0
-4841 -4851 4855 0
-4852 4855 0
-4841 -4852 4856 0
-4853 4856 0
-4841 -4853 0
-4842 4857 0
-4854 4857 0
-4842 -4854 4858 0
-4855 4858 0
-4842 -4855 4859 0
-4856 4859 0
-4842 -4856 0
-4843 4860 0
-4857 4860 0
-4843 -4857 4861 0
-4858 4861 0
-4843 -4858 4862 0
-4859 4862 0
-4843 -4859 0
-4844 -4862 0
-4866 247 248 249 250 0
-247 4866 0
-248 4866 0
-249 4866 0
-250 4866 0
-4867 254 255 256 257 0
-254 4867 0
-255 4867 0
-256 4867 0
-257 4867 0
-4868 261 262 263 264 0
-261 4868 0
-262 4868 0
-263 4868 0
-264 4868 0
-4869 268 269 270 271 0
-268 4869 0
-269 4869 0
-270 4869 0
-271 4869 0
-4870 275 276 277 278 0
-275 4870 0
-276 4870 0
-277 4870 0
-278 4870 0
-4871 282 283 284 285 0
-282 4871 0
-283 4871 0
-284 4871 0
-285 4871 0
-4872 289 290 291 292 0
-289 4872 0
-290 4872 0
-291 4872 0
-292 4872 0
-4866 4873 0
-4874 0
-4875 0
-4876 0
-4867 4877 0
-4873 4877 0
-4867 -4873 4878 0
-4874 4878 0
-4867 -4874 4879 0
-4875 4879 0
-4867 -4875 4880 0
-4876 4880 0
-4867 -4876 0
-4868 4881 0
-4877 4881 0
-4868 -4877 4882 0
-4878 4882 0
-4868 -4878 4883 0
-4879 4883 0
-4868 -4879 4884 0
-4880 4884 0
-4868 -4880 0
-4869 4885 0
-4881 4885 0
-4869 -4881 4886 0
-4882 4886 0
-4869 -4882 4887 0
-4883 4887 0
-4869 -4883 4888 0
-4884 4888 0
-4869 -4884 0
-4870 4889 0
-4885 4889 0
-4870 -4885 4890 0
-4886 4890 0
-4870 -4886 4891 0
-4887 4891 0
-4870 -4887 4892 0
-4888 4892 0
-4870 -4888 0
-4871 4893 0
-4889 4893 0
-4871 -4889 4894 0
-4890 4894 0
-4871 -4890 4895 0
-4891 4895 0
-4871 -4891 4896 0
-4892 4896 0
-4871 -4892 0
-4872 -4896 0
-4901 247 248 249 250 251 0
-247 4901 0
-248 4901 0
-249 4901 0
-250 4901 0
-251 4901 0
-4902 254 255 256 257 258 0
-254 4902 0
-255 4902 0
-256 4902 0
-257 4902 0
-258 4902 0
-4903 261 262 263 264 265 0
-261 4903 0
-262 4903 0
-263 4903 0
-264 4903 0
-265 4903 0
-4904 268 269 270 271 272 0
-268 4904 0
-269 4904 0
-270 4904 0
-271 4904 0
-272 4904 0
-4905 275 276 277 278 279 0
-275 4905 0
-276 4905 0
-277 4905 0
-278 4905 0
-279 4905 0
-4906 282 283 284 285 286 0
-282 4906 0
-283 4906 0
-284 4906 0
-285 4906 0
-286 4906 0
-4907 289 290 291 292 293 0
-289 4907 0
-290 4907 0
-291 4907 0
-292 4907 0
-293 4907 0
-4901 4908 0
-4909 0
-4910 0
-4911 0
-4912 0
-4902 4913 0
-4908 4913 0
-4902 -4908 4914 0
-4909 4914 0
-4902 -4909 4915 0
-4910 4915 0
-4902 -4910 4916 0
-4911 4916 0
-4902 -4911 4917 0
-4912 4917 0
-4902 -4912 0
-4903 4918 0
-4913 4918 0
-4903 -4913 4919 0
-4914 4919 0
-4903 -4914 4920 0
-4915 4920 0
-4903 -4915 4921 0
-4916 4921 0
-4903 -4916 4922 0
-4917 4922 0
-4903 -4917 0
-4904 4923 0
-4918 4923 0
-4904 -4918 4924 0
-4919 4924 0
-4904 -4919 4925 0
-4920 4925 0
-4904 -4920 4926 0
-4921 4926 0
-4904 -4921 4927 0
-4922 4927 0
-4904 -4922 0
-4905 4928 0
-4923 4928 0
-4905 -4923 4929 0
-4924 4929 0
-4905 -4924 4930 0
-4925 4930 0
-4905 -4925 4931 0
-4926 4931 0
-4905 -4926 4932 0
-4927 4932 0
-4905 -4927 0
-4906 4933 0
-4928 4933 0
-4906 -4928 4934 0
-4929 4934 0
-4906 -4929 4935 0
-4930 4935 0
-4906 -4930 4936 0
-4931 4936 0
-4906 -4931 4937 0
-4932 4937 0
-4906 -4932 0
-4907 -4937 0
-4943 247 248 249 250 251 252 0
-247 4943 0
-248 4943 0
-249 4943 0
-250 4943 0
-251 4943 0
-252 4943 0
-4944 254 255 256 257 258 259 0
-254 4944 0
-255 4944 0
-256 4944 0
-257 4944 0
-258 4944 0
-259 4944 0
-4945 261 262 263 264 265 266 0
-261 4945 0
-262 4945 0
-263 4945 0
-264 4945 0
-265 4945 0
-266 4945 0
-4946 268 269 270 271 272 273 0
-268 4946 0
-269 4946 0
-270 4946 0
-271 4946 0
-272 4946 0
-273 4946 0
-4947 275 276 277 278 279 280 0
-275 4947 0
-276 4947 0
-277 4947 0
-278 4947 0
-279 4947 0
-280 4947 0
-4948 282 283 284 285 286 287 0
-282 4948 0
-283 4948 0
-284 4948 0
-285 4948 0
-286 4948 0
-287 4948 0
-4949 289 290 291 292 293 294 0
-289 4949 0
-290 4949 0
-291 4949 0
-292 4949 0
-293 4949 0
-294 4949 0
-4943 4950 0
-4951 0
-4952 0
-4953 0
-4954 0
-4955 0
-4944 4956 0
-4950 4956 0
-4944 -4950 4957 0
-4951 4957 0
-4944 -4951 4958 0
-4952 4958 0
-4944 -4952 4959 0
-4953 4959 0
-4944 -4953 4960 0
-4954 4960 0
-4944 -4954 4961 0
-4955 4961 0
-4944 -4955 0
-4945 4962 0
-4956 4962 0
-4945 -4956 4963 0
-4957 4963 0
-4945 -4957 4964 0
-4958 4964 0
-4945 -4958 4965 0
-4959 4965 0
-4945 -4959 4966 0
-4960 4966 0
-4945 -4960 4967 0
-4961 4967 0
-4945 -4961 0
-4946 4968 0
-4962 4968 0
-4946 -4962 4969 0
-4963 4969 0
-4946 -4963 4970 0
-4964 4970 0
-4946 -4964 4971 0
-4965 4971 0
-4946 -4965 4972 0
-4966 4972 0
-4946 -4966 4973 0
-4967 4973 0
-4946 -4967 0
-4947 4974 0
-4968 4974 0
-4947 -4968 4975 0
-4969 4975 0
-4947 -4969 4976 0
-4970 4976 0
-4947 -4970 4977 0
-4971 4977 0
-4947 -4971 4978 0
-4972 4978 0
-4947 -4972 4979 0
-4973 4979 0
-4947 -4973 0
-4948 4980 0
-4974 4980 0
-4948 -4974 4981 0
-4975 4981 0
-4948 -4975 4982 0
-4976 4982 0
-4948 -4976 4983 0
-4977 4983 0
-4948 -4977 4984 0
-4978 4984 0
-4948 -4978 4985 0
-4979 4985 0
-4948 -4979 0
-4949 -4985 0
-4992 248 0
-248 4992 0
-4993 255 0
-255 4993 0
-4994 262 0
-262 4994 0
-4995 269 0
-269 4995 0
-4996 276 0
-276 4996 0
-4997 283 0
-283 4997 0
-4998 290 0
-290 4998 0
-4992 4999 0
-4993 5000 0
-4999 5000 0
-4993 -4999 0
-4994 5001 0
-5000 5001 0
-4994 -5000 0
-4995 5002 0
-5001 5002 0
-4995 -5001 0
-4996 5003 0
-5002 5003 0
-4996 -5002 0
-4997 5004 0
-5003 5004 0
-4997 -5003 0
-4998 -5004 0
-5006 248 249 0
-248 5006 0
-249 5006 0
-5007 255 256 0
-255 5007 0
-256 5007 0
-5008 262 263 0
-262 5008 0
-263 5008 0
-5009 269 270 0
-269 5009 0
-270 5009 0
-5010 276 277 0
-276 5010 0
-277 5010 0
-5011 283 284 0
-283 5011 0
-284 5011 0
-5012 290 291 0
-290 5012 0
-291 5012 0
-5006 5013 0
-5014 0
-5007 5015 0
-5013 5015 0
-5007 -5013 5016 0
-5014 5016 0
-5007 -5014 0
-5008 5017 0
-5015 5017 0
-5008 -5015 5018 0
-5016 5018 0
-5008 -5016 0
-5009 5019 0
-5017 5019 0
-5009 -5017 5020 0
-5018 5020 0
-5009 -5018 0
-5010 5021 0
-5019 5021 0
-5010 -5019 5022 0
-5020 5022 0
-5010 -5020 0
-5011 5023 0
-5021 5023 0
-5011 -5021 5024 0
-5022 5024 0
-5011 -5022 0
-5012 -5024 0
-5027 248 249 250 0
-248 5027 0
-249 5027 0
-250 5027 0
-5028 255 256 257 0
-255 5028 0
-256 5028 0
-257 5028 0
-5029 262 263 264 0
-262 5029 0
-263 5029 0
-264 5029 0
-5030 269 270 271 0
-269 5030 0
-270 5030 0
-271 5030 0
-5031 276 277 278 0
-276 5031 0
-277 5031 0
-278 5031 0
-5032 283 284 285 0
-283 5032 0
-284 5032 0
-285 5032 0
-5033 290 291 292 0
-290 5033 0
-291 5033 0
-292 5033 0
-5027 5034 0
-5035 0
-5036 0
-5028 5037 0
-5034 5037 0
-5028 -5034 5038 0
-5035 5038 0
-5028 -5035 5039 0
-5036 5039 0
-5028 -5036 0
-5029 5040 0
-5037 5040 0
-5029 -5037 5041 0
-5038 5041 0
-5029 -5038 5042 0
-5039 5042 0
-5029 -5039 0
-5030 5043 0
-5040 5043 0
-5030 -5040 5044 0
-5041 5044 0
-5030 -5041 5045 0
-5042 5045 0
-5030 -5042 0
-5031 5046 0
-5043 5046 0
-5031 -5043 5047 0
-5044 5047 0
-5031 -5044 5048 0
-5045 5048 0
-5031 -5045 0
-5032 5049 0
-5046 5049 0
-5032 -5046 5050 0
-5047 5050 0
-5032 -5047 5051 0
-5048 5051 0
-5032 -5048 0
-5033 -5051 0
-5055 248 249 250 251 0
-248 5055 0
-249 5055 0
-250 5055 0
-251 5055 0
-5056 255 256 257 258 0
-255 5056 0
-256 5056 0
-257 5056 0
-258 5056 0
-5057 262 263 264 265 0
-262 5057 0
-263 5057 0
-264 5057 0
-265 5057 0
-5058 269 270 271 272 0
-269 5058 0
-270 5058 0
-271 5058 0
-272 5058 0
-5059 276 277 278 279 0
-276 5059 0
-277 5059 0
-278 5059 0
-279 5059 0
-5060 283 284 285 286 0
-283 5060 0
-284 5060 0
-285 5060 0
-286 5060 0
-5061 290 291 292 293 0
-290 5061 0
-291 5061 0
-292 5061 0
-293 5061 0
-5055 5062 0
-5063 0
-5064 0
-5065 0
-5056 5066 0
-5062 5066 0
-5056 -5062 5067 0
-5063 5067 0
-5056 -5063 5068 0
-5064 5068 0
-5056 -5064 5069 0
-5065 5069 0
-5056 -5065 0
-5057 5070 0
-5066 5070 0
-5057 -5066 5071 0
-5067 5071 0
-5057 -5067 5072 0
-5068 5072 0
-5057 -5068 5073 0
-5069 5073 0
-5057 -5069 0
-5058 5074 0
-5070 5074 0
-5058 -5070 5075 0
-5071 5075 0
-5058 -5071 5076 0
-5072 5076 0
-5058 -5072 5077 0
-5073 5077 0
-5058 -5073 0
-5059 5078 0
-5074 5078 0
-5059 -5074 5079 0
-5075 5079 0
-5059 -5075 5080 0
-5076 5080 0
-5059 -5076 5081 0
-5077 5081 0
-5059 -5077 0
-5060 5082 0
-5078 5082 0
-5060 -5078 5083 0
-5079 5083 0
-5060 -5079 5084 0
-5080 5084 0
-5060 -5080 5085 0
-5081 5085 0
-5060 -5081 0
-5061 -5085 0
-5090 248 249 250 251 252 0
-248 5090 0
-249 5090 0
-250 5090 0
-251 5090 0
-252 5090 0
-5091 255 256 257 258 259 0
-255 5091 0
-256 5091 0
-257 5091 0
-258 5091 0
-259 5091 0
-5092 262 263 264 265 266 0
-262 5092 0
-263 5092 0
-264 5092 0
-265 5092 0
-266 5092 0
-5093 269 270 271 272 273 0
-269 5093 0
-270 5093 0
-271 5093 0
-272 5093 0
-273 5093 0
-5094 276 277 278 279 280 0
-276 5094 0
-277 5094 0
-278 5094 0
-279 5094 0
-280 5094 0
-5095 283 284 285 286 287 0
-283 5095 0
-284 5095 0
-285 5095 0
-286 5095 0
-287 5095 0
-5096 290 291 292 293 294 0
-290 5096 0
-291 5096 0
-292 5096 0
-293 5096 0
-294 5096 0
-5090 5097 0
-5098 0
-5099 0
-5100 0
-5101 0
-5091 5102 0
-5097 5102 0
-5091 -5097 5103 0
-5098 5103 0
-5091 -5098 5104 0
-5099 5104 0
-5091 -5099 5105 0
-5100 5105 0
-5091 -5100 5106 0
-5101 5106 0
-5091 -5101 0
-5092 5107 0
-5102 5107 0
-5092 -5102 5108 0
-5103 5108 0
-5092 -5103 5109 0
-5104 5109 0
-5092 -5104 5110 0
-5105 5110 0
-5092 -5105 5111 0
-5106 5111 0
-5092 -5106 0
-5093 5112 0
-5107 5112 0
-5093 -5107 5113 0
-5108 5113 0
-5093 -5108 5114 0
-5109 5114 0
-5093 -5109 5115 0
-5110 5115 0
-5093 -5110 5116 0
-5111 5116 0
-5093 -5111 0
-5094 5117 0
-5112 5117 0
-5094 -5112 5118 0
-5113 5118 0
-5094 -5113 5119 0
-5114 5119 0
-5094 -5114 5120 0
-5115 5120 0
-5094 -5115 5121 0
-5116 5121 0
-5094 -5116 0
-5095 5122 0
-5117 5122 0
-5095 -5117 5123 0
-5118 5123 0
-5095 -5118 5124 0
-5119 5124 0
-5095 -5119 5125 0
-5120 5125 0
-5095 -5120 5126 0
-5121 5126 0
-5095 -5121 0
-5096 -5126 0
-5132 249 0
-249 5132 0
-5133 256 0
-256 5133 0
-5134 263 0
-263 5134 0
-5135 270 0
-270 5135 0
-5136 277 0
-277 5136 0
-5137 284 0
-284 5137 0
-5138 291 0
-291 5138 0
-5132 5139 0
-5133 5140 0
-5139 5140 0
-5133 -5139 0
-5134 5141 0
-5140 5141 0
-5134 -5140 0
-5135 5142 0
-5141 5142 0
-5135 -5141 0
-5136 5143 0
-5142 5143 0
-5136 -5142 0
-5137 5144 0
-5143 5144 0
-5137 -5143 0
-5138 -5144 0
-5146 249 250 0
-249 5146 0
-250 5146 0
-5147 256 257 0
-256 5147 0
-257 5147 0
-5148 263 264 0
-263 5148 0
-264 5148 0
-5149 270 271 0
-270 5149 0
-271 5149 0
-5150 277 278 0
-277 5150 0
-278 5150 0
-5151 284 285 0
-284 5151 0
-285 5151 0
-5152 291 292 0
-291 5152 0
-292 5152 0
-5146 5153 0
-5154 0
-5147 5155 0
-5153 5155 0
-5147 -5153 5156 0
-5154 5156 0
-5147 -5154 0
-5148 5157 0
-5155 5157 0
-5148 -5155 5158 0
-5156 5158 0
-5148 -5156 0
-5149 5159 0
-5157 5159 0
-5149 -5157 5160 0
-5158 5160 0
-5149 -5158 0
-5150 5161 0
-5159 5161 0
-5150 -5159 5162 0
-5160 5162 0
-5150 -5160 0
-5151 5163 0
-5161 5163 0
-5151 -5161 5164 0
-5162 5164 0
-5151 -5162 0
-5152 -5164 0
-5167 249 250 251 0
-249 5167 0
-250 5167 0
-251 5167 0
-5168 256 257 258 0
-256 5168 0
-257 5168 0
-258 5168 0
-5169 263 264 265 0
-263 5169 0
-264 5169 0
-265 5169 0
-5170 270 271 272 0
-270 5170 0
-271 5170 0
-272 5170 0
-5171 277 278 279 0
-277 5171 0
-278 5171 0
-279 5171 0
-5172 284 285 286 0
-284 5172 0
-285 5172 0
-286 5172 0
-5173 291 292 293 0
-291 5173 0
-292 5173 0
-293 5173 0
-5167 5174 0
-5175 0
-5176 0
-5168 5177 0
-5174 5177 0
-5168 -5174 5178 0
-5175 5178 0
-5168 -5175 5179 0
-5176 5179 0
-5168 -5176 0
-5169 5180 0
-5177 5180 0
-5169 -5177 5181 0
-5178 5181 0
-5169 -5178 5182 0
-5179 5182 0
-5169 -5179 0
-5170 5183 0
-5180 5183 0
-5170 -5180 5184 0
-5181 5184 0
-5170 -5181 5185 0
-5182 5185 0
-5170 -5182 0
-5171 5186 0
-5183 5186 0
-5171 -5183 5187 0
-5184 5187 0
-5171 -5184 5188 0
-5185 5188 0
-5171 -5185 0
-5172 5189 0
-5186 5189 0
-5172 -5186 5190 0
-5187 5190 0
-5172 -5187 5191 0
-5188 5191 0
-5172 -5188 0
-5173 -5191 0
-5195 249 250 251 252 0
-249 5195 0
-250 5195 0
-251 5195 0
-252 5195 0
-5196 256 257 258 259 0
-256 5196 0
-257 5196 0
-258 5196 0
-259 5196 0
-5197 263 264 265 266 0
-263 5197 0
-264 5197 0
-265 5197 0
-266 5197 0
-5198 270 271 272 273 0
-270 5198 0
-271 5198 0
-272 5198 0
-273 5198 0
-5199 277 278 279 280 0
-277 5199 0
-278 5199 0
-279 5199 0
-280 5199 0
-5200 284 285 286 287 0
-284 5200 0
-285 5200 0
-286 5200 0
-287 5200 0
-5201 291 292 293 294 0
-291 5201 0
-292 5201 0
-293 5201 0
-294 5201 0
-5195 5202 0
-5203 0
-5204 0
-5205 0
-5196 5206 0
-5202 5206 0
-5196 -5202 5207 0
-5203 5207 0
-5196 -5203 5208 0
-5204 5208 0
-5196 -5204 5209 0
-5205 5209 0
-5196 -5205 0
-5197 5210 0
-5206 5210 0
-5197 -5206 5211 0
-5207 5211 0
-5197 -5207 5212 0
-5208 5212 0
-5197 -5208 5213 0
-5209 5213 0
-5197 -5209 0
-5198 5214 0
-5210 5214 0
-5198 -5210 5215 0
-5211 5215 0
-5198 -5211 5216 0
-5212 5216 0
-5198 -5212 5217 0
-5213 5217 0
-5198 -5213 0
-5199 5218 0
-5214 5218 0
-5199 -5214 5219 0
-5215 5219 0
-5199 -5215 5220 0
-5216 5220 0
-5199 -5216 5221 0
-5217 5221 0
-5199 -5217 0
-5200 5222 0
-5218 5222 0
-5200 -5218 5223 0
-5219 5223 0
-5200 -5219 5224 0
-5220 5224 0
-5200 -5220 5225 0
-5221 5225 0
-5200 -5221 0
-5201 -5225 0
-5230 250 0
-250 5230 0
-5231 257 0
-257 5231 0
-5232 264 0
-264 5232 0
-5233 271 0
-271 5233 0
-5234 278 0
-278 5234 0
-5235 285 0
-285 5235 0
-5236 292 0
-292 5236 0
-5230 5237 0
-5231 5238 0
-5237 5238 0
-5231 -5237 0
-5232 5239 0
-5238 5239 0
-5232 -5238 0
-5233 5240 0
-5239 5240 0
-5233 -5239 0
-5234 5241 0
-5240 5241 0
-5234 -5240 0
-5235 5242 0
-5241 5242 0
-5235 -5241 0
-5236 -5242 0
-5244 250 251 0
-250 5244 0
-251 5244 0
-5245 257 258 0
-257 5245 0
-258 5245 0
-5246 264 265 0
-264 5246 0
-265 5246 0
-5247 271 272 0
-271 5247 0
-272 5247 0
-5248 278 279 0
-278 5248 0
-279 5248 0
-5249 285 286 0
-285 5249 0
-286 5249 0
-5250 292 293 0
-292 5250 0
-293 5250 0
-5244 5251 0
-5252 0
-5245 5253 0
-5251 5253 0
-5245 -5251 5254 0
-5252 5254 0
-5245 -5252 0
-5246 5255 0
-5253 5255 0
-5246 -5253 5256 0
-5254 5256 0
-5246 -5254 0
-5247 5257 0
-5255 5257 0
-5247 -5255 5258 0
-5256 5258 0
-5247 -5256 0
-5248 5259 0
-5257 5259 0
-5248 -5257 5260 0
-5258 5260 0
-5248 -5258 0
-5249 5261 0
-5259 5261 0
-5249 -5259 5262 0
-5260 5262 0
-5249 -5260 0
-5250 -5262 0
-5265 250 251 252 0
-250 5265 0
-251 5265 0
-252 5265 0
-5266 257 258 259 0
-257 5266 0
-258 5266 0
-259 5266 0
-5267 264 265 266 0
-264 5267 0
-265 5267 0
-266 5267 0
-5268 271 272 273 0
-271 5268 0
-272 5268 0
-273 5268 0
-5269 278 279 280 0
-278 5269 0
-279 5269 0
-280 5269 0
-5270 285 286 287 0
-285 5270 0
-286 5270 0
-287 5270 0
-5271 292 293 294 0
-292 5271 0
-293 5271 0
-294 5271 0
-5265 5272 0
-5273 0
-5274 0
-5266 5275 0
-5272 5275 0
-5266 -5272 5276 0
-5273 5276 0
-5266 -5273 5277 0
-5274 5277 0
-5266 -5274 0
-5267 5278 0
-5275 5278 0
-5267 -5275 5279 0
-5276 5279 0
-5267 -5276 5280 0
-5277 5280 0
-5267 -5277 0
-5268 5281 0
-5278 5281 0
-5268 -5278 5282 0
-5279 5282 0
-5268 -5279 5283 0
-5280 5283 0
-5268 -5280 0
-5269 5284 0
-5281 5284 0
-5269 -5281 5285 0
-5282 5285 0
-5269 -5282 5286 0
-5283 5286 0
-5269 -5283 0
-5270 5287 0
-5284 5287 0
-5270 -5284 5288 0
-5285 5288 0
-5270 -5285 5289 0
-5286 5289 0
-5270 -5286 0
-5271 -5289 0
-5293 251 0
-251 5293 0
-5294 258 0
-258 5294 0
-5295 265 0
-265 5295 0
-5296 272 0
-272 5296 0
-5297 279 0
-279 5297 0
-5298 286 0
-286 5298 0
-5299 293 0
-293 5299 0
-5293 5300 0
-5294 5301 0
-5300 5301 0
-5294 -5300 0
-5295 5302 0
-5301 5302 0
-5295 -5301 0
-5296 5303 0
-5302 5303 0
-5296 -5302 0
-5297 5304 0
-5303 5304 0
-5297 -5303 0
-5298 5305 0
-5304 5305 0
-5298 -5304 0
-5299 -5305 0
-5307 251 252 0
-251 5307 0
-252 5307 0
-5308 258 259 0
-258 5308 0
-259 5308 0
-5309 265 266 0
-265 5309 0
-266 5309 0
-5310 272 273 0
-272 5310 0
-273 5310 0
-5311 279 280 0
-279 5311 0
-280 5311 0
-5312 286 287 0
-286 5312 0
-287 5312 0
-5313 293 294 0
-293 5313 0
-294 5313 0
-5307 5314 0
-5315 0
-5308 5316 0
-5314 5316 0
-5308 -5314 5317 0
-5315 5317 0
-5308 -5315 0
-5309 5318 0
-5316 5318 0
-5309 -5316 5319 0
-5317 5319 0
-5309 -5317 0
-5310 5320 0
-5318 5320 0
-5310 -5318 5321 0
-5319 5321 0
-5310 -5319 0
-5311 5322 0
-5320 5322 0
-5311 -5320 5323 0
-5321 5323 0
-5311 -5321 0
-5312 5324 0
-5322 5324 0
-5312 -5322 5325 0
-5323 5325 0
-5312 -5323 0
-5313 -5325 0
-5328 252 0
-252 5328 0
-5329 259 0
-259 5329 0
-5330 266 0
-266 5330 0
-5331 273 0
-273 5331 0
-5332 280 0
-280 5332 0
-5333 287 0
-287 5333 0
-5334 294 0
-294 5334 0
-5328 5335 0
-5329 5336 0
-5335 5336 0
-5329 -5335 0
-5330 5337 0
-5336 5337 0
-5330 -5336 0
-5331 5338 0
-5337 5338 0
-5331 -5337 0
-5332 5339 0
-5338 5339 0
-5332 -5338 0
-5333 5340 0
-5339 5340 0
-5333 -5339 0
-5334 -5340 0
-246 5342 0
-253 5343 0
-5342 5343 0
-253 -5342 0
-260 5344 0
-5343 5344 0
-260 -5343 0
-267 5345 0
-5344 5345 0
-267 -5344 0
-274 5346 0
-5345 5346 0
-274 -5345 0
-281 5347 0
-5346 5347 0
-281 -5346 0
-288 -5347 0
246 253 260 267 274 281 288 0
-247 5349 0
-254 5350 0
-5349 5350 0
-254 -5349 0
-261 5351 0
-5350 5351 0
-261 -5350 0
-268 5352 0
-5351 5352 0
-268 -5351 0
-275 5353 0
-5352 5353 0
-275 -5352 0
-282 5354 0
-5353 5354 0
-282 -5353 0
-289 -5354 0
247 254 261 268 275 282 289 0
-248 5356 0
-255 5357 0
-5356 5357 0
-255 -5356 0
-262 5358 0
-5357 5358 0
-262 -5357 0
-269 5359 0
-5358 5359 0
-269 -5358 0
-276 5360 0
-5359 5360 0
-276 -5359 0
-283 5361 0
-5360 5361 0
-283 -5360 0
-290 -5361 0
248 255 262 269 276 283 290 0
-249 5363 0
-256 5364 0
-5363 5364 0
-256 -5363 0
-263 5365 0
-5364 5365 0
-263 -5364 0
-270 5366 0
-5365 5366 0
-270 -5365 0
-277 5367 0
-5366 5367 0
-277 -5366 0
-284 5368 0
-5367 5368 0
-284 -5367 0
-291 -5368 0
249 256 263 270 277 284 291 0
-250 5370 0
-257 5371 0
-5370 5371 0
-257 -5370 0
-264 5372 0
-5371 5372 0
-264 -5371 0
-271 5373 0
-5372 5373 0
-271 -5372 0
-278 5374 0
-5373 5374 0
-278 -5373 0
-285 5375 0
-5374 5375 0
-285 -5374 0
-292 -5375 0
250 257 264 271 278 285 292 0
-251 5377 0
-258 5378 0
-5377 5378 0
-258 -5377 0
-265 5379 0
-5378 5379 0
-265 -5378 0
-272 5380 0
-5379 5380 0
-272 -5379 0
-279 5381 0
-5380 5381 0
-279 -5380 0
-286 5382 0
-5381 5382 0
-286 -5381 0
-293 -5382 0
251 258 265 272 279 286 293 0
-252 5384 0
-259 5385 0
-5384 5385 0
-259 -5384 0
-266 5386 0
-5385 5386 0
-266 -5385 0
-273 5387 0
-5386 5387 0
-273 -5386 0
-280 5388 0
-5387 5388 0
-280 -5387 0
-287 5389 0
-5388 5389 0
-287 -5388 0
-294 -5389 0
252 259 266 273 280 287 294 0
-5391 295 0
-295 5391 0
-5392 302 0
-302 5392 0
-5393 309 0
-309 5393 0
-5394 316 0
-316 5394 0
-5395 323 0
-323 5395 0
-5396 330 0
-330 5396 0
-5397 337 0
-337 5397 0
-5391 5398 0
-5392 5399 0
-5398 5399 0
-5392 -5398 0
-5393 5400 0
-5399 5400 0
-5393 -5399 0
-5394 5401 0
-5400 5401 0
-5394 -5400 0
-5395 5402 0
-5401 5402 0
-5395 -5401 0
-5396 5403 0
-5402 5403 0
-5396 -5402 0
-5397 -5403 0
-5405 295 296 0
-295 5405 0
-296 5405 0
-5406 302 303 0
-302 5406 0
-303 5406 0
-5407 309 310 0
-309 5407 0
-310 5407 0
-5408 316 317 0
-316 5408 0
-317 5408 0
-5409 323 324 0
-323 5409 0
-324 5409 0
-5410 330 331 0
-330 5410 0
-331 5410 0
-5411 337 338 0
-337 5411 0
-338 5411 0
-5405 5412 0
-5413 0
-5406 5414 0
-5412 5414 0
-5406 -5412 5415 0
-5413 5415 0
-5406 -5413 0
-5407 5416 0
-5414 5416 0
-5407 -5414 5417 0
-5415 5417 0
-5407 -5415 0
-5408 5418 0
-5416 5418 0
-5408 -5416 5419 0
-5417 5419 0
-5408 -5417 0
-5409 5420 0
-5418 5420 0
-5409 -5418 5421 0
-5419 5421 0
-5409 -5419 0
-5410 5422 0
-5420 5422 0
-5410 -5420 5423 0
-5421 5423 0
-5410 -5421 0
-5411 -5423 0
-5426 295 296 297 0
-295 5426 0
-296 5426 0
-297 5426 0
-5427 302 303 304 0
-302 5427 0
-303 5427 0
-304 5427 0
-5428 309 310 311 0
-309 5428 0
-310 5428 0
-311 5428 0
-5429 316 317 318 0
-316 5429 0
-317 5429 0
-318 5429 0
-5430 323 324 325 0
-323 5430 0
-324 5430 0
-325 5430 0
-5431 330 331 332 0
-330 5431 0
-331 5431 0
-332 5431 0
-5432 337 338 339 0
-337 5432 0
-338 5432 0
-339 5432 0
-5426 5433 0
-5434 0
-5435 0
-5427 5436 0
-5433 5436 0
-5427 -5433 5437 0
-5434 5437 0
-5427 -5434 5438 0
-5435 5438 0
-5427 -5435 0
-5428 5439 0
-5436 5439 0
-5428 -5436 5440 0
-5437 5440 0
-5428 -5437 5441 0
-5438 5441 0
-5428 -5438 0
-5429 5442 0
-5439 5442 0
-5429 -5439 5443 0
-5440 5443 0
-5429 -5440 5444 0
-5441 5444 0
-5429 -5441 0
-5430 5445 0
-5442 5445 0
-5430 -5442 5446 0
-5443 5446 0
-5430 -5443 5447 0
-5444 5447 0
-5430 -5444 0
-5431 5448 0
-5445 5448 0
-5431 -5445 5449 0
-5446 5449 0
-5431 -5446 5450 0
-5447 5450 0
-5431 -5447 0
-5432 -5450 0
-5454 295 296 297 298 0
-295 5454 0
-296 5454 0
-297 5454 0
-298 5454 0
-5455 302 303 304 305 0
-302 5455 0
-303 5455 0
-304 5455 0
-305 5455 0
-5456 309 310 311 312 0
-309 5456 0
-310 5456 0
-311 5456 0
-312 5456 0
-5457 316 317 318 319 0
-316 5457 0
-317 5457 0
-318 5457 0
-319 5457 0
-5458 323 324 325 326 0
-323 5458 0
-324 5458 0
-325 5458 0
-326 5458 0
-5459 330 331 332 333 0
-330 5459 0
-331 5459 0
-332 5459 0
-333 5459 0
-5460 337 338 339 340 0
-337 5460 0
-338 5460 0
-339 5460 0
-340 5460 0
-5454 5461 0
-5462 0
-5463 0
-5464 0
-5455 5465 0
-5461 5465 0
-5455 -5461 5466 0
-5462 5466 0
-5455 -5462 5467 0
-5463 5467 0
-5455 -5463 5468 0
-5464 5468 0
-5455 -5464 0
-5456 5469 0
-5465 5469 0
-5456 -5465 5470 0
-5466 5470 0
-5456 -5466 5471 0
-5467 5471 0
-5456 -5467 5472 0
-5468 5472 0
-5456 -5468 0
-5457 5473 0
-5469 5473 0
-5457 -5469 5474 0
-5470 5474 0
-5457 -5470 5475 0
-5471 5475 0
-5457 -5471 5476 0
-5472 5476 0
-5457 -5472 0
-5458 5477 0
-5473 5477 0
-5458 -5473 5478 0
-5474 5478 0
-5458 -5474 5479 0
-5475 5479 0
-5458 -5475 5480 0
-5476 5480 0
-5458 -5476 0
-5459 5481 0
-5477 5481 0
-5459 -5477 5482 0
-5478 5482 0
-5459 -5478 5483 0
-5479 5483 0
-5459 -5479 5484 0
-5480 5484 0
-5459 -5480 0
-5460 -5484 0
-5489 295 296 297 298 299 0
-295 5489 0
-296 5489 0
-297 5489 0
-298 5489 0
-299 5489 0
-5490 302 303 304 305 306 0
-302 5490 0
-303 5490 0
-304 5490 0
-305 5490 0
-306 5490 0
-5491 309 310 311 312 313 0
-309 5491 0
-310 5491 0
-311 5491 0
-312 5491 0
-313 5491 0
-5492 316 317 318 319 320 0
-316 5492 0
-317 5492 0
-318 5492 0
-319 5492 0
-320 5492 0
-5493 323 324 325 326 327 0
-323 5493 0
-324 5493 0
-325 5493 0
-326 5493 0
-327 5493 0
-5494 330 331 332 333 334 0
-330 5494 0
-331 5494 0
-332 5494 0
-333 5494 0
-334 5494 0
-5495 337 338 339 340 341 0
-337 5495 0
-338 5495 0
-339 5495 0
-340 5495 0
-341 5495 0
-5489 5496 0
-5497 0
-5498 0
-5499 0
-5500 0
-5490 5501 0
-5496 5501 0
-5490 -5496 5502 0
-5497 5502 0
-5490 -5497 5503 0
-5498 5503 0
-5490 -5498 5504 0
-5499 5504 0
-5490 -5499 5505 0
-5500 5505 0
-5490 -5500 0
-5491 5506 0
-5501 5506 0
-5491 -5501 5507 0
-5502 5507 0
-5491 -5502 5508 0
-5503 5508 0
-5491 -5503 5509 0
-5504 5509 0
-5491 -5504 5510 0
-5505 5510 0
-5491 -5505 0
-5492 5511 0
-5506 5511 0
-5492 -5506 5512 0
-5507 5512 0
-5492 -5507 5513 0
-5508 5513 0
-5492 -5508 5514 0
-5509 5514 0
-5492 -5509 5515 0
-5510 5515 0
-5492 -5510 0
-5493 5516 0
-5511 5516 0
-5493 -5511 5517 0
-5512 5517 0
-5493 -5512 5518 0
-5513 5518 0
-5493 -5513 5519 0
-5514 5519 0
-5493 -5514 5520 0
-5515 5520 0
-5493 -5515 0
-5494 5521 0
-5516 5521 0
-5494 -5516 5522 0
-5517 5522 0
-5494 -5517 5523 0
-5518 5523 0
-5494 -5518 5524 0
-5519 5524 0
-5494 -5519 5525 0
-5520 5525 0
-5494 -5520 0
-5495 -5525 0
-5531 295 296 297 298 299 300 0
-295 5531 0
-296 5531 0
-297 5531 0
-298 5531 0
-299 5531 0
-300 5531 0
-5532 302 303 304 305 306 307 0
-302 5532 0
-303 5532 0
-304 5532 0
-305 5532 0
-306 5532 0
-307 5532 0
-5533 309 310 311 312 313 314 0
-309 5533 0
-310 5533 0
-311 5533 0
-312 5533 0
-313 5533 0
-314 5533 0
-5534 316 317 318 319 320 321 0
-316 5534 0
-317 5534 0
-318 5534 0
-319 5534 0
-320 5534 0
-321 5534 0
-5535 323 324 325 326 327 328 0
-323 5535 0
-324 5535 0
-325 5535 0
-326 5535 0
-327 5535 0
-328 5535 0
-5536 330 331 332 333 334 335 0
-330 5536 0
-331 5536 0
-332 5536 0
-333 5536 0
-334 5536 0
-335 5536 0
-5537 337 338 339 340 341 342 0
-337 5537 0
-338 5537 0
-339 5537 0
-340 5537 0
-341 5537 0
-342 5537 0
-5531 5538 0
-5539 0
-5540 0
-5541 0
-5542 0
-5543 0
-5532 5544 0
-5538 5544 0
-5532 -5538 5545 0
-5539 5545 0
-5532 -5539 5546 0
-5540 5546 0
-5532 -5540 5547 0
-5541 5547 0
-5532 -5541 5548 0
-5542 5548 0
-5532 -5542 5549 0
-5543 5549 0
-5532 -5543 0
-5533 5550 0
-5544 5550 0
-5533 -5544 5551 0
-5545 5551 0
-5533 -5545 5552 0
-5546 5552 0
-5533 -5546 5553 0
-5547 5553 0
-5533 -5547 5554 0
-5548 5554 0
-5533 -5548 5555 0
-5549 5555 0
-5533 -5549 0
-5534 5556 0
-5550 5556 0
-5534 -5550 5557 0
-5551 5557 0
-5534 -5551 5558 0
-5552 5558 0
-5534 -5552 5559 0
-5553 5559 0
-5534 -5553 5560 0
-5554 5560 0
-5534 -5554 5561 0
-5555 5561 0
-5534 -5555 0
-5535 5562 0
-5556 5562 0
-5535 -5556 5563 0
-5557 5563 0
-5535 -5557 5564 0
-5558 5564 0
-5535 -5558 5565 0
-5559 5565 0
-5535 -5559 5566 0
-5560 5566 0
-5535 -5560 5567 0
-5561 5567 0
-5535 -5561 0
-5536 5568 0
-5562 5568 0
-5536 -5562 5569 0
-5563 5569 0
-5536 -5563 5570 0
-5564 5570 0
-5536 -5564 5571 0
-5565 5571 0
-5536 -5565 5572 0
-5566 5572 0
-5536 -5566 5573 0
-5567 5573 0
-5536 -5567 0
-5537 -5573 0
-5580 295 296 297 298 299 300 301 0
-295 5580 0
-296 5580 0
-297 5580 0
-298 5580 0
-299 5580 0
-300 5580 0
-301 5580 0
-5581 302 303 304 305 306 307 308 0
-302 5581 0
-303 5581 0
-304 5581 0
-305 5581 0
-306 5581 0
-307 5581 0
-308 5581 0
-5582 309 310 311 312 313 314 315 0
-309 5582 0
-310 5582 0
-311 5582 0
-312 5582 0
-313 5582 0
-314 5582 0
-315 5582 0
-5583 316 317 318 319 320 321 322 0
-316 5583 0
-317 5583 0
-318 5583 0
-319 5583 0
-320 5583 0
-321 5583 0
-322 5583 0
-5584 323 324 325 326 327 328 329 0
-323 5584 0
-324 5584 0
-325 5584 0
-326 5584 0
-327 5584 0
-328 5584 0
-329 5584 0
-5585 330 331 332 333 334 335 336 0
-330 5585 0
-331 5585 0
-332 5585 0
-333 5585 0
-334 5585 0
-335 5585 0
-336 5585 0
-5586 337 338 339 340 341 342 343 0
-337 5586 0
-338 5586 0
-339 5586 0
-340 5586 0
-341 5586 0
-342 5586 0
-343 5586 0
-5587 296 0
-296 5587 0
-5588 303 0
-303 5588 0
-5589 310 0
-310 5589 0
-5590 317 0
-317 5590 0
-5591 324 0
-324 5591 0
-5592 331 0
-331 5592 0
-5593 338 0
-338 5593 0
-5587 5594 0
-5588 5595 0
-5594 5595 0
-5588 -5594 0
-5589 5596 0
-5595 5596 0
-5589 -5595 0
-5590 5597 0
-5596 5597 0
-5590 -5596 0
-5591 5598 0
-5597 5598 0
-5591 -5597 0
-5592 5599 0
-5598 5599 0
-5592 -5598 0
-5593 -5599 0
-5601 296 297 0
-296 5601 0
-297 5601 0
-5602 303 304 0
-303 5602 0
-304 5602 0
-5603 310 311 0
-310 5603 0
-311 5603 0
-5604 317 318 0
-317 5604 0
-318 5604 0
-5605 324 325 0
-324 5605 0
-325 5605 0
-5606 331 332 0
-331 5606 0
-332 5606 0
-5607 338 339 0
-338 5607 0
-339 5607 0
-5601 5608 0
-5609 0
-5602 5610 0
-5608 5610 0
-5602 -5608 5611 0
-5609 5611 0
-5602 -5609 0
-5603 5612 0
-5610 5612 0
-5603 -5610 5613 0
-5611 5613 0
-5603 -5611 0
-5604 5614 0
-5612 5614 0
-5604 -5612 5615 0
-5613 5615 0
-5604 -5613 0
-5605 5616 0
-5614 5616 0
-5605 -5614 5617 0
-5615 5617 0
-5605 -5615 0
-5606 5618 0
-5616 5618 0
-5606 -5616 5619 0
-5617 5619 0
-5606 -5617 0
-5607 -5619 0
-5622 296 297 298 0
-296 5622 0
-297 5622 0
-298 5622 0
-5623 303 304 305 0
-303 5623 0
-304 5623 0
-305 5623 0
-5624 310 311 312 0
-310 5624 0
-311 5624 0
-312 5624 0
-5625 317 318 319 0
-317 5625 0
-318 5625 0
-319 5625 0
-5626 324 325 326 0
-324 5626 0
-325 5626 0
-326 5626 0
-5627 331 332 333 0
-331 5627 0
-332 5627 0
-333 5627 0
-5628 338 339 340 0
-338 5628 0
-339 5628 0
-340 5628 0
-5622 5629 0
-5630 0
-5631 0
-5623 5632 0
-5629 5632 0
-5623 -5629 5633 0
-5630 5633 0
-5623 -5630 5634 0
-5631 5634 0
-5623 -5631 0
-5624 5635 0
-5632 5635 0
-5624 -5632 5636 0
-5633 5636 0
-5624 -5633 5637 0
-5634 5637 0
-5624 -5634 0
-5625 5638 0
-5635 5638 0
-5625 -5635 5639 0
-5636 5639 0
-5625 -5636 5640 0
-5637 5640 0
-5625 -5637 0
-5626 5641 0
-5638 5641 0
-5626 -5638 5642 0
-5639 5642 0
-5626 -5639 5643 0
-5640 5643 0
-5626 -5640 0
-5627 5644 0
-5641 5644 0
-5627 -5641 5645 0
-5642 5645 0
-5627 -5642 5646 0
-5643 5646 0
-5627 -5643 0
-5628 -5646 0
-5650 296 297 298 299 0
-296 5650 0
-297 5650 0
-298 5650 0
-299 5650 0
-5651 303 304 305 306 0
-303 5651 0
-304 5651 0
-305 5651 0
-306 5651 0
-5652 310 311 312 313 0
-310 5652 0
-311 5652 0
-312 5652 0
-313 5652 0
-5653 317 318 319 320 0
-317 5653 0
-318 5653 0
-319 5653 0
-320 5653 0
-5654 324 325 326 327 0
-324 5654 0
-325 5654 0
-326 5654 0
-327 5654 0
-5655 331 332 333 334 0
-331 5655 0
-332 5655 0
-333 5655 0
-334 5655 0
-5656 338 339 340 341 0
-338 5656 0
-339 5656 0
-340 5656 0
-341 5656 0
-5650 5657 0
-5658 0
-5659 0
-5660 0
-5651 5661 0
-5657 5661 0
-5651 -5657 5662 0
-5658 5662 0
-5651 -5658 5663 0
-5659 5663 0
-5651 -5659 5664 0
-5660 5664 0
-5651 -5660 0
-5652 5665 0
-5661 5665 0
-5652 -5661 5666 0
-5662 5666 0
-5652 -5662 5667 0
-5663 5667 0
-5652 -5663 5668 0
-5664 5668 0
-5652 -5664 0
-5653 5669 0
-5665 5669 0
-5653 -5665 5670 0
-5666 5670 0
-5653 -5666 5671 0
-5667 5671 0
-5653 -5667 5672 0
-5668 5672 0
-5653 -5668 0
-5654 5673 0
-5669 5673 0
-5654 -5669 5674 0
-5670 5674 0
-5654 -5670 5675 0
-5671 5675 0
-5654 -5671 5676 0
-5672 5676 0
-5654 -5672 0
-5655 5677 0
-5673 5677 0
-5655 -5673 5678 0
-5674 5678 0
-5655 -5674 5679 0
-5675 5679 0
-5655 -5675 5680 0
-5676 5680 0
-5655 -5676 0
-5656 -5680 0
-5685 296 297 298 299 300 0
-296 5685 0
-297 5685 0
-298 5685 0
-299 5685 0
-300 5685 0
-5686 303 304 305 306 307 0
-303 5686 0
-304 5686 0
-305 5686 0
-306 5686 0
-307 5686 0
-5687 310 311 312 313 314 0
-310 5687 0
-311 5687 0
-312 5687 0
-313 5687 0
-314 5687 0
-5688 317 318 319 320 321 0
-317 5688 0
-318 5688 0
-319 5688 0
-320 5688 0
-321 5688 0
-5689 324 325 326 327 328 0
-324 5689 0
-325 5689 0
-326 5689 0
-327 5689 0
-328 5689 0
-5690 331 332 333 334 335 0
-331 5690 0
-332 5690 0
-333 5690 0
-334 5690 0
-335 5690 0
-5691 338 339 340 341 342 0
-338 5691 0
-339 5691 0
-340 5691 0
-341 5691 0
-342 5691 0
-5685 5692 0
-5693 0
-5694 0
-5695 0
-5696 0
-5686 5697 0
-5692 5697 0
-5686 -5692 5698 0
-5693 5698 0
-5686 -5693 5699 0
-5694 5699 0
-5686 -5694 5700 0
-5695 5700 0
-5686 -5695 5701 0
-5696 5701 0
-5686 -5696 0
-5687 5702 0
-5697 5702 0
-5687 -5697 5703 0
-5698 5703 0
-5687 -5698 5704 0
-5699 5704 0
-5687 -5699 5705 0
-5700 5705 0
-5687 -5700 5706 0
-5701 5706 0
-5687 -5701 0
-5688 5707 0
-5702 5707 0
-5688 -5702 5708 0
-5703 5708 0
-5688 -5703 5709 0
-5704 5709 0
-5688 -5704 5710 0
-5705 5710 0
-5688 -5705 5711 0
-5706 5711 0
-5688 -5706 0
-5689 5712 0
-5707 5712 0
-5689 -5707 5713 0
-5708 5713 0
-5689 -5708 5714 0
-5709 5714 0
-5689 -5709 5715 0
-5710 5715 0
-5689 -5710 5716 0
-5711 5716 0
-5689 -5711 0
-5690 5717 0
-5712 5717 0
-5690 -5712 5718 0
-5713 5718 0
-5690 -5713 5719 0
-5714 5719 0
-5690 -5714 5720 0
-5715 5720 0
-5690 -5715 5721 0
-5716 5721 0
-5690 -5716 0
-5691 -5721 0
-5727 296 297 298 299 300 301 0
-296 5727 0
-297 5727 0
-298 5727 0
-299 5727 0
-300 5727 0
-301 5727 0
-5728 303 304 305 306 307 308 0
-303 5728 0
-304 5728 0
-305 5728 0
-306 5728 0
-307 5728 0
-308 5728 0
-5729 310 311 312 313 314 315 0
-310 5729 0
-311 5729 0
-312 5729 0
-313 5729 0
-314 5729 0
-315 5729 0
-5730 317 318 319 320 321 322 0
-317 5730 0
-318 5730 0
-319 5730 0
-320 5730 0
-321 5730 0
-322 5730 0
-5731 324 325 326 327 328 329 0
-324 5731 0
-325 5731 0
-326 5731 0
-327 5731 0
-328 5731 0
-329 5731 0
-5732 331 332 333 334 335 336 0
-331 5732 0
-332 5732 0
-333 5732 0
-334 5732 0
-335 5732 0
-336 5732 0
-5733 338 339 340 341 342 343 0
-338 5733 0
-339 5733 0
-340 5733 0
-341 5733 0
-342 5733 0
-343 5733 0
-5727 5734 0
-5735 0
-5736 0
-5737 0
-5738 0
-5739 0
-5728 5740 0
-5734 5740 0
-5728 -5734 5741 0
-5735 5741 0
-5728 -5735 5742 0
-5736 5742 0
-5728 -5736 5743 0
-5737 5743 0
-5728 -5737 5744 0
-5738 5744 0
-5728 -5738 5745 0
-5739 5745 0
-5728 -5739 0
-5729 5746 0
-5740 5746 0
-5729 -5740 5747 0
-5741 5747 0
-5729 -5741 5748 0
-5742 5748 0
-5729 -5742 5749 0
-5743 5749 0
-5729 -5743 5750 0
-5744 5750 0
-5729 -5744 5751 0
-5745 5751 0
-5729 -5745 0
-5730 5752 0
-5746 5752 0
-5730 -5746 5753 0
-5747 5753 0
-5730 -5747 5754 0
-5748 5754 0
-5730 -5748 5755 0
-5749 5755 0
-5730 -5749 5756 0
-5750 5756 0
-5730 -5750 5757 0
-5751 5757 0
-5730 -5751 0
-5731 5758 0
-5752 5758 0
-5731 -5752 5759 0
-5753 5759 0
-5731 -5753 5760 0
-5754 5760 0
-5731 -5754 5761 0
-5755 5761 0
-5731 -5755 5762 0
-5756 5762 0
-5731 -5756 5763 0
-5757 5763 0
-5731 -5757 0
-5732 5764 0
-5758 5764 0
-5732 -5758 5765 0
-5759 5765 0
-5732 -5759 5766 0
-5760 5766 0
-5732 -5760 5767 0
-5761 5767 0
-5732 -5761 5768 0
-5762 5768 0
-5732 -5762 5769 0
-5763 5769 0
-5732 -5763 0
-5733 -5769 0
-5776 297 0
-297 5776 0
-5777 304 0
-304 5777 0
-5778 311 0
-311 5778 0
-5779 318 0
-318 5779 0
-5780 325 0
-325 5780 0
-5781 332 0
-332 5781 0
-5782 339 0
-339 5782 0
-5776 5783 0
-5777 5784 0
-5783 5784 0
-5777 -5783 0
-5778 5785 0
-5784 5785 0
-5778 -5784 0
-5779 5786 0
-5785 5786 0
-5779 -5785 0
-5780 5787 0
-5786 5787 0
-5780 -5786 0
-5781 5788 0
-5787 5788 0
-5781 -5787 0
-5782 -5788 0
-5790 297 298 0
-297 5790 0
-298 5790 0
-5791 304 305 0
-304 5791 0
-305 5791 0
-5792 311 312 0
-311 5792 0
-312 5792 0
-5793 318 319 0
-318 5793 0
-319 5793 0
-5794 325 326 0
-325 5794 0
-326 5794 0
-5795 332 333 0
-332 5795 0
-333 5795 0
-5796 339 340 0
-339 5796 0
-340 5796 0
-5790 5797 0
-5798 0
-5791 5799 0
-5797 5799 0
-5791 -5797 5800 0
-5798 5800 0
-5791 -5798 0
-5792 5801 0
-5799 5801 0
-5792 -5799 5802 0
-5800 5802 0
-5792 -5800 0
-5793 5803 0
-5801 5803 0
-5793 -5801 5804 0
-5802 5804 0
-5793 -5802 0
-5794 5805 0
-5803 5805 0
-5794 -5803 5806 0
-5804 5806 0
-5794 -5804 0
-5795 5807 0
-5805 5807 0
-5795 -5805 5808 0
-5806 5808 0
-5795 -5806 0
-5796 -5808 0
-5811 297 298 299 0
-297 5811 0
-298 5811 0
-299 5811 0
-5812 304 305 306 0
-304 5812 0
-305 5812 0
-306 5812 0
-5813 311 312 313 0
-311 5813 0
-312 5813 0
-313 5813 0
-5814 318 319 320 0
-318 5814 0
-319 5814 0
-320 5814 0
-5815 325 326 327 0
-325 5815 0
-326 5815 0
-327 5815 0
-5816 332 333 334 0
-332 5816 0
-333 5816 0
-334 5816 0
-5817 339 340 341 0
-339 5817 0
-340 5817 0
-341 5817 0
-5811 5818 0
-5819 0
-5820 0
-5812 5821 0
-5818 5821 0
-5812 -5818 5822 0
-5819 5822 0
-5812 -5819 5823 0
-5820 5823 0
-5812 -5820 0
-5813 5824 0
-5821 5824 0
-5813 -5821 5825 0
-5822 5825 0
-5813 -5822 5826 0
-5823 5826 0
-5813 -5823 0
-5814 5827 0
-5824 5827 0
-5814 -5824 5828 0
-5825 5828 0
-5814 -5825 5829 0
-5826 5829 0
-5814 -5826 0
-5815 5830 0
-5827 5830 0
-5815 -5827 5831 0
-5828 5831 0
-5815 -5828 5832 0
-5829 5832 0
-5815 -5829 0
-5816 5833 0
-5830 5833 0
-5816 -5830 5834 0
-5831 5834 0
-5816 -5831 5835 0
-5832 5835 0
-5816 -5832 0
-5817 -5835 0
-5839 297 298 299 300 0
-297 5839 0
-298 5839 0
-299 5839 0
-300 5839 0
-5840 304 305 306 307 0
-304 5840 0
-305 5840 0
-306 5840 0
-307 5840 0
-5841 311 312 313 314 0
-311 5841 0
-312 5841 0
-313 5841 0
-314 5841 0
-5842 318 319 320 321 0
-318 5842 0
-319 5842 0
-320 5842 0
-321 5842 0
-5843 325 326 327 328 0
-325 5843 0
-326 5843 0
-327 5843 0
-328 5843 0
-5844 332 333 334 335 0
-332 5844 0
-333 5844 0
-334 5844 0
-335 5844 0
-5845 339 340 341 342 0
-339 5845 0
-340 5845 0
-341 5845 0
-342 5845 0
-5839 5846 0
-5847 0
-5848 0
-5849 0
-5840 5850 0
-5846 5850 0
-5840 -5846 5851 0
-5847 5851 0
-5840 -5847 5852 0
-5848 5852 0
-5840 -5848 5853 0
-5849 5853 0
-5840 -5849 0
-5841 5854 0
-5850 5854 0
-5841 -5850 5855 0
-5851 5855 0
-5841 -5851 5856 0
-5852 5856 0
-5841 -5852 5857 0
-5853 5857 0
-5841 -5853 0
-5842 5858 0
-5854 5858 0
-5842 -5854 5859 0
-5855 5859 0
-5842 -5855 5860 0
-5856 5860 0
-5842 -5856 5861 0
-5857 5861 0
-5842 -5857 0
-5843 5862 0
-5858 5862 0
-5843 -5858 5863 0
-5859 5863 0
-5843 -5859 5864 0
-5860 5864 0
-5843 -5860 5865 0
-5861 5865 0
-5843 -5861 0
-5844 5866 0
-5862 5866 0
-5844 -5862 5867 0
-5863 5867 0
-5844 -5863 5868 0
-5864 5868 0
-5844 -5864 5869 0
-5865 5869 0
-5844 -5865 0
-5845 -5869 0
-5874 297 298 299 300 301 0
-297 5874 0
-298 5874 0
-299 5874 0
-300 5874 0
-301 5874 0
-5875 304 305 306 307 308 0
-304 5875 0
-305 5875 0
-306 5875 0
-307 5875 0
-308 5875 0
-5876 311 312 313 314 315 0
-311 5876 0
-312 5876 0
-313 5876 0
-314 5876 0
-315 5876 0
-5877 318 319 320 321 322 0
-318 5877 0
-319 5877 0
-320 5877 0
-321 5877 0
-322 5877 0
-5878 325 326 327 328 329 0
-325 5878 0
-326 5878 0
-327 5878 0
-328 5878 0
-329 5878 0
-5879 332 333 334 335 336 0
-332 5879 0
-333 5879 0
-334 5879 0
-335 5879 0
-336 5879 0
-5880 339 340 341 342 343 0
-339 5880 0
-340 5880 0
-341 5880 0
-342 5880 0
-343 5880 0
-5874 5881 0
-5882 0
-5883 0
-5884 0
-5885 0
-5875 5886 0
-5881 5886 0
-5875 -5881 5887 0
-5882 5887 0
-5875 -5882 5888 0
-5883 5888 0
-5875 -5883 5889 0
-5884 5889 0
-5875 -5884 5890 0
-5885 5890 0
-5875 -5885 0
-5876 5891 0
-5886 5891 0
-5876 -5886 5892 0
-5887 5892 0
-5876 -5887 5893 0
-5888 5893 0
-5876 -5888 5894 0
-5889 5894 0
-5876 -5889 5895 0
-5890 5895 0
-5876 -5890 0
-5877 5896 0
-5891 5896 0
-5877 -5891 5897 0
-5892 5897 0
-5877 -5892 5898 0
-5893 5898 0
-5877 -5893 5899 0
-5894 5899 0
-5877 -5894 5900 0
-5895 5900 0
-5877 -5895 0
-5878 5901 0
-5896 5901 0
-5878 -5896 5902 0
-5897 5902 0
-5878 -5897 5903 0
-5898 5903 0
-5878 -5898 5904 0
-5899 5904 0
-5878 -5899 5905 0
-5900 5905 0
-5878 -5900 0
-5879 5906 0
-5901 5906 0
-5879 -5901 5907 0
-5902 5907 0
-5879 -5902 5908 0
-5903 5908 0
-5879 -5903 5909 0
-5904 5909 0
-5879 -5904 5910 0
-5905 5910 0
-5879 -5905 0
-5880 -5910 0
-5916 298 0
-298 5916 0
-5917 305 0
-305 5917 0
-5918 312 0
-312 5918 0
-5919 319 0
-319 5919 0
-5920 326 0
-326 5920 0
-5921 333 0
-333 5921 0
-5922 340 0
-340 5922 0
-5916 5923 0
-5917 5924 0
-5923 5924 0
-5917 -5923 0
-5918 5925 0
-5924 5925 0
-5918 -5924 0
-5919 5926 0
-5925 5926 0
-5919 -5925 0
-5920 5927 0
-5926 5927 0
-5920 -5926 0
-5921 5928 0
-5927 5928 0
-5921 -5927 0
-5922 -5928 0
-5930 298 299 0
-298 5930 0
-299 5930 0
-5931 305 306 0
-305 5931 0
-306 5931 0
-5932 312 313 0
-312 5932 0
-313 5932 0
-5933 319 320 0
-319 5933 0
-320 5933 0
-5934 326 327 0
-326 5934 0
-327 5934 0
-5935 333 334 0
-333 5935 0
-334 5935 0
-5936 340 341 0
-340 5936 0
-341 5936 0
-5930 5937 0
-5938 0
-5931 5939 0
-5937 5939 0
-5931 -5937 5940 0
-5938 5940 0
-5931 -5938 0
-5932 5941 0
-5939 5941 0
-5932 -5939 5942 0
-5940 5942 0
-5932 -5940 0
-5933 5943 0
-5941 5943 0
-5933 -5941 5944 0
-5942 5944 0
-5933 -5942 0
-5934 5945 0
-5943 5945 0
-5934 -5943 5946 0
-5944 5946 0
-5934 -5944 0
-5935 5947 0
-5945 5947 0
-5935 -5945 5948 0
-5946 5948 0
-5935 -5946 0
-5936 -5948 0
-5951 298 299 300 0
-298 5951 0
-299 5951 0
-300 5951 0
-5952 305 306 307 0
-305 5952 0
-306 5952 0
-307 5952 0
-5953 312 313 314 0
-312 5953 0
-313 5953 0
-314 5953 0
-5954 319 320 321 0
-319 5954 0
-320 5954 0
-321 5954 0
-5955 326 327 328 0
-326 5955 0
-327 5955 0
-328 5955 0
-5956 333 334 335 0
-333 5956 0
-334 5956 0
-335 5956 0
-5957 340 341 342 0
-340 5957 0
-341 5957 0
-342 5957 0
-5951 5958 0
-5959 0
-5960 0
-5952 5961 0
-5958 5961 0
-5952 -5958 5962 0
-5959 5962 0
-5952 -5959 5963 0
-5960 5963 0
-5952 -5960 0
-5953 5964 0
-5961 5964 0
-5953 -5961 5965 0
-5962 5965 0
-5953 -5962 5966 0
-5963 5966 0
-5953 -5963 0
-5954 5967 0
-5964 5967 0
-5954 -5964 5968 0
-5965 5968 0
-5954 -5965 5969 0
-5966 5969 0
-5954 -5966 0
-5955 5970 0
-5967 5970 0
-5955 -5967 5971 0
-5968 5971 0
-5955 -5968 5972 0
-5969 5972 0
-5955 -5969 0
-5956 5973 0
-5970 5973 0
-5956 -5970 5974 0
-5971 5974 0
-5956 -5971 5975 0
-5972 5975 0
-5956 -5972 0
-5957 -5975 0
-5979 298 299 300 301 0
-298 5979 0
-299 5979 0
-300 5979 0
-301 5979 0
-5980 305 306 307 308 0
-305 5980 0
-306 5980 0
-307 5980 0
-308 5980 0
-5981 312 313 314 315 0
-312 5981 0
-313 5981 0
-314 5981 0
-315 5981 0
-5982 319 320 321 322 0
-319 5982 0
-320 5982 0
-321 5982 0
-322 5982 0
-5983 326 327 328 329 0
-326 5983 0
-327 5983 0
-328 5983 0
-329 5983 0
-5984 333 334 335 336 0
-333 5984 0
-334 5984 0
-335 5984 0
-336 5984 0
-5985 340 341 342 343 0
-340 5985 0
-341 5985 0
-342 5985 0
-343 5985 0
-5979 5986 0
-5987 0
-5988 0
-5989 0
-5980 5990 0
-5986 5990 0
-5980 -5986 5991 0
-5987 5991 0
-5980 -5987 5992 0
-5988 5992 0
-5980 -5988 5993 0
-5989 5993 0
-5980 -5989 0
-5981 5994 0
-5990 5994 0
-5981 -5990 5995 0
-5991 5995 0
-5981 -5991 5996 0
-5992 5996 0
-5981 -5992 5997 0
-5993 5997 0
-5981 -5993 0
-5982 5998 0
-5994 5998 0
-5982 -5994 5999 0
-5995 5999 0
-5982 -5995 6000 0
-5996 6000 0
-5982 -5996 6001 0
-5997 6001 0
-5982 -5997 0
-5983 6002 0
-5998 6002 0
-5983 -5998 6003 0
-5999 6003 0
-5983 -5999 6004 0
-6000 6004 0
-5983 -6000 6005 0
-6001 6005 0
-5983 -6001 0
-5984 6006 0
-6002 6006 0
-5984 -6002 6007 0
-6003 6007 0
-5984 -6003 6008 0
-6004 6008 0
-5984 -6004 6009 0
-6005 6009 0
-5984 -6005 0
-5985 -6009 0
-6014 299 0
-299 6014 0
-6015 306 0
-306 6015 0
-6016 313 0
-313 6016 0
-6017 320 0
-320 6017 0
-6018 327 0
-327 6018 0
-6019 334 0
-334 6019 0
-6020 341 0
-341 6020 0
-6014 6021 0
-6015 6022 0
-6021 6022 0
-6015 -6021 0
-6016 6023 0
-6022 6023 0
-6016 -6022 0
-6017 6024 0
-6023 6024 0
-6017 -6023 0
-6018 6025 0
-6024 6025 0
-6018 -6024 0
-6019 6026 0
-6025 6026 0
-6019 -6025 0
-6020 -6026 0
-6028 299 300 0
-299 6028 0
-300 6028 0
-6029 306 307 0
-306 6029 0
-307 6029 0
-6030 313 314 0
-313 6030 0
-314 6030 0
-6031 320 321 0
-320 6031 0
-321 6031 0
-6032 327 328 0
-327 6032 0
-328 6032 0
-6033 334 335 0
-334 6033 0
-335 6033 0
-6034 341 342 0
-341 6034 0
-342 6034 0
-6028 6035 0
-6036 0
-6029 6037 0
-6035 6037 0
-6029 -6035 6038 0
-6036 6038 0
-6029 -6036 0
-6030 6039 0
-6037 6039 0
-6030 -6037 6040 0
-6038 6040 0
-6030 -6038 0
-6031 6041 0
-6039 6041 0
-6031 -6039 6042 0
-6040 6042 0
-6031 -6040 0
-6032 6043 0
-6041 6043 0
-6032 -6041 6044 0
-6042 6044 0
-6032 -6042 0
-6033 6045 0
-6043 6045 0
-6033 -6043 6046 0
-6044 6046 0
-6033 -6044 0
-6034 -6046 0
-6049 299 300 301 0
-299 6049 0
-300 6049 0
-301 6049 0
-6050 306 307 308 0
-306 6050 0
-307 6050 0
-308 6050 0
-6051 313 314 315 0
-313 6051 0
-314 6051 0
-315 6051 0
-6052 320 321 322 0
-320 6052 0
-321 6052 0
-322 6052 0
-6053 327 328 329 0
-327 6053 0
-328 6053 0
-329 6053 0
-6054 334 335 336 0
-334 6054 0
-335 6054 0
-336 6054 0
-6055 341 342 343 0
-341 6055 0
-342 6055 0
-343 6055 0
-6049 6056 0
-6057 0
-6058 0
-6050 6059 0
-6056 6059 0
-6050 -6056 6060 0
-6057 6060 0
-6050 -6057 6061 0
-6058 6061 0
-6050 -6058 0
-6051 6062 0
-6059 6062 0
-6051 -6059 6063 0
-6060 6063 0
-6051 -6060 6064 0
-6061 6064 0
-6051 -6061 0
-6052 6065 0
-6062 6065 0
-6052 -6062 6066 0
-6063 6066 0
-6052 -6063 6067 0
-6064 6067 0
-6052 -6064 0
-6053 6068 0
-6065 6068 0
-6053 -6065 6069 0
-6066 6069 0
-6053 -6066 6070 0
-6067 6070 0
-6053 -6067 0
-6054 6071 0
-6068 6071 0
-6054 -6068 6072 0
-6069 6072 0
-6054 -6069 6073 0
-6070 6073 0
-6054 -6070 0
-6055 -6073 0
-6077 300 0
-300 6077 0
-6078 307 0
-307 6078 0
-6079 314 0
-314 6079 0
-6080 321 0
-321 6080 0
-6081 328 0
-328 6081 0
-6082 335 0
-335 6082 0
-6083 342 0
-342 6083 0
-6077 6084 0
-6078 6085 0
-6084 6085 0
-6078 -6084 0
-6079 6086 0
-6085 6086 0
-6079 -6085 0
-6080 6087 0
-6086 6087 0
-6080 -6086 0
-6081 6088 0
-6087 6088 0
-6081 -6087 0
-6082 6089 0
-6088 6089 0
-6082 -6088 0
-6083 -6089 0
-6091 300 301 0
-300 6091 0
-301 6091 0
-6092 307 308 0
-307 6092 0
-308 6092 0
-6093 314 315 0
-314 6093 0
-315 6093 0
-6094 321 322 0
-321 6094 0
-322 6094 0
-6095 328 329 0
-328 6095 0
-329 6095 0
-6096 335 336 0
-335 6096 0
-336 6096 0
-6097 342 343 0
-342 6097 0
-343 6097 0
-6091 6098 0
-6099 0
-6092 6100 0
-6098 6100 0
-6092 -6098 6101 0
-6099 6101 0
-6092 -6099 0
-6093 6102 0
-6100 6102 0
-6093 -6100 6103 0
-6101 6103 0
-6093 -6101 0
-6094 6104 0
-6102 6104 0
-6094 -6102 6105 0
-6103 6105 0
-6094 -6103 0
-6095 6106 0
-6104 6106 0
-6095 -6104 6107 0
-6105 6107 0
-6095 -6105 0
-6096 6108 0
-6106 6108 0
-6096 -6106 6109 0
-6107 6109 0
-6096 -6107 0
-6097 -6109 0
-6112 301 0
-301 6112 0
-6113 308 0
-308 6113 0
-6114 315 0
-315 6114 0
-6115 322 0
-322 6115 0
-6116 329 0
-329 6116 0
-6117 336 0
-336 6117 0
-6118 343 0
-343 6118 0
-6112 6119 0
-6113 6120 0
-6119 6120 0
-6113 -6119 0
-6114 6121 0
-6120 6121 0
-6114 -6120 0
-6115 6122 0
-6121 6122 0
-6115 -6121 0
-6116 6123 0
-6122 6123 0
-6116 -6122 0
-6117 6124 0
-6123 6124 0
-6117 -6123 0
-6118 -6124 0
-295 6126 0
-302 6127 0
-6126 6127 0
-302 -6126 0
-309 6128 0
-6127 6128 0
-309 -6127 0
-316 6129 0
-6128 6129 0
-316 -6128 0
-323 6130 0
-6129 6130 0
-323 -6129 0
-330 6131 0
-6130 6131 0
-330 -6130 0
-337 -6131 0
295 302 309 316 323 330 337 0
-296 6133 0
-303 6134 0
-6133 6134 0
-303 -6133 0
-310 6135 0
-6134 6135 0
-310 -6134 0
-317 6136 0
-6135 6136 0
-317 -6135 0
-324 6137 0
-6136 6137 0
-324 -6136 0
-331 6138 0
-6137 6138 0
-331 -6137 0
-338 -6138 0
296 303 310 317 324 331 338 0
-297 6140 0
-304 6141 0
-6140 6141 0
-304 -6140 0
-311 6142 0
-6141 6142 0
-311 -6141 0
-318 6143 0
-6142 6143 0
-318 -6142 0
-325 6144 0
-6143 6144 0
-325 -6143 0
-332 6145 0
-6144 6145 0
-332 -6144 0
-339 -6145 0
297 304 311 318 325 332 339 0
-298 6147 0
-305 6148 0
-6147 6148 0
-305 -6147 0
-312 6149 0
-6148 6149 0
-312 -6148 0
-319 6150 0
-6149 6150 0
-319 -6149 0
-326 6151 0
-6150 6151 0
-326 -6150 0
-333 6152 0
-6151 6152 0
-333 -6151 0
-340 -6152 0
298 305 312 319 326 333 340 0
-299 6154 0
-306 6155 0
-6154 6155 0
-306 -6154 0
-313 6156 0
-6155 6156 0
-313 -6155 0
-320 6157 0
-6156 6157 0
-320 -6156 0
-327 6158 0
-6157 6158 0
-327 -6157 0
-334 6159 0
-6158 6159 0
-334 -6158 0
-341 -6159 0
299 306 313 320 327 334 341 0
-300 6161 0
-307 6162 0
-6161 6162 0
-307 -6161 0
-314 6163 0
-6162 6163 0
-314 -6162 0
-321 6164 0
-6163 6164 0
-321 -6163 0
-328 6165 0
-6164 6165 0
-328 -6164 0
-335 6166 0
-6165 6166 0
-335 -6165 0
-342 -6166 0
300 307 314 321 328 335 342 0
-301 6168 0
-308 6169 0
-6168 6169 0
-308 -6168 0
-315 6170 0
-6169 6170 0
-315 -6169 0
-322 6171 0
-6170 6171 0
-322 -6170 0
-329 6172 0
-6171 6172 0
-329 -6171 0
-336 6173 0
-6172 6173 0
-336 -6172 0
-343 -6173 0
301 308 315 322 329 336 343 0
-6175 1 0
-1 6175 0
-6176 50 0
-50 6176 0
-6177 99 0
-99 6177 0
-6178 148 0
-148 6178 0
-6179 197 0
-197 6179 0
-6180 246 0
-246 6180 0
-6181 295 0
-295 6181 0
-6175 6182 0
-6176 6183 0
-6182 6183 0
-6176 -6182 0
-6177 6184 0
-6183 6184 0
-6177 -6183 0
-6178 6185 0
-6184 6185 0
-6178 -6184 0
-6179 6186 0
-6185 6186 0
-6179 -6185 0
-6180 6187 0
-6186 6187 0
-6180 -6186 0
-6181 -6187 0
-6189 1 2 0
-1 6189 0
-2 6189 0
-6190 50 51 0
-50 6190 0
-51 6190 0
-6191 99 100 0
-99 6191 0
-100 6191 0
-6192 148 149 0
-148 6192 0
-149 6192 0
-6193 197 198 0
-197 6193 0
-198 6193 0
-6194 246 247 0
-246 6194 0
-247 6194 0
-6195 295 296 0
-295 6195 0
-296 6195 0
-6189 6196 0
-6197 0
-6190 6198 0
-6196 6198 0
-6190 -6196 6199 0
-6197 6199 0
-6190 -6197 0
-6191 6200 0
-6198 6200 0
-6191 -6198 6201 0
-6199 6201 0
-6191 -6199 0
-6192 6202 0
-6200 6202 0
-6192 -6200 6203 0
-6201 6203 0
-6192 -6201 0
-6193 6204 0
-6202 6204 0
-6193 -6202 6205 0
-6203 6205 0
-6193 -6203 0
-6194 6206 0
-6204 6206 0
-6194 -6204 6207 0
-6205 6207 0
-6194 -6205 0
-6195 -6207 0
-6210 1 2 3 0
-1 6210 0
-2 6210 0
-3 6210 0
-6211 50 51 52 0
-50 6211 0
-51 6211 0
-52 6211 0
-6212 99 100 101 0
-99 6212 0
-100 6212 0
-101 6212 0
-6213 148 149 150 0
-148 6213 0
-149 6213 0
-150 6213 0
-6214 197 198 199 0
-197 6214 0
-198 6214 0
-199 6214 0
-6215 246 247 248 0
-246 6215 0
-247 6215 0
-248 6215 0
-6216 295 296 297 0
-295 6216 0
-296 6216 0
-297 6216 0
-6210 6217 0
-6218 0
-6219 0
-6211 6220 0
-6217 6220 0
-6211 -6217 6221 0
-6218 6221 0
-6211 -6218 6222 0
-6219 6222 0
-6211 -6219 0
-6212 6223 0
-6220 6223 0
-6212 -6220 6224 0
-6221 6224 0
-6212 -6221 6225 0
-6222 6225 0
-6212 -6222 0
-6213 6226 0
-6223 6226 0
-6213 -6223 6227 0
-6224 6227 0
-6213 -6224 6228 0
-6225 6228 0
-6213 -6225 0
-6214 6229 0
-6226 6229 0
-6214 -6226 6230 0
-6227 6230 0
-6214 -6227 6231 0
-6228 6231 0
-6214 -6228 0
-6215 6232 0
-6229 6232 0
-6215 -6229 6233 0
-6230 6233 0
-6215 -6230 6234 0
-6231 6234 0
-6215 -6231 0
-6216 -6234 0
-6238 1 2 3 4 0
-1 6238 0
-2 6238 0
-3 6238 0
-4 6238 0
-6239 50 51 52 53 0
-50 6239 0
-51 6239 0
-52 6239 0
-53 6239 0
-6240 99 100 101 102 0
-99 6240 0
-100 6240 0
-101 6240 0
-102 6240 0
-6241 148 149 150 151 0
-148 6241 0
-149 6241 0
-150 6241 0
-151 6241 0
-6242 197 198 199 200 0
-197 6242 0
-198 6242 0
-199 6242 0
-200 6242 0
-6243 246 247 248 249 0
-246 6243 0
-247 6243 0
-248 6243 0
-249 6243 0
-6244 295 296 297 298 0
-295 6244 0
-296 6244 0
-297 6244 0
-298 6244 0
-6238 6245 0
-6246 0
-6247 0
-6248 0
-6239 6249 0
-6245 6249 0
-6239 -6245 6250 0
-6246 6250 0
-6239 -6246 6251 0
-6247 6251 0
-6239 -6247 6252 0
-6248 6252 0
-6239 -6248 0
-6240 6253 0
-6249 6253 0
-6240 -6249 6254 0
-6250 6254 0
-6240 -6250 6255 0
-6251 6255 0
-6240 -6251 6256 0
-6252 6256 0
-6240 -6252 0
-6241 6257 0
-6253 6257 0
-6241 -6253 6258 0
-6254 6258 0
-6241 -6254 6259 0
-6255 6259 0
-6241 -6255 6260 0
-6256 6260 0
-6241 -6256 0
-6242 6261 0
-6257 6261 0
-6242 -6257 6262 0
-6258 6262 0
-6242 -6258 6263 0
-6259 6263 0
-6242 -6259 6264 0
-6260 6264 0
-6242 -6260 0
-6243 6265 0
-6261 6265 0
-6243 -6261 6266 0
-6262 6266 0
-6243 -6262 6267 0
-6263 6267 0
-6243 -6263 6268 0
-6264 6268 0
-6243 -6264 0
-6244 -6268 0
-6273 1 2 3 4 5 0
-1 6273 0
-2 6273 0
-3 6273 0
-4 6273 0
-5 6273 0
-6274 50 51 52 53 54 0
-50 6274 0
-51 6274 0
-52 6274 0
-53 6274 0
-54 6274 0
-6275 99 100 101 102 103 0
-99 6275 0
-100 6275 0
-101 6275 0
-102 6275 0
-103 6275 0
-6276 148 149 150 151 152 0
-148 6276 0
-149 6276 0
-150 6276 0
-151 6276 0
-152 6276 0
-6277 197 198 199 200 201 0
-197 6277 0
-198 6277 0
-199 6277 0
-200 6277 0
-201 6277 0
-6278 246 247 248 249 250 0
-246 6278 0
-247 6278 0
-248 6278 0
-249 6278 0
-250 6278 0
-6279 295 296 297 298 299 0
-295 6279 0
-296 6279 0
-297 6279 0
-298 6279 0
-299 6279 0
-6273 6280 0
-6281 0
-6282 0
-6283 0
-6284 0
-6274 6285 0
-6280 6285 0
-6274 -6280 6286 0
-6281 6286 0
-6274 -6281 6287 0
-6282 6287 0
-6274 -6282 6288 0
-6283 6288 0
-6274 -6283 6289 0
-6284 6289 0
-6274 -6284 0
-6275 6290 0
-6285 6290 0
-6275 -6285 6291 0
-6286 6291 0
-6275 -6286 6292 0
-6287 6292 0
-6275 -6287 6293 0
-6288 6293 0
-6275 -6288 6294 0
-6289 6294 0
-6275 -6289 0
-6276 6295 0
-6290 6295 0
-6276 -6290 6296 0
-6291 6296 0
-6276 -6291 6297 0
-6292 6297 0
-6276 -6292 6298 0
-6293 6298 0
-6276 -6293 6299 0
-6294 6299 0
-6276 -6294 0
-6277 6300 0
-6295 6300 0
-6277 -6295 6301 0
-6296 6301 0
-6277 -6296 6302 0
-6297 6302 0
-6277 -6297 6303 0
-6298 6303 0
-6277 -6298 6304 0
-6299 6304 0
-6277 -6299 0
-6278 6305 0
-6300 6305 0
-6278 -6300 6306 0
-6301 6306 0
-6278 -6301 6307 0
-6302 6307 0
-6278 -6302 6308 0
-6303 6308 0
-6278 -6303 6309 0
-6304 6309 0
-6278 -6304 0
-6279 -6309 0
-6315 1 2 3 4 5 6 0
-1 6315 0
-2 6315 0
-3 6315 0
-4 6315 0
-5 6315 0
-6 6315 0
-6316 50 51 52 53 54 55 0
-50 6316 0
-51 6316 0
-52 6316 0
-53 6316 0
-54 6316 0
-55 6316 0
-6317 99 100 101 102 103 104 0
-99 6317 0
-100 6317 0
-101 6317 0
-102 6317 0
-103 6317 0
-104 6317 0
-6318 148 149 150 151 152 153 0
-148 6318 0
-149 6318 0
-150 6318 0
-151 6318 0
-152 6318 0
-153 6318 0
-6319 197 198 199 200 201 202 0
-197 6319 0
-198 6319 0
-199 6319 0
-200 6319 0
-201 6319 0
-202 6319 0
-6320 246 247 248 249 250 251 0
-246 6320 0
-247 6320 0
-248 6320 0
-249 6320 0
-250 6320 0
-251 6320 0
-6321 295 296 297 298 299 300 0
-295 6321 0
-296 6321 0
-297 6321 0
-298 6321 0
-299 6321 0
-300 6321 0
-6315 6322 0
-6323 0
-6324 0
-6325 0
-6326 0
-6327 0
-6316 6328 0
-6322 6328 0
-6316 -6322 6329 0
-6323 6329 0
-6316 -6323 6330 0
-6324 6330 0
-6316 -6324 6331 0
-6325 6331 0
-6316 -6325 6332 0
-6326 6332 0
-6316 -6326 6333 0
-6327 6333 0
-6316 -6327 0
-6317 6334 0
-6328 6334 0
-6317 -6328 6335 0
-6329 6335 0
-6317 -6329 6336 0
-6330 6336 0
-6317 -6330 6337 0
-6331 6337 0
-6317 -6331 6338 0
-6332 6338 0
-6317 -6332 6339 0
-6333 6339 0
-6317 -6333 0
-6318 6340 0
-6334 6340 0
-6318 -6334 6341 0
-6335 6341 0
-6318 -6335 6342 0
-6336 6342 0
-6318 -6336 6343 0
-6337 6343 0
-6318 -6337 6344 0
-6338 6344 0
-6318 -6338 6345 0
-6339 6345 0
-6318 -6339 0
-6319 6346 0
-6340 6346 0
-6319 -6340 6347 0
-6341 6347 0
-6319 -6341 6348 0
-6342 6348 0
-6319 -6342 6349 0
-6343 6349 0
-6319 -6343 6350 0
-6344 6350 0
-6319 -6344 6351 0
-6345 6351 0
-6319 -6345 0
-6320 6352 0
-6346 6352 0
-6320 -6346 6353 0
-6347 6353 0
-6320 -6347 6354 0
-6348 6354 0
-6320 -6348 6355 0
-6349 6355 0
-6320 -6349 6356 0
-6350 6356 0
-6320 -6350 6357 0
-6351 6357 0
-6320 -6351 0
-6321 -6357 0
-6364 1 2 3 4 5 6 7 0
-1 6364 0
-2 6364 0
-3 6364 0
-4 6364 0
-5 6364 0
-6 6364 0
-7 6364 0
-6365 50 51 52 53 54 55 56 0
-50 6365 0
-51 6365 0
-52 6365 0
-53 6365 0
-54 6365 0
-55 6365 0
-56 6365 0
-6366 99 100 101 102 103 104 105 0
-99 6366 0
-100 6366 0
-101 6366 0
-102 6366 0
-103 6366 0
-104 6366 0
-105 6366 0
-6367 148 149 150 151 152 153 154 0
-148 6367 0
-149 6367 0
-150 6367 0
-151 6367 0
-152 6367 0
-153 6367 0
-154 6367 0
-6368 197 198 199 200 201 202 203 0
-197 6368 0
-198 6368 0
-199 6368 0
-200 6368 0
-201 6368 0
-202 6368 0
-203 6368 0
-6369 246 247 248 249 250 251 252 0
-246 6369 0
-247 6369 0
-248 6369 0
-249 6369 0
-250 6369 0
-251 6369 0
-252 6369 0
-6370 295 296 297 298 299 300 301 0
-295 6370 0
-296 6370 0
-297 6370 0
-298 6370 0
-299 6370 0
-300 6370 0
-301 6370 0
-6371 2 0
-2 6371 0
-6372 51 0
-51 6372 0
-6373 100 0
-100 6373 0
-6374 149 0
-149 6374 0
-6375 198 0
-198 6375 0
-6376 247 0
-247 6376 0
-6377 296 0
-296 6377 0
-6371 6378 0
-6372 6379 0
-6378 6379 0
-6372 -6378 0
-6373 6380 0
-6379 6380 0
-6373 -6379 0
-6374 6381 0
-6380 6381 0
-6374 -6380 0
-6375 6382 0
-6381 6382 0
-6375 -6381 0
-6376 6383 0
-6382 6383 0
-6376 -6382 0
-6377 -6383 0
-6385 2 3 0
-2 6385 0
-3 6385 0
-6386 51 52 0
-51 6386 0
-52 6386 0
-6387 100 101 0
-100 6387 0
-101 6387 0
-6388 149 150 0
-149 6388 0
-150 6388 0
-6389 198 199 0
-198 6389 0
-199 6389 0
-6390 247 248 0
-247 6390 0
-248 6390 0
-6391 296 297 0
-296 6391 0
-297 6391 0
-6385 6392 0
-6393 0
-6386 6394 0
-6392 6394 0
-6386 -6392 6395 0
-6393 6395 0
-6386 -6393 0
-6387 6396 0
-6394 6396 0
-6387 -6394 6397 0
-6395 6397 0
-6387 -6395 0
-6388 6398 0
-6396 6398 0
-6388 -6396 6399 0
-6397 6399 0
-6388 -6397 0
-6389 6400 0
-6398 6400 0
-6389 -6398 6401 0
-6399 6401 0
-6389 -6399 0
-6390 6402 0
-6400 6402 0
-6390 -6400 6403 0
-6401 6403 0
-6390 -6401 0
-6391 -6403 0
-6406 2 3 4 0
-2 6406 0
-3 6406 0
-4 6406 0
-6407 51 52 53 0
-51 6407 0
-52 6407 0
-53 6407 0
-6408 100 101 102 0
-100 6408 0
-101 6408 0
-102 6408 0
-6409 149 150 151 0
-149 6409 0
-150 6409 0
-151 6409 0
-6410 198 199 200 0
-198 6410 0
-199 6410 0
-200 6410 0
-6411 247 248 249 0
-247 6411 0
-248 6411 0
-249 6411 0
-6412 296 297 298 0
-296 6412 0
-297 6412 0
-298 6412 0
-6406 6413 0
-6414 0
-6415 0
-6407 6416 0
-6413 6416 0
-6407 -6413 6417 0
-6414 6417 0
-6407 -6414 6418 0
-6415 6418 0
-6407 -6415 0
-6408 6419 0
-6416 6419 0
-6408 -6416 6420 0
-6417 6420 0
-6408 -6417 6421 0
-6418 6421 0
-6408 -6418 0
-6409 6422 0
-6419 6422 0
-6409 -6419 6423 0
-6420 6423 0
-6409 -6420 6424 0
-6421 6424 0
-6409 -6421 0
-6410 6425 0
-6422 6425 0
-6410 -6422 6426 0
-6423 6426 0
-6410 -6423 6427 0
-6424 6427 0
-6410 -6424 0
-6411 6428 0
-6425 6428 0
-6411 -6425 6429 0
-6426 6429 0
-6411 -6426 6430 0
-6427 6430 0
-6411 -6427 0
-6412 -6430 0
-6434 2 3 4 5 0
-2 6434 0
-3 6434 0
-4 6434 0
-5 6434 0
-6435 51 52 53 54 0
-51 6435 0
-52 6435 0
-53 6435 0
-54 6435 0
-6436 100 101 102 103 0
-100 6436 0
-101 6436 0
-102 6436 0
-103 6436 0
-6437 149 150 151 152 0
-149 6437 0
-150 6437 0
-151 6437 0
-152 6437 0
-6438 198 199 200 201 0
-198 6438 0
-199 6438 0
-200 6438 0
-201 6438 0
-6439 247 248 249 250 0
-247 6439 0
-248 6439 0
-249 6439 0
-250 6439 0
-6440 296 297 298 299 0
-296 6440 0
-297 6440 0
-298 6440 0
-299 6440 0
-6434 6441 0
-6442 0
-6443 0
-6444 0
-6435 6445 0
-6441 6445 0
-6435 -6441 6446 0
-6442 6446 0
-6435 -6442 6447 0
-6443 6447 0
-6435 -6443 6448 0
-6444 6448 0
-6435 -6444 0
-6436 6449 0
-6445 6449 0
-6436 -6445 6450 0
-6446 6450 0
-6436 -6446 6451 0
-6447 6451 0
-6436 -6447 6452 0
-6448 6452 0
-6436 -6448 0
-6437 6453 0
-6449 6453 0
-6437 -6449 6454 0
-6450 6454 0
-6437 -6450 6455 0
-6451 6455 0
-6437 -6451 6456 0
-6452 6456 0
-6437 -6452 0
-6438 6457 0
-6453 6457 0
-6438 -6453 6458 0
-6454 6458 0
-6438 -6454 6459 0
-6455 6459 0
-6438 -6455 6460 0
-6456 6460 0
-6438 -6456 0
-6439 6461 0
-6457 6461 0
-6439 -6457 6462 0
-6458 6462 0
-6439 -6458 6463 0
-6459 6463 0
-6439 -6459 6464 0
-6460 6464 0
-6439 -6460 0
-6440 -6464 0
-6469 2 3 4 5 6 0
-2 6469 0
-3 6469 0
-4 6469 0
-5 6469 0
-6 6469 0
-6470 51 52 53 54 55 0
-51 6470 0
-52 6470 0
-53 6470 0
-54 6470 0
-55 6470 0
-6471 100 101 102 103 104 0
-100 6471 0
-101 6471 0
-102 6471 0
-103 6471 0
-104 6471 0
-6472 149 150 151 152 153 0
-149 6472 0
-150 6472 0
-151 6472 0
-152 6472 0
-153 6472 0
-6473 198 199 200 201 202 0
-198 6473 0
-199 6473 0
-200 6473 0
-201 6473 0
-202 6473 0
-6474 247 248 249 250 251 0
-247 6474 0
-248 6474 0
-249 6474 0
-250 6474 0
-251 6474 0
-6475 296 297 298 299 300 0
-296 6475 0
-297 6475 0
-298 6475 0
-299 6475 0
-300 6475 0
-6469 6476 0
-6477 0
-6478 0
-6479 0
-6480 0
-6470 6481 0
-6476 6481 0
-6470 -6476 6482 0
-6477 6482 0
-6470 -6477 6483 0
-6478 6483 0
-6470 -6478 6484 0
-6479 6484 0
-6470 -6479 6485 0
-6480 6485 0
-6470 -6480 0
-6471 6486 0
-6481 6486 0
-6471 -6481 6487 0
-6482 6487 0
-6471 -6482 6488 0
-6483 6488 0
-6471 -6483 6489 0
-6484 6489 0
-6471 -6484 6490 0
-6485 6490 0
-6471 -6485 0
-6472 6491 0
-6486 6491 0
-6472 -6486 6492 0
-6487 6492 0
-6472 -6487 6493 0
-6488 6493 0
-6472 -6488 6494 0
-6489 6494 0
-6472 -6489 6495 0
-6490 6495 0
-6472 -6490 0
-6473 6496 0
-6491 6496 0
-6473 -6491 6497 0
-6492 6497 0
-6473 -6492 6498 0
-6493 6498 0
-6473 -6493 6499 0
-6494 6499 0
-6473 -6494 6500 0
-6495 6500 0
-6473 -6495 0
-6474 6501 0
-6496 6501 0
-6474 -6496 6502 0
-6497 6502 0
-6474 -6497 6503 0
-6498 6503 0
-6474 -6498 6504 0
-6499 6504 0
-6474 -6499 6505 0
-6500 6505 0
-6474 -6500 0
-6475 -6505 0
-6511 2 3 4 5 6 7 0
-2 6511 0
-3 6511 0
-4 6511 0
-5 6511 0
-6 6511 0
-7 6511 0
-6512 51 52 53 54 55 56 0
-51 6512 0
-52 6512 0
-53 6512 0
-54 6512 0
-55 6512 0
-56 6512 0
-6513 100 101 102 103 104 105 0
-100 6513 0
-101 6513 0
-102 6513 0
-103 6513 0
-104 6513 0
-105 6513 0
-6514 149 150 151 152 153 154 0
-149 6514 0
-150 6514 0
-151 6514 0
-152 6514 0
-153 6514 0
-154 6514 0
-6515 198 199 200 201 202 203 0
-198 6515 0
-199 6515 0
-200 6515 0
-201 6515 0
-202 6515 0
-203 6515 0
-6516 247 248 249 250 251 252 0
-247 6516 0
-248 6516 0
-249 6516 0
-250 6516 0
-251 6516 0
-252 6516 0
-6517 296 297 298 299 300 301 0
-296 6517 0
-297 6517 0
-298 6517 0
-299 6517 0
-300 6517 0
-301 6517 0
-6511 6518 0
-6519 0
-6520 0
-6521 0
-6522 0
-6523 0
-6512 6524 0
-6518 6524 0
-6512 -6518 6525 0
-6519 6525 0
-6512 -6519 6526 0
-6520 6526 0
-6512 -6520 6527 0
-6521 6527 0
-6512 -6521 6528 0
-6522 6528 0
-6512 -6522 6529 0
-6523 6529 0
-6512 -6523 0
-6513 6530 0
-6524 6530 0
-6513 -6524 6531 0
-6525 6531 0
-6513 -6525 6532 0
-6526 6532 0
-6513 -6526 6533 0
-6527 6533 0
-6513 -6527 6534 0
-6528 6534 0
-6513 -6528 6535 0
-6529 6535 0
-6513 -6529 0
-6514 6536 0
-6530 6536 0
-6514 -6530 6537 0
-6531 6537 0
-6514 -6531 6538 0
-6532 6538 0
-6514 -6532 6539 0
-6533 6539 0
-6514 -6533 6540 0
-6534 6540 0
-6514 -6534 6541 0
-6535 6541 0
-6514 -6535 0
-6515 6542 0
-6536 6542 0
-6515 -6536 6543 0
-6537 6543 0
-6515 -6537 6544 0
-6538 6544 0
-6515 -6538 6545 0
-6539 6545 0
-6515 -6539 6546 0
-6540 6546 0
-6515 -6540 6547 0
-6541 6547 0
-6515 -6541 0
-6516 6548 0
-6542 6548 0
-6516 -6542 6549 0
-6543 6549 0
-6516 -6543 6550 0
-6544 6550 0
-6516 -6544 6551 0
-6545 6551 0
-6516 -6545 6552 0
-6546 6552 0
-6516 -6546 6553 0
-6547 6553 0
-6516 -6547 0
-6517 -6553 0
-6560 3 0
-3 6560 0
-6561 52 0
-52 6561 0
-6562 101 0
-101 6562 0
-6563 150 0
-150 6563 0
-6564 199 0
-199 6564 0
-6565 248 0
-248 6565 0
-6566 297 0
-297 6566 0
-6560 6567 0
-6561 6568 0
-6567 6568 0
-6561 -6567 0
-6562 6569 0
-6568 6569 0
-6562 -6568 0
-6563 6570 0
-6569 6570 0
-6563 -6569 0
-6564 6571 0
-6570 6571 0
-6564 -6570 0
-6565 6572 0
-6571 6572 0
-6565 -6571 0
-6566 -6572 0
-6574 3 4 0
-3 6574 0
-4 6574 0
-6575 52 53 0
-52 6575 0
-53 6575 0
-6576 101 102 0
-101 6576 0
-102 6576 0
-6577 150 151 0
-150 6577 0
-151 6577 0
-6578 199 200 0
-199 6578 0
-200 6578 0
-6579 248 249 0
-248 6579 0
-249 6579 0
-6580 297 298 0
-297 6580 0
-298 6580 0
-6574 6581 0
-6582 0
-6575 6583 0
-6581 6583 0
-6575 -6581 6584 0
-6582 6584 0
-6575 -6582 0
-6576 6585 0
-6583 6585 0
-6576 -6583 6586 0
-6584 6586 0
-6576 -6584 0
-6577 6587 0
-6585 6587 0
-6577 -6585 6588 0
-6586 6588 0
-6577 -6586 0
-6578 6589 0
-6587 6589 0
-6578 -6587 6590 0
-6588 6590 0
-6578 -6588 0
-6579 6591 0
-6589 6591 0
-6579 -6589 6592 0
-6590 6592 0
-6579 -6590 0
-6580 -6592 0
-6595 3 4 5 0
-3 6595 0
-4 6595 0
-5 6595 0
-6596 52 53 54 0
-52 6596 0
-53 6596 0
-54 6596 0
-6597 101 102 103 0
-101 6597 0
-102 6597 0
-103 6597 0
-6598 150 151 152 0
-150 6598 0
-151 6598 0
-152 6598 0
-6599 199 200 201 0
-199 6599 0
-200 6599 0
-201 6599 0
-6600 248 249 250 0
-248 6600 0
-249 6600 0
-250 6600 0
-6601 297 298 299 0
-297 6601 0
-298 6601 0
-299 6601 0
-6595 6602 0
-6603 0
-6604 0
-6596 6605 0
-6602 6605 0
-6596 -6602 6606 0
-6603 6606 0
-6596 -6603 6607 0
-6604 6607 0
-6596 -6604 0
-6597 6608 0
-6605 6608 0
-6597 -6605 6609 0
-6606 6609 0
-6597 -6606 6610 0
-6607 6610 0
-6597 -6607 0
-6598 6611 0
-6608 6611 0
-6598 -6608 6612 0
-6609 6612 0
-6598 -6609 6613 0
-6610 6613 0
-6598 -6610 0
-6599 6614 0
-6611 6614 0
-6599 -6611 6615 0
-6612 6615 0
-6599 -6612 6616 0
-6613 6616 0
-6599 -6613 0
-6600 6617 0
-6614 6617 0
-6600 -6614 6618 0
-6615 6618 0
-6600 -6615 6619 0
-6616 6619 0
-6600 -6616 0
-6601 -6619 0
-6623 3 4 5 6 0
-3 6623 0
-4 6623 0
-5 6623 0
-6 6623 0
-6624 52 53 54 55 0
-52 6624 0
-53 6624 0
-54 6624 0
-55 6624 0
-6625 101 102 103 104 0
-101 6625 0
-102 6625 0
-103 6625 0
-104 6625 0
-6626 150 151 152 153 0
-150 6626 0
-151 6626 0
-152 6626 0
-153 6626 0
-6627 199 200 201 202 0
-199 6627 0
-200 6627 0
-201 6627 0
-202 6627 0
-6628 248 249 250 251 0
-248 6628 0
-249 6628 0
-250 6628 0
-251 6628 0
-6629 297 298 299 300 0
-297 6629 0
-298 6629 0
-299 6629 0
-300 6629 0
-6623 6630 0
-6631 0
-6632 0
-6633 0
-6624 6634 0
-6630 6634 0
-6624 -6630 6635 0
-6631 6635 0
-6624 -6631 6636 0
-6632 6636 0
-6624 -6632 6637 0
-6633 6637 0
-6624 -6633 0
-6625 6638 0
-6634 6638 0
-6625 -6634 6639 0
-6635 6639 0
-6625 -6635 6640 0
-6636 6640 0
-6625 -6636 6641 0
-6637 6641 0
-6625 -6637 0
-6626 6642 0
-6638 6642 0
-6626 -6638 6643 0
-6639 6643 0
-6626 -6639 6644 0
-6640 6644 0
-6626 -6640 6645 0
-6641 6645 0
-6626 -6641 0
-6627 6646 0
-6642 6646 0
-6627 -6642 6647 0
-6643 6647 0
-6627 -6643 6648 0
-6644 6648 0
-6627 -6644 6649 0
-6645 6649 0
-6627 -6645 0
-6628 6650 0
-6646 6650 0
-6628 -6646 6651 0
-6647 6651 0
-6628 -6647 6652 0
-6648 6652 0
-6628 -6648 6653 0
-6649 6653 0
-6628 -6649 0
-6629 -6653 0
-6658 3 4 5 6 7 0
-3 6658 0
-4 6658 0
-5 6658 0
-6 6658 0
-7 6658 0
-6659 52 53 54 55 56 0
-52 6659 0
-53 6659 0
-54 6659 0
-55 6659 0
-56 6659 0
-6660 101 102 103 104 105 0
-101 6660 0
-102 6660 0
-103 6660 0
-104 6660 0
-105 6660 0
-6661 150 151 152 153 154 0
-150 6661 0
-151 6661 0
-152 6661 0
-153 6661 0
-154 6661 0
-6662 199 200 201 202 203 0
-199 6662 0
-200 6662 0
-201 6662 0
-202 6662 0
-203 6662 0
-6663 248 249 250 251 252 0
-248 6663 0
-249 6663 0
-250 6663 0
-251 6663 0
-252 6663 0
-6664 297 298 299 300 301 0
-297 6664 0
-298 6664 0
-299 6664 0
-300 6664 0
-301 6664 0
-6658 6665 0
-6666 0
-6667 0
-6668 0
-6669 0
-6659 6670 0
-6665 6670 0
-6659 -6665 6671 0
-6666 6671 0
-6659 -6666 6672 0
-6667 6672 0
-6659 -6667 6673 0
-6668 6673 0
-6659 -6668 6674 0
-6669 6674 0
-6659 -6669 0
-6660 6675 0
-6670 6675 0
-6660 -6670 6676 0
-6671 6676 0
-6660 -6671 6677 0
-6672 6677 0
-6660 -6672 6678 0
-6673 6678 0
-6660 -6673 6679 0
-6674 6679 0
-6660 -6674 0
-6661 6680 0
-6675 6680 0
-6661 -6675 6681 0
-6676 6681 0
-6661 -6676 6682 0
-6677 6682 0
-6661 -6677 6683 0
-6678 6683 0
-6661 -6678 6684 0
-6679 6684 0
-6661 -6679 0
-6662 6685 0
-6680 6685 0
-6662 -6680 6686 0
-6681 6686 0
-6662 -6681 6687 0
-6682 6687 0
-6662 -6682 6688 0
-6683 6688 0
-6662 -6683 6689 0
-6684 6689 0
-6662 -6684 0
-6663 6690 0
-6685 6690 0
-6663 -6685 6691 0
-6686 6691 0
-6663 -6686 6692 0
-6687 6692 0
-6663 -6687 6693 0
-6688 6693 0
-6663 -6688 6694 0
-6689 6694 0
-6663 -6689 0
-6664 -6694 0
-6700 4 0
-4 6700 0
-6701 53 0
-53 6701 0
-6702 102 0
-102 6702 0
-6703 151 0
-151 6703 0
-6704 200 0
-200 6704 0
-6705 249 0
-249 6705 0
-6706 298 0
-298 6706 0
-6700 6707 0
-6701 6708 0
-6707 6708 0
-6701 -6707 0
-6702 6709 0
-6708 6709 0
-6702 -6708 0
-6703 6710 0
-6709 6710 0
-6703 -6709 0
-6704 6711 0
-6710 6711 0
-6704 -6710 0
-6705 6712 0
-6711 6712 0
-6705 -6711 0
-6706 -6712 0
-6714 4 5 0
-4 6714 0
-5 6714 0
-6715 53 54 0
-53 6715 0
-54 6715 0
-6716 102 103 0
-102 6716 0
-103 6716 0
-6717 151 152 0
-151 6717 0
-152 6717 0
-6718 200 201 0
-200 6718 0
-201 6718 0
-6719 249 250 0
-249 6719 0
-250 6719 0
-6720 298 299 0
-298 6720 0
-299 6720 0
-6714 6721 0
-6722 0
-6715 6723 0
-6721 6723 0
-6715 -6721 6724 0
-6722 6724 0
-6715 -6722 0
-6716 6725 0
-6723 6725 0
-6716 -6723 6726 0
-6724 6726 0
-6716 -6724 0
-6717 6727 0
-6725 6727 0
-6717 -6725 6728 0
-6726 6728 0
-6717 -6726 0
-6718 6729 0
-6727 6729 0
-6718 -6727 6730 0
-6728 6730 0
-6718 -6728 0
-6719 6731 0
-6729 6731 0
-6719 -6729 6732 0
-6730 6732 0
-6719 -6730 0
-6720 -6732 0
-6735 4 5 6 0
-4 6735 0
-5 6735 0
-6 6735 0
-6736 53 54 55 0
-53 6736 0
-54 6736 0
-55 6736 0
-6737 102 103 104 0
-102 6737 0
-103 6737 0
-104 6737 0
-6738 151 152 153 0
-151 6738 0
-152 6738 0
-153 6738 0
-6739 200 201 202 0
-200 6739 0
-201 6739 0
-202 6739 0
-6740 249 250 251 0
-249 6740 0
-250 6740 0
-251 6740 0
-6741 298 299 300 0
-298 6741 0
-299 6741 0
-300 6741 0
-6735 6742 0
-6743 0
-6744 0
-6736 6745 0
-6742 6745 0
-6736 -6742 6746 0
-6743 6746 0
-6736 -6743 6747 0
-6744 6747 0
-6736 -6744 0
-6737 6748 0
-6745 6748 0
-6737 -6745 6749 0
-6746 6749 0
-6737 -6746 6750 0
-6747 6750 0
-6737 -6747 0
-6738 6751 0
-6748 6751 0
-6738 -6748 6752 0
-6749 6752 0
-6738 -6749 6753 0
-6750 6753 0
-6738 -6750 0
-6739 6754 0
-6751 6754 0
-6739 -6751 6755 0
-6752 6755 0
-6739 -6752 6756 0
-6753 6756 0
-6739 -6753 0
-6740 6757 0
-6754 6757 0
-6740 -6754 6758 0
-6755 6758 0
-6740 -6755 6759 0
-6756 6759 0
-6740 -6756 0
-6741 -6759 0
-6763 4 5 6 7 0
-4 6763 0
-5 6763 0
-6 6763 0
-7 6763 0
-6764 53 54 55 56 0
-53 6764 0
-54 6764 0
-55 6764 0
-56 6764 0
-6765 102 103 104 105 0
-102 6765 0
-103 6765 0
-104 6765 0
-105 6765 0
-6766 151 152 153 154 0
-151 6766 0
-152 6766 0
-153 6766 0
-154 6766 0
-6767 200 201 202 203 0
-200 6767 0
-201 6767 0
-202 6767 0
-203 6767 0
-6768 249 250 251 252 0
-249 6768 0
-250 6768 0
-251 6768 0
-252 6768 0
-6769 298 299 300 301 0
-298 6769 0
-299 6769 0
-300 6769 0
-301 6769 0
-6763 6770 0
-6771 0
-6772 0
-6773 0
-6764 6774 0
-6770 6774 0
-6764 -6770 6775 0
-6771 6775 0
-6764 -6771 6776 0
-6772 6776 0
-6764 -6772 6777 0
-6773 6777 0
-6764 -6773 0
-6765 6778 0
-6774 6778 0
-6765 -6774 6779 0
-6775 6779 0
-6765 -6775 6780 0
-6776 6780 0
-6765 -6776 6781 0
-6777 6781 0
-6765 -6777 0
-6766 6782 0
-6778 6782 0
-6766 -6778 6783 0
-6779 6783 0
-6766 -6779 6784 0
-6780 6784 0
-6766 -6780 6785 0
-6781 6785 0
-6766 -6781 0
-6767 6786 0
-6782 6786 0
-6767 -6782 6787 0
-6783 6787 0
-6767 -6783 6788 0
-6784 6788 0
-6767 -6784 6789 0
-6785 6789 0
-6767 -6785 0
-6768 6790 0
-6786 6790 0
-6768 -6786 6791 0
-6787 6791 0
-6768 -6787 6792 0
-6788 6792 0
-6768 -6788 6793 0
-6789 6793 0
-6768 -6789 0
-6769 -6793 0
-6798 5 0
-5 6798 0
-6799 54 0
-54 6799 0
-6800 103 0
-103 6800 0
-6801 152 0
-152 6801 0
-6802 201 0
-201 6802 0
-6803 250 0
-250 6803 0
-6804 299 0
-299 6804 0
-6798 6805 0
-6799 6806 0
-6805 6806 0
-6799 -6805 0
-6800 6807 0
-6806 6807 0
-6800 -6806 0
-6801 6808 0
-6807 6808 0
-6801 -6807 0
-6802 6809 0
-6808 6809 0
-6802 -6808 0
-6803 6810 0
-6809 6810 0
-6803 -6809 0
-6804 -6810 0
-6812 5 6 0
-5 6812 0
-6 6812 0
-6813 54 55 0
-54 6813 0
-55 6813 0
-6814 103 104 0
-103 6814 0
-104 6814 0
-6815 152 153 0
-152 6815 0
-153 6815 0
-6816 201 202 0
-201 6816 0
-202 6816 0
-6817 250 251 0
-250 6817 0
-251 6817 0
-6818 299 300 0
-299 6818 0
-300 6818 0
-6812 6819 0
-6820 0
-6813 6821 0
-6819 6821 0
-6813 -6819 6822 0
-6820 6822 0
-6813 -6820 0
-6814 6823 0
-6821 6823 0
-6814 -6821 6824 0
-6822 6824 0
-6814 -6822 0
-6815 6825 0
-6823 6825 0
-6815 -6823 6826 0
-6824 6826 0
-6815 -6824 0
-6816 6827 0
-6825 6827 0
-6816 -6825 6828 0
-6826 6828 0
-6816 -6826 0
-6817 6829 0
-6827 6829 0
-6817 -6827 6830 0
-6828 6830 0
-6817 -6828 0
-6818 -6830 0
-6833 5 6 7 0
-5 6833 0
-6 6833 0
-7 6833 0
-6834 54 55 56 0
-54 6834 0
-55 6834 0
-56 6834 0
-6835 103 104 105 0
-103 6835 0
-104 6835 0
-105 6835 0
-6836 152 153 154 0
-152 6836 0
-153 6836 0
-154 6836 0
-6837 201 202 203 0
-201 6837 0
-202 6837 0
-203 6837 0
-6838 250 251 252 0
-250 6838 0
-251 6838 0
-252 6838 0
-6839 299 300 301 0
-299 6839 0
-300 6839 0
-301 6839 0
-6833 6840 0
-6841 0
-6842 0
-6834 6843 0
-6840 6843 0
-6834 -6840 6844 0
-6841 6844 0
-6834 -6841 6845 0
-6842 6845 0
-6834 -6842 0
-6835 6846 0
-6843 6846 0
-6835 -6843 6847 0
-6844 6847 0
-6835 -6844 6848 0
-6845 6848 0
-6835 -6845 0
-6836 6849 0
-6846 6849 0
-6836 -6846 6850 0
-6847 6850 0
-6836 -6847 6851 0
-6848 6851 0
-6836 -6848 0
-6837 6852 0
-6849 6852 0
-6837 -6849 6853 0
-6850 6853 0
-6837 -6850 6854 0
-6851 6854 0
-6837 -6851 0
-6838 6855 0
-6852 6855 0
-6838 -6852 6856 0
-6853 6856 0
-6838 -6853 6857 0
-6854 6857 0
-6838 -6854 0
-6839 -6857 0
-6861 6 0
-6 6861 0
-6862 55 0
-55 6862 0
-6863 104 0
-104 6863 0
-6864 153 0
-153 6864 0
-6865 202 0
-202 6865 0
-6866 251 0
-251 6866 0
-6867 300 0
-300 6867 0
-6861 6868 0
-6862 6869 0
-6868 6869 0
-6862 -6868 0
-6863 6870 0
-6869 6870 0
-6863 -6869 0
-6864 6871 0
-6870 6871 0
-6864 -6870 0
-6865 6872 0
-6871 6872 0
-6865 -6871 0
-6866 6873 0
-6872 6873 0
-6866 -6872 0
-6867 -6873 0
-6875 6 7 0
-6 6875 0
-7 6875 0
-6876 55 56 0
-55 6876 0
-56 6876 0
-6877 104 105 0
-104 6877 0
-105 6877 0
-6878 153 154 0
-153 6878 0
-154 6878 0
-6879 202 203 0
-202 6879 0
-203 6879 0
-6880 251 252 0
-251 6880 0
-252 6880 0
-6881 300 301 0
-300 6881 0
-301 6881 0
-6875 6882 0
-6883 0
-6876 6884 0
-6882 6884 0
-6876 -6882 6885 0
-6883 6885 0
-6876 -6883 0
-6877 6886 0
-6884 6886 0
-6877 -6884 6887 0
-6885 6887 0
-6877 -6885 0
-6878 6888 0
-6886 6888 0
-6878 -6886 6889 0
-6887 6889 0
-6878 -6887 0
-6879 6890 0
-6888 6890 0
-6879 -6888 6891 0
-6889 6891 0
-6879 -6889 0
-6880 6892 0
-6890 6892 0
-6880 -6890 6893 0
-6891 6893 0
-6880 -6891 0
-6881 -6893 0
-6896 7 0
-7 6896 0
-6897 56 0
-56 6897 0
-6898 105 0
-105 6898 0
-6899 154 0
-154 6899 0
-6900 203 0
-203 6900 0
-6901 252 0
-252 6901 0
-6902 301 0
-301 6902 0
-6896 6903 0
-6897 6904 0
-6903 6904 0
-6897 -6903 0
-6898 6905 0
-6904 6905 0
-6898 -6904 0
-6899 6906 0
-6905 6906 0
-6899 -6905 0
-6900 6907 0
-6906 6907 0
-6900 -6906 0
-6901 6908 0
-6907 6908 0
-6901 -6907 0
-6902 -6908 0
-1 6910 0
-50 6911 0
-6910 6911 0
-50 -6910 0
-99 6912 0
-6911 6912 0
-99 -6911 0
-148 6913 0
-6912 6913 0
-148 -6912 0
-197 6914 0
-6913 6914 0
-197 -6913 0
-246 6915 0
-6914 6915 0
-246 -6914 0
-295 -6915 0
1 50 99 148 197 246 295 0
-2 6917 0
-51 6918 0
-6917 6918 0
-51 -6917 0
-100 6919 0
-6918 6919 0
-100 -6918 0
-149 6920 0
-6919 6920 0
-149 -6919 0
-198 6921 0
-6920 6921 0
-198 -6920 0
-247 6922 0
-6921 6922 0
-247 -6921 0
-296 -6922 0
2 51 100 149 198 247 296 0
-3 6924 0
-52 6925 0
-6924 6925 0
-52 -6924 0
-101 6926 0
-6925 6926 0
-101 -6925 0
-150 6927 0
-6926 6927 0
-150 -6926 0
-199 6928 0
-6927 6928 0
-199 -6927 0
-248 6929 0
-6928 6929 0
-248 -6928 0
-297 -6929 0
3 52 101 150 199 248 297 0
-4 6931 0
-53 6932 0
-6931 6932 0
-53 -6931 0
-102 6933 0
-6932 6933 0
-102 -6932 0
-151 6934 0
-6933 6934 0
-151 -6933 0
-200 6935 0
-6934 6935 0
-200 -6934 0
-249 6936 0
-6935 6936 0
-249 -6935 0
-298 -6936 0
4 53 102 151 200 249 298 0
-5 6938 0
-54 6939 0
-6938 6939 0
-54 -6938 0
-103 6940 0
-6939 6940 0
-103 -6939 0
-152 6941 0
-6940 6941 0
-152 -6940 0
-201 6942 0
-6941 6942 0
-201 -6941 0
-250 6943 0
-6942 6943 0
-250 -6942 0
-299 -6943 0
5 54 103 152 201 250 299 0
-6 6945 0
-55 6946 0
-6945 6946 0
-55 -6945 0
-104 6947 0
-6946 6947 0
-104 -6946 0
-153 6948 0
-6947 6948 0
-153 -6947 0
-202 6949 0
-6948 6949 0
-202 -6948 0
-251 6950 0
-6949 6950 0
-251 -6949 0
-300 -6950 0
6 55 104 153 202 251 300 0
-7 6952 0
-56 6953 0
-6952 6953 0
-56 -6952 0
-105 6954 0
-6953 6954 0
-105 -6953 0
-154 6955 0
-6954 6955 0
-154 -6954 0
-203 6956 0
-6955 6956 0
-203 -6955 0
-252 6957 0
-6956 6957 0
-252 -6956 0
-301 -6957 0
7 56 105 154 203 252 301 0
-6959 8 0
-8 6959 0
-6960 57 0
-57 6960 0
-6961 106 0
-106 6961 0
-6962 155 0
-155 6962 0
-6963 204 0
-204 6963 0
-6964 253 0
-253 6964 0
-6965 302 0
-302 6965 0
-6959 6966 0
-6960 6967 0
-6966 6967 0
-6960 -6966 0
-6961 6968 0
-6967 6968 0
-6961 -6967 0
-6962 6969 0
-6968 6969 0
-6962 -6968 0
-6963 6970 0
-6969 6970 0
-6963 -6969 0
-6964 6971 0
-6970 6971 0
-6964 -6970 0
-6965 -6971 0
-6973 8 9 0
-8 6973 0
-9 6973 0
-6974 57 58 0
-57 6974 0
-58 6974 0
-6975 106 107 0
-106 6975 0
-107 6975 0
-6976 155 156 0
-155 6976 0
-156 6976 0
-6977 204 205 0
-204 6977 0
-205 6977 0
-6978 253 254 0
-253 6978 0
-254 6978 0
-6979 302 303 0
-302 6979 0
-303 6979 0
-6973 6980 0
-6981 0
-6974 6982 0
-6980 6982 0
-6974 -6980 6983 0
-6981 6983 0
-6974 -6981 0
-6975 6984 0
-6982 6984 0
-6975 -6982 6985 0
-6983 6985 0
-6975 -6983 0
-6976 6986 0
-6984 6986 0
-6976 -6984 6987 0
-6985 6987 0
-6976 -6985 0
-6977 6988 0
-6986 6988 0
-6977 -6986 6989 0
-6987 6989 0
-6977 -6987 0
-6978 6990 0
-6988 6990 0
-6978 -6988 6991 0
-6989 6991 0
-6978 -6989 0
-6979 -6991 0
-6994 8 9 10 0
-8 6994 0
-9 6994 0
-10 6994 0
-6995 57 58 59 0
-57 6995 0
-58 6995 0
-59 6995 0
-6996 106 107 108 0
-106 6996 0
-107 6996 0
-108 6996 0
-6997 155 156 157 0
-155 6997 0
-156 6997 0
-157 6997 0
-6998 204 205 206 0
-204 6998 0
-205 6998 0
-206 6998 0
-6999 253 254 255 0
-253 6999 0
-254 6999 0
-255 6999 0
-7000 302 303 304 0
-302 7000 0
-303 7000 0
-304 7000 0
-6994 7001 0
-7002 0
-7003 0
-6995 7004 0
-7001 7004 0
-6995 -7001 7005 0
-7002 7005 0
-6995 -7002 7006 0
-7003 7006 0
-6995 -7003 0
-6996 7007 0
-7004 7007 0
-6996 -7004 7008 0
-7005 7008 0
-6996 -7005 7009 0
-7006 7009 0
-6996 -7006 0
-6997 7010 0
-7007 7010 0
-6997 -7007 7011 0
-7008 7011 0
-6997 -7008 7012 0
-7009 7012 0
-6997 -7009 0
-6998 7013 0
-7010 7013 0
-6998 -7010 7014 0
-7011 7014 0
-6998 -7011 7015 0
-7012 7015 0
-6998 -7012 0
-6999 7016 0
-7013 7016 0
-6999 -7013 7017 0
-7014 7017 0
-6999 -7014 7018 0
-7015 7018 0
-6999 -7015 0
-7000 -7018 0
-7022 8 9 10 11 0
-8 7022 0
-9 7022 0
-10 7022 0
-11 7022 0
-7023 57 58 59 60 0
-57 7023 0
-58 7023 0
-59 7023 0
-60 7023 0
-7024 106 107 108 109 0
-106 7024 0
-107 7024 0
-108 7024 0
-109 7024 0
-7025 155 156 157 158 0
-155 7025 0
-156 7025 0
-157 7025 0
-158 7025 0
-7026 204 205 206 207 0
-204 7026 0
-205 7026 0
-206 7026 0
-207 7026 0
-7027 253 254 255 256 0
-253 7027 0
-254 7027 0
-255 7027 0
-256 7027 0
-7028 302 303 304 305 0
-302 7028 0
-303 7028 0
-304 7028 0
-305 7028 0
-7022 7029 0
-7030 0
-7031 0
-7032 0
-7023 7033 0
-7029 7033 0
-7023 -7029 7034 0
-7030 7034 0
-7023 -7030 7035 0
-7031 7035 0
-7023 -7031 7036 0
-7032 7036 0
-7023 -7032 0
-7024 7037 0
-7033 7037 0
-7024 -7033 7038 0
-7034 7038 0
-7024 -7034 7039 0
-7035 7039 0
-7024 -7035 7040 0
-7036 7040 0
-7024 -7036 0
-7025 7041 0
-7037 7041 0
-7025 -7037 7042 0
-7038 7042 0
-7025 -7038 7043 0
-7039 7043 0
-7025 -7039 7044 0
-7040 7044 0
-7025 -7040 0
-7026 7045 0
-7041 7045 0
-7026 -7041 7046 0
-7042 7046 0
-7026 -7042 7047 0
-7043 7047 0
-7026 -7043 7048 0
-7044 7048 0
-7026 -7044 0
-7027 7049 0
-7045 7049 0
-7027 -7045 7050 0
-7046 7050 0
-7027 -7046 7051 0
-7047 7051 0
-7027 -7047 7052 0
-7048 7052 0
-7027 -7048 0
-7028 -7052 0
-7057 8 9 10 11 12 0
-8 7057 0
-9 7057 0
-10 7057 0
-11 7057 0
-12 7057 0
-7058 57 58 59 60 61 0
-57 7058 0
-58 7058 0
-59 7058 0
-60 7058 0
-61 7058 0
-7059 106 107 108 109 110 0
-106 7059 0
-107 7059 0
-108 7059 0
-109 7059 0
-110 7059 0
-7060 155 156 157 158 159 0
-155 7060 0
-156 7060 0
-157 7060 0
-158 7060 0
-159 7060 0
-7061 204 205 206 207 208 0
-204 7061 0
-205 7061 0
-206 7061 0
-207 7061 0
-208 7061 0
-7062 253 254 255 256 257 0
-253 7062 0
-254 7062 0
-255 7062 0
-256 7062 0
-257 7062 0
-7063 302 303 304 305 306 0
-302 7063 0
-303 7063 0
-304 7063 0
-305 7063 0
-306 7063 0
-7057 7064 0
-7065 0
-7066 0
-7067 0
-7068 0
-7058 7069 0
-7064 7069 0
-7058 -7064 7070 0
-7065 7070 0
-7058 -7065 7071 0
-7066 7071 0
-7058 -7066 7072 0
-7067 7072 0
-7058 -7067 7073 0
-7068 7073 0
-7058 -7068 0
-7059 7074 0
-7069 7074 0
-7059 -7069 7075 0
-7070 7075 0
-7059 -7070 7076 0
-7071 7076 0
-7059 -7071 7077 0
-7072 7077 0
-7059 -7072 7078 0
-7073 7078 0
-7059 -7073 0
-7060 7079 0
-7074 7079 0
-7060 -7074 7080 0
-7075 7080 0
-7060 -7075 7081 0
-7076 7081 0
-7060 -7076 7082 0
-7077 7082 0
-7060 -7077 7083 0
-7078 7083 0
-7060 -7078 0
-7061 7084 0
-7079 7084 0
-7061 -7079 7085 0
-7080 7085 0
-7061 -7080 7086 0
-7081 7086 0
-7061 -7081 7087 0
-7082 7087 0
-7061 -7082 7088 0
-7083 7088 0
-7061 -7083 0
-7062 7089 0
-7084 7089 0
-7062 -7084 7090 0
-7085 7090 0
-7062 -7085 7091 0
-7086 7091 0
-7062 -7086 7092 0
-7087 7092 0
-7062 -7087 7093 0
-7088 7093 0
-7062 -7088 0
-7063 -7093 0
-7099 8 9 10 11 12 13 0
-8 7099 0
-9 7099 0
-10 7099 0
-11 7099 0
-12 7099 0
-13 7099 0
-7100 57 58 59 60 61 62 0
-57 7100 0
-58 7100 0
-59 7100 0
-60 7100 0
-61 7100 0
-62 7100 0
-7101 106 107 108 109 110 111 0
-106 7101 0
-107 7101 0
-108 7101 0
-109 7101 0
-110 7101 0
-111 7101 0
-7102 155 156 157 158 159 160 0
-155 7102 0
-156 7102 0
-157 7102 0
-158 7102 0
-159 7102 0
-160 7102 0
-7103 204 205 206 207 208 209 0
-204 7103 0
-205 7103 0
-206 7103 0
-207 7103 0
-208 7103 0
-209 7103 0
-7104 253 254 255 256 257 258 0
-253 7104 0
-254 7104 0
-255 7104 0
-256 7104 0
-257 7104 0
-258 7104 0
-7105 302 303 304 305 306 307 0
-302 7105 0
-303 7105 0
-304 7105 0
-305 7105 0
-306 7105 0
-307 7105 0
-7099 7106 0
-7107 0
-7108 0
-7109 0
-7110 0
-7111 0
-7100 7112 0
-7106 7112 0
-7100 -7106 7113 0
-7107 7113 0
-7100 -7107 7114 0
-7108 7114 0
-7100 -7108 7115 0
-7109 7115 0
-7100 -7109 7116 0
-7110 7116 0
-7100 -7110 7117 0
-7111 7117 0
-7100 -7111 0
-7101 7118 0
-7112 7118 0
-7101 -7112 7119 0
-7113 7119 0
-7101 -7113 7120 0
-7114 7120 0
-7101 -7114 7121 0
-7115 7121 0
-7101 -7115 7122 0
-7116 7122 0
-7101 -7116 7123 0
-7117 7123 0
-7101 -7117 0
-7102 7124 0
-7118 7124 0
-7102 -7118 7125 0
-7119 7125 0
-7102 -7119 7126 0
-7120 7126 0
-7102 -7120 7127 0
-7121 7127 0
-7102 -7121 7128 0
-7122 7128 0
-7102 -7122 7129 0
-7123 7129 0
-7102 -7123 0
-7103 7130 0
-7124 7130 0
-7103 -7124 7131 0
-7125 7131 0
-7103 -7125 7132 0
-7126 7132 0
-7103 -7126 7133 0
-7127 7133 0
-7103 -7127 7134 0
-7128 7134 0
-7103 -7128 7135 0
-7129 7135 0
-7103 -7129 0
-7104 7136 0
-7130 7136 0
-7104 -7130 7137 0
-7131 7137 0
-7104 -7131 7138 0
-7132 7138 0
-7104 -7132 7139 0
-7133 7139 0
-7104 -7133 7140 0
-7134 7140 0
-7104 -7134 7141 0
-7135 7141 0
-7104 -7135 0
-7105 -7141 0
-7148 8 9 10 11 12 13 14 0
-8 7148 0
-9 7148 0
-10 7148 0
-11 7148 0
-12 7148 0
-13 7148 0
-14 7148 0
-7149 57 58 59 60 61 62 63 0
-57 7149 0
-58 7149 0
-59 7149 0
-60 7149 0
-61 7149 0
-62 7149 0
-63 7149 0
-7150 106 107 108 109 110 111 112 0
-106 7150 0
-107 7150 0
-108 7150 0
-109 7150 0
-110 7150 0
-111 7150 0
-112 7150 0
-7151 155 156 157 158 159 160 161 0
-155 7151 0
-156 7151 0
-157 7151 0
-158 7151 0
-159 7151 0
-160 7151 0
-161 7151 0
-7152 204 205 206 207 208 209 210 0
-204 7152 0
-205 7152 0
-206 7152 0
-207 7152 0
-208 7152 0
-209 7152 0
-210 7152 0
-7153 253 254 255 256 257 258 259 0
-253 7153 0
-254 7153 0
-255 7153 0
-256 7153 0
-257 7153 0
-258 7153 0
-259 7153 0
-7154 302 303 304 305 306 307 308 0
-302 7154 0
-303 7154 0
-304 7154 0
-305 7154 0
-306 7154 0
-307 7154 0
-308 7154 0
-7155 9 0
-9 7155 0
-7156 58 0
-58 7156 0
-7157 107 0
-107 7157 0
-7158 156 0
-156 7158 0
-7159 205 0
-205 7159 0
-7160 254 0
-254 7160 0
-7161 303 0
-303 7161 0
-7155 7162 0
-7156 7163 0
-7162 7163 0
-7156 -7162 0
-7157 7164 0
-7163 7164 0
-7157 -7163 0
-7158 7165 0
-7164 7165 0
-7158 -7164 0
-7159 7166 0
-7165 7166 0
-7159 -7165 0
-7160 7167 0
-7166 7167 0
-7160 -7166 0
-7161 -7167 0
-7169 9 10 0
-9 7169 0
-10 7169 0
-7170 58 59 0
-58 7170 0
-59 7170 0
-7171 107 108 0
-107 7171 0
-108 7171 0
-7172 156 157 0
-156 7172 0
-157 7172 0
-7173 205 206 0
-205 7173 0
-206 7173 0
-7174 254 255 0
-254 7174 0
-255 7174 0
-7175 303 304 0
-303 7175 0
-304 7175 0
-7169 7176 0
-7177 0
-7170 7178 0
-7176 7178 0
-7170 -7176 7179 0
-7177 7179 0
-7170 -7177 0
-7171 7180 0
-7178 7180 0
-7171 -7178 7181 0
-7179 7181 0
-7171 -7179 0
-7172 7182 0
-7180 7182 0
-7172 -7180 7183 0
-7181 7183 0
-7172 -7181 0
-7173 7184 0
-7182 7184 0
-7173 -7182 7185 0
-7183 7185 0
-7173 -7183 0
-7174 7186 0
-7184 7186 0
-7174 -7184 7187 0
-7185 7187 0
-7174 -7185 0
-7175 -7187 0
-7190 9 10 11 0
-9 7190 0
-10 7190 0
-11 7190 0
-7191 58 59 60 0
-58 7191 0
-59 7191 0
-60 7191 0
-7192 107 108 109 0
-107 7192 0
-108 7192 0
-109 7192 0
-7193 156 157 158 0
-156 7193 0
-157 7193 0
-158 7193 0
-7194 205 206 207 0
-205 7194 0
-206 7194 0
-207 7194 0
-7195 254 255 256 0
-254 7195 0
-255 7195 0
-256 7195 0
-7196 303 304 305 0
-303 7196 0
-304 7196 0
-305 7196 0
-7190 7197 0
-7198 0
-7199 0
-7191 7200 0
-7197 7200 0
-7191 -7197 7201 0
-7198 7201 0
-7191 -7198 7202 0
-7199 7202 0
-7191 -7199 0
-7192 7203 0
-7200 7203 0
-7192 -7200 7204 0
-7201 7204 0
-7192 -7201 7205 0
-7202 7205 0
-7192 -7202 0
-7193 7206 0
-7203 7206 0
-7193 -7203 7207 0
-7204 7207 0
-7193 -7204 7208 0
-7205 7208 0
-7193 -7205 0
-7194 7209 0
-7206 7209 0
-7194 -7206 7210 0
-7207 7210 0
-7194 -7207 7211 0
-7208 7211 0
-7194 -7208 0
-7195 7212 0
-7209 7212 0
-7195 -7209 7213 0
-7210 7213 0
-7195 -7210 7214 0
-7211 7214 0
-7195 -7211 0
-7196 -7214 0
-7218 9 10 11 12 0
-9 7218 0
-10 7218 0
-11 7218 0
-12 7218 0
-7219 58 59 60 61 0
-58 7219 0
-59 7219 0
-60 7219 0
-61 7219 0
-7220 107 108 109 110 0
-107 7220 0
-108 7220 0
-109 7220 0
-110 7220 0
-7221 156 157 158 159 0
-156 7221 0
-157 7221 0
-158 7221 0
-159 7221 0
-7222 205 206 207 208 0
-205 7222 0
-206 7222 0
-207 7222 0
-208 7222 0
-7223 254 255 256 257 0
-254 7223 0
-255 7223 0
-256 7223 0
-257 7223 0
-7224 303 304 305 306 0
-303 7224 0
-304 7224 0
-305 7224 0
-306 7224 0
-7218 7225 0
-7226 0
-7227 0
-7228 0
-7219 7229 0
-7225 7229 0
-7219 -7225 7230 0
-7226 7230 0
-7219 -7226 7231 0
-7227 7231 0
-7219 -7227 7232 0
-7228 7232 0
-7219 -7228 0
-7220 7233 0
-7229 7233 0
-7220 -7229 7234 0
-7230 7234 0
-7220 -7230 7235 0
-7231 7235 0
-7220 -7231 7236 0
-7232 7236 0
-7220 -7232 0
-7221 7237 0
-7233 7237 0
-7221 -7233 7238 0
-7234 7238 0
-7221 -7234 7239 0
-7235 7239 0
-7221 -7235 7240 0
-7236 7240 0
-7221 -7236 0
-7222 7241 0
-7237 7241 0
-7222 -7237 7242 0
-7238 7242 0
-7222 -7238 7243 0
-7239 7243 0
-7222 -7239 7244 0
-7240 7244 0
-7222 -7240 0
-7223 7245 0
-7241 7245 0
-7223 -7241 7246 0
-7242 7246 0
-7223 -7242 7247 0
-7243 7247 0
-7223 -7243 7248 0
-7244 7248 0
-7223 -7244 0
-7224 -7248 0
-7253 9 10 11 12 13 0
-9 7253 0
-10 7253 0
-11 7253 0
-12 7253 0
-13 7253 0
-7254 58 59 60 61 62 0
-58 7254 0
-59 7254 0
-60 7254 0
-61 7254 0
-62 7254 0
-7255 107 108 109 110 111 0
-107 7255 0
-108 7255 0
-109 7255 0
-110 7255 0
-111 7255 0
-7256 156 157 158 159 160 0
-156 7256 0
-157 7256 0
-158 7256 0
-159 7256 0
-160 7256 0
-7257 205 206 207 208 209 0
-205 7257 0
-206 7257 0
-207 7257 0
-208 7257 0
-209 7257 0
-7258 254 255 256 257 258 0
-254 7258 0
-255 7258 0
-256 7258 0
-257 7258 0
-258 7258 0
-7259 303 304 305 306 307 0
-303 7259 0
-304 7259 0
-305 7259 0
-306 7259 0
-307 7259 0
-7253 7260 0
-7261 0
-7262 0
-7263 0
-7264 0
-7254 7265 0
-7260 7265 0
-7254 -7260 7266 0
-7261 7266 0
-7254 -7261 7267 0
-7262 7267 0
-7254 -7262 7268 0
-7263 7268 0
-7254 -7263 7269 0
-7264 7269 0
-7254 -7264 0
-7255 7270 0
-7265 7270 0
-7255 -7265 7271 0
-7266 7271 0
-7255 -7266 7272 0
-7267 7272 0
-7255 -7267 7273 0
-7268 7273 0
-7255 -7268 7274 0
-7269 7274 0
-7255 -7269 0
-7256 7275 0
-7270 7275 0
-7256 -7270 7276 0
-7271 7276 0
-7256 -7271 7277 0
-7272 7277 0
-7256 -7272 7278 0
-7273 7278 0
-7256 -7273 7279 0
-7274 7279 0
-7256 -7274 0
-7257 7280 0
-7275 7280 0
-7257 -7275 7281 0
-7276 7281 0
-7257 -7276 7282 0
-7277 7282 0
-7257 -7277 7283 0
-7278 7283 0
-7257 -7278 7284 0
-7279 7284 0
-7257 -7279 0
-7258 7285 0
-7280 7285 0
-7258 -7280 7286 0
-7281 7286 0
-7258 -7281 7287 0
-7282 7287 0
-7258 -7282 7288 0
-7283 7288 0
-7258 -7283 7289 0
-7284 7289 0
-7258 -7284 0
-7259 -7289 0
-7295 9 10 11 12 13 14 0
-9 7295 0
-10 7295 0
-11 7295 0
-12 7295 0
-13 7295 0
-14 7295 0
-7296 58 59 60 61 62 63 0
-58 7296 0
-59 7296 0
-60 7296 0
-61 7296 0
-62 7296 0
-63 7296 0
-7297 107 108 109 110 111 112 0
-107 7297 0
-108 7297 0
-109 7297 0
-110 7297 0
-111 7297 0
-112 7297 0
-7298 156 157 158 159 160 161 0
-156 7298 0
-157 7298 0
-158 7298 0
-159 7298 0
-160 7298 0
-161 7298 0
-7299 205 206 207 208 209 210 0
-205 7299 0
-206 7299 0
-207 7299 0
-208 7299 0
-209 7299 0
-210 7299 0
-7300 254 255 256 257 258 259 0
-254 7300 0
-255 7300 0
-256 7300 0
-257 7300 0
-258 7300 0
-259 7300 0
-7301 303 304 305 306 307 308 0
-303 7301 0
-304 7301 0
-305 7301 0
-306 7301 0
-307 7301 0
-308 7301 0
-7295 7302 0
-7303 0
-7304 0
-7305 0
-7306 0
-7307 0
-7296 7308 0
-7302 7308 0
-7296 -7302 7309 0
-7303 7309 0
-7296 -7303 7310 0
-7304 7310 0
-7296 -7304 7311 0
-7305 7311 0
-7296 -7305 7312 0
-7306 7312 0
-7296 -7306 7313 0
-7307 7313 0
-7296 -7307 0
-7297 7314 0
-7308 7314 0
-7297 -7308 7315 0
-7309 7315 0
-7297 -7309 7316 0
-7310 7316 0
-7297 -7310 7317 0
-7311 7317 0
-7297 -7311 7318 0
-7312 7318 0
-7297 -7312 7319 0
-7313 7319 0
-7297 -7313 0
-7298 7320 0
-7314 7320 0
-7298 -7314 7321 0
-7315 7321 0
-7298 -7315 7322 0
-7316 7322 0
-7298 -7316 7323 0
-7317 7323 0
-7298 -7317 7324 0
-7318 7324 0
-7298 -7318 7325 0
-7319 7325 0
-7298 -7319 0
-7299 7326 0
-7320 7326 0
-7299 -7320 7327 0
-7321 7327 0
-7299 -7321 7328 0
-7322 7328 0
-7299 -7322 7329 0
-7323 7329 0
-7299 -7323 7330 0
-7324 7330 0
-7299 -7324 7331 0
-7325 7331 0
-7299 -7325 0
-7300 7332 0
-7326 7332 0
-7300 -7326 7333 0
-7327 7333 0
-7300 -7327 7334 0
-7328 7334 0
-7300 -7328 7335 0
-7329 7335 0
-7300 -7329 7336 0
-7330 7336 0
-7300 -7330 7337 0
-7331 7337 0
-7300 -7331 0
-7301 -7337 0
-7344 10 0
-10 7344 0
-7345 59 0
-59 7345 0
-7346 108 0
-108 7346 0
-7347 157 0
-157 7347 0
-7348 206 0
-206 7348 0
-7349 255 0
-255 7349 0
-7350 304 0
-304 7350 0
-7344 7351 0
-7345 7352 0
-7351 7352 0
-7345 -7351 0
-7346 7353 0
-7352 7353 0
-7346 -7352 0
-7347 7354 0
-7353 7354 0
-7347 -7353 0
-7348 7355 0
-7354 7355 0
-7348 -7354 0
-7349 7356 0
-7355 7356 0
-7349 -7355 0
-7350 -7356 0
-7358 10 11 0
-10 7358 0
-11 7358 0
-7359 59 60 0
-59 7359 0
-60 7359 0
-7360 108 109 0
-108 7360 0
-109 7360 0
-7361 157 158 0
-157 7361 0
-158 7361 0
-7362 206 207 0
-206 7362 0
-207 7362 0
-7363 255 256 0
-255 7363 0
-256 7363 0
-7364 304 305 0
-304 7364 0
-305 7364 0
-7358 7365 0
-7366 0
-7359 7367 0
-7365 7367 0
-7359 -7365 7368 0
-7366 7368 0
-7359 -7366 0
-7360 7369 0
-7367 7369 0
-7360 -7367 7370 0
-7368 7370 0
-7360 -7368 0
-7361 7371 0
-7369 7371 0
-7361 -7369 7372 0
-7370 7372 0
-7361 -7370 0
-7362 7373 0
-7371 7373 0
-7362 -7371 7374 0
-7372 7374 0
-7362 -7372 0
-7363 7375 0
-7373 7375 0
-7363 -7373 7376 0
-7374 7376 0
-7363 -7374 0
-7364 -7376 0
-7379 10 11 12 0
-10 7379 0
-11 7379 0
-12 7379 0
-7380 59 60 61 0
-59 7380 0
-60 7380 0
-61 7380 0
-7381 108 109 110 0
-108 7381 0
-109 7381 0
-110 7381 0
-7382 157 158 159 0
-157 7382 0
-158 7382 0
-159 7382 0
-7383 206 207 208 0
-206 7383 0
-207 7383 0
-208 7383 0
-7384 255 256 257 0
-255 7384 0
-256 7384 0
-257 7384 0
-7385 304 305 306 0
-304 7385 0
-305 7385 0
-306 7385 0
-7379 7386 0
-7387 0
-7388 0
-7380 7389 0
-7386 7389 0
-7380 -7386 7390 0
-7387 7390 0
-7380 -7387 7391 0
-7388 7391 0
-7380 -7388 0
-7381 7392 0
-7389 7392 0
-7381 -7389 7393 0
-7390 7393 0
-7381 -7390 7394 0
-7391 7394 0
-7381 -7391 0
-7382 7395 0
-7392 7395 0
-7382 -7392 7396 0
-7393 7396 0
-7382 -7393 7397 0
-7394 7397 0
-7382 -7394 0
-7383 7398 0
-7395 7398 0
-7383 -7395 7399 0
-7396 7399 0
-7383 -7396 7400 0
-7397 7400 0
-7383 -7397 0
-7384 7401 0
-7398 7401 0
-7384 -7398 7402 0
-7399 7402 0
-7384 -7399 7403 0
-7400 7403 0
-7384 -7400 0
-7385 -7403 0
-7407 10 11 12 13 0
-10 7407 0
-11 7407 0
-12 7407 0
-13 7407 0
-7408 59 60 61 62 0
-59 7408 0
-60 7408 0
-61 7408 0
-62 7408 0
-7409 108 109 110 111 0
-108 7409 0
-109 7409 0
-110 7409 0
-111 7409 0
-7410 157 158 159 160 0
-157 7410 0
-158 7410 0
-159 7410 0
-160 7410 0
-7411 206 207 208 209 0
-206 7411 0
-207 7411 0
-208 7411 0
-209 7411 0
-7412 255 256 257 258 0
-255 7412 0
-256 7412 0
-257 7412 0
-258 7412 0
-7413 304 305 306 307 0
-304 7413 0
-305 7413 0
-306 7413 0
-307 7413 0
-7407 7414 0
-7415 0
-7416 0
-7417 0
-7408 7418 0
-7414 7418 0
-7408 -7414 7419 0
-7415 7419 0
-7408 -7415 7420 0
-7416 7420 0
-7408 -7416 7421 0
-7417 7421 0
-7408 -7417 0
-7409 7422 0
-7418 7422 0
-7409 -7418 7423 0
-7419 7423 0
-7409 -7419 7424 0
-7420 7424 0
-7409 -7420 7425 0
-7421 7425 0
-7409 -7421 0
-7410 7426 0
-7422 7426 0
-7410 -7422 7427 0
-7423 7427 0
-7410 -7423 7428 0
-7424 7428 0
-7410 -7424 7429 0
-7425 7429 0
-7410 -7425 0
-7411 7430 0
-7426 7430 0
-7411 -7426 7431 0
-7427 7431 0
-7411 -7427 7432 0
-7428 7432 0
-7411 -7428 7433 0
-7429 7433 0
-7411 -7429 0
-7412 7434 0
-7430 7434 0
-7412 -7430 7435 0
-7431 7435 0
-7412 -7431 7436 0
-7432 7436 0
-7412 -7432 7437 0
-7433 7437 0
-7412 -7433 0
-7413 -7437 0
-7442 10 11 12 13 14 0
-10 7442 0
-11 7442 0
-12 7442 0
-13 7442 0
-14 7442 0
-7443 59 60 61 62 63 0
-59 7443 0
-60 7443 0
-61 7443 0
-62 7443 0
-63 7443 0
-7444 108 109 110 111 112 0
-108 7444 0
-109 7444 0
-110 7444 0
-111 7444 0
-112 7444 0
-7445 157 158 159 160 161 0
-157 7445 0
-158 7445 0
-159 7445 0
-160 7445 0
-161 7445 0
-7446 206 207 208 209 210 0
-206 7446 0
-207 7446 0
-208 7446 0
-209 7446 0
-210 7446 0
-7447 255 256 257 258 259 0
-255 7447 0
-256 7447 0
-257 7447 0
-258 7447 0
-259 7447 0
-7448 304 305 306 307 308 0
-304 7448 0
-305 7448 0
-306 7448 0
-307 7448 0
-308 7448 0
-7442 7449 0
-7450 0
-7451 0
-7452 0
-7453 0
-7443 7454 0
-7449 7454 0
-7443 -7449 7455 0
-7450 7455 0
-7443 -7450 7456 0
-7451 7456 0
-7443 -7451 7457 0
-7452 7457 0
-7443 -7452 7458 0
-7453 7458 0
-7443 -7453 0
-7444 7459 0
-7454 7459 0
-7444 -7454 7460 0
-7455 7460 0
-7444 -7455 7461 0
-7456 7461 0
-7444 -7456 7462 0
-7457 7462 0
-7444 -7457 7463 0
-7458 7463 0
-7444 -7458 0
-7445 7464 0
-7459 7464 0
-7445 -7459 7465 0
-7460 7465 0
-7445 -7460 7466 0
-7461 7466 0
-7445 -7461 7467 0
-7462 7467 0
-7445 -7462 7468 0
-7463 7468 0
-7445 -7463 0
-7446 7469 0
-7464 7469 0
-7446 -7464 7470 0
-7465 7470 0
-7446 -7465 7471 0
-7466 7471 0
-7446 -7466 7472 0
-7467 7472 0
-7446 -7467 7473 0
-7468 7473 0
-7446 -7468 0
-7447 7474 0
-7469 7474 0
-7447 -7469 7475 0
-7470 7475 0
-7447 -7470 7476 0
-7471 7476 0
-7447 -7471 7477 0
-7472 7477 0
-7447 -7472 7478 0
-7473 7478 0
-7447 -7473 0
-7448 -7478 0
-7484 11 0
-11 7484 0
-7485 60 0
-60 7485 0
-7486 109 0
-109 7486 0
-7487 158 0
-158 7487 0
-7488 207 0
-207 7488 0
-7489 256 0
-256 7489 0
-7490 305 0
-305 7490 0
-7484 7491 0
-7485 7492 0
-7491 7492 0
-7485 -7491 0
-7486 7493 0
-7492 7493 0
-7486 -7492 0
-7487 7494 0
-7493 7494 0
-7487 -7493 0
-7488 7495 0
-7494 7495 0
-7488 -7494 0
-7489 7496 0
-7495 7496 0
-7489 -7495 0
-7490 -7496 0
-7498 11 12 0
-11 7498 0
-12 7498 0
-7499 60 61 0
-60 7499 0
-61 7499 0
-7500 109 110 0
-109 7500 0
-110 7500 0
-7501 158 159 0
-158 7501 0
-159 7501 0
-7502 207 208 0
-207 7502 0
-208 7502 0
-7503 256 257 0
-256 7503 0
-257 7503 0
-7504 305 306 0
-305 7504 0
-306 7504 0
-7498 7505 0
-7506 0
-7499 7507 0
-7505 7507 0
-7499 -7505 7508 0
-7506 7508 0
-7499 -7506 0
-7500 7509 0
-7507 7509 0
-7500 -7507 7510 0
-7508 7510 0
-7500 -7508 0
-7501 7511 0
-7509 7511 0
-7501 -7509 7512 0
-7510 7512 0
-7501 -7510 0
-7502 7513 0
-7511 7513 0
-7502 -7511 7514 0
-7512 7514 0
-7502 -7512 0
-7503 7515 0
-7513 7515 0
-7503 -7513 7516 0
-7514 7516 0
-7503 -7514 0
-7504 -7516 0
-7519 11 12 13 0
-11 7519 0
-12 7519 0
-13 7519 0
-7520 60 61 62 0
-60 7520 0
-61 7520 0
-62 7520 0
-7521 109 110 111 0
-109 7521 0
-110 7521 0
-111 7521 0
-7522 158 159 160 0
-158 7522 0
-159 7522 0
-160 7522 0
-7523 207 208 209 0
-207 7523 0
-208 7523 0
-209 7523 0
-7524 256 257 258 0
-256 7524 0
-257 7524 0
-258 7524 0
-7525 305 306 307 0
-305 7525 0
-306 7525 0
-307 7525 0
-7519 7526 0
-7527 0
-7528 0
-7520 7529 0
-7526 7529 0
-7520 -7526 7530 0
-7527 7530 0
-7520 -7527 7531 0
-7528 7531 0
-7520 -7528 0
-7521 7532 0
-7529 7532 0
-7521 -7529 7533 0
-7530 7533 0
-7521 -7530 7534 0
-7531 7534 0
-7521 -7531 0
-7522 7535 0
-7532 7535 0
-7522 -7532 7536 0
-7533 7536 0
-7522 -7533 7537 0
-7534 7537 0
-7522 -7534 0
-7523 7538 0
-7535 7538 0
-7523 -7535 7539 0
-7536 7539 0
-7523 -7536 7540 0
-7537 7540 0
-7523 -7537 0
-7524 7541 0
-7538 7541 0
-7524 -7538 7542 0
-7539 7542 0
-7524 -7539 7543 0
-7540 7543 0
-7524 -7540 0
-7525 -7543 0
-7547 11 12 13 14 0
-11 7547 0
-12 7547 0
-13 7547 0
-14 7547 0
-7548 60 61 62 63 0
-60 7548 0
-61 7548 0
-62 7548 0
-63 7548 0
-7549 109 110 111 112 0
-109 7549 0
-110 7549 0
-111 7549 0
-112 7549 0
-7550 158 159 160 161 0
-158 7550 0
-159 7550 0
-160 7550 0
-161 7550 0
-7551 207 208 209 210 0
-207 7551 0
-208 7551 0
-209 7551 0
-210 7551 0
-7552 256 257 258 259 0
-256 7552 0
-257 7552 0
-258 7552 0
-259 7552 0
-7553 305 306 307 308 0
-305 7553 0
-306 7553 0
-307 7553 0
-308 7553 0
-7547 7554 0
-7555 0
-7556 0
-7557 0
-7548 7558 0
-7554 7558 0
-7548 -7554 7559 0
-7555 7559 0
-7548 -7555 7560 0
-7556 7560 0
-7548 -7556 7561 0
-7557 7561 0
-7548 -7557 0
-7549 7562 0
-7558 7562 0
-7549 -7558 7563 0
-7559 7563 0
-7549 -7559 7564 0
-7560 7564 0
-7549 -7560 7565 0
-7561 7565 0
-7549 -7561 0
-7550 7566 0
-7562 7566 0
-7550 -7562 7567 0
-7563 7567 0
-7550 -7563 7568 0
-7564 7568 0
-7550 -7564 7569 0
-7565 7569 0
-7550 -7565 0
-7551 7570 0
-7566 7570 0
-7551 -7566 7571 0
-7567 7571 0
-7551 -7567 7572 0
-7568 7572 0
-7551 -7568 7573 0
-7569 7573 0
-7551 -7569 0
-7552 7574 0
-7570 7574 0
-7552 -7570 7575 0
-7571 7575 0
-7552 -7571 7576 0
-7572 7576 0
-7552 -7572 7577 0
-7573 7577 0
-7552 -7573 0
-7553 -7577 0
-7582 12 0
-12 7582 0
-7583 61 0
-61 7583 0
-7584 110 0
-110 7584 0
-7585 159 0
-159 7585 0
-7586 208 0
-208 7586 0
-7587 257 0
-257 7587 0
-7588 306 0
-306 7588 0
-7582 7589 0
-7583 7590 0
-7589 7590 0
-7583 -7589 0
-7584 7591 0
-7590 7591 0
-7584 -7590 0
-7585 7592 0
-7591 7592 0
-7585 -7591 0
-7586 7593 0
-7592 7593 0
-7586 -7592 0
-7587 7594 0
-7593 7594 0
-7587 -7593 0
-7588 -7594 0
-7596 12 13 0
-12 7596 0
-13 7596 0
-7597 61 62 0
-61 7597 0
-62 7597 0
-7598 110 111 0
-110 7598 0
-111 7598 0
-7599 159 160 0
-159 7599 0
-160 7599 0
-7600 208 209 0
-208 7600 0
-209 7600 0
-7601 257 258 0
-257 7601 0
-258 7601 0
-7602 306 307 0
-306 7602 0
-307 7602 0
-7596 7603 0
-7604 0
-7597 7605 0
-7603 7605 0
-7597 -7603 7606 0
-7604 7606 0
-7597 -7604 0
-7598 7607 0
-7605 7607 0
-7598 -7605 7608 0
-7606 7608 0
-7598 -7606 0
-7599 7609 0
-7607 7609 0
-7599 -7607 7610 0
-7608 7610 0
-7599 -7608 0
-7600 7611 0
-7609 7611 0
-7600 -7609 7612 0
-7610 7612 0
-7600 -7610 0
-7601 7613 0
-7611 7613 0
-7601 -7611 7614 0
-7612 7614 0
-7601 -7612 0
-7602 -7614 0
-7617 12 13 14 0
-12 7617 0
-13 7617 0
-14 7617 0
-7618 61 62 63 0
-61 7618 0
-62 7618 0
-63 7618 0
-7619 110 111 112 0
-110 7619 0
-111 7619 0
-112 7619 0
-7620 159 160 161 0
-159 7620 0
-160 7620 0
-161 7620 0
-7621 208 209 210 0
-208 7621 0
-209 7621 0
-210 7621 0
-7622 257 258 259 0
-257 7622 0
-258 7622 0
-259 7622 0
-7623 306 307 308 0
-306 7623 0
-307 7623 0
-308 7623 0
-7617 7624 0
-7625 0
-7626 0
-7618 7627 0
-7624 7627 0
-7618 -7624 7628 0
-7625 7628 0
-7618 -7625 7629 0
-7626 7629 0
-7618 -7626 0
-7619 7630 0
-7627 7630 0
-7619 -7627 7631 0
-7628 7631 0
-7619 -7628 7632 0
-7629 7632 0
-7619 -7629 0
-7620 7633 0
-7630 7633 0
-7620 -7630 7634 0
-7631 7634 0
-7620 -7631 7635 0
-7632 7635 0
-7620 -7632 0
-7621 7636 0
-7633 7636 0
-7621 -7633 7637 0
-7634 7637 0
-7621 -7634 7638 0
-7635 7638 0
-7621 -7635 0
-7622 7639 0
-7636 7639 0
-7622 -7636 7640 0
-7637 7640 0
-7622 -7637 7641 0
-7638 7641 0
-7622 -7638 0
-7623 -7641 0
-7645 13 0
-13 7645 0
-7646 62 0
-62 7646 0
-7647 111 0
-111 7647 0
-7648 160 0
-160 7648 0
-7649 209 0
-209 7649 0
-7650 258 0
-258 7650 0
-7651 307 0
-307 7651 0
-7645 7652 0
-7646 7653 0
-7652 7653 0
-7646 -7652 0
-7647 7654 0
-7653 7654 0
-7647 -7653 0
-7648 7655 0
-7654 7655 0
-7648 -7654 0
-7649 7656 0
-7655 7656 0
-7649 -7655 0
-7650 7657 0
-7656 7657 0
-7650 -7656 0
-7651 -7657 0
-7659 13 14 0
-13 7659 0
-14 7659 0
-7660 62 63 0
-62 7660 0
-63 7660 0
-7661 111 112 0
-111 7661 0
-112 7661 0
-7662 160 161 0
-160 7662 0
-161 7662 0
-7663 209 210 0
-209 7663 0
-210 7663 0
-7664 258 259 0
-258 7664 0
-259 7664 0
-7665 307 308 0
-307 7665 0
-308 7665 0
-7659 7666 0
-7667 0
-7660 7668 0
-7666 7668 0
-7660 -7666 7669 0
-7667 7669 0
-7660 -7667 0
-7661 7670 0
-7668 7670 0
-7661 -7668 7671 0
-7669 7671 0
-7661 -7669 0
-7662 7672 0
-7670 7672 0
-7662 -7670 7673 0
-7671 7673 0
-7662 -7671 0
-7663 7674 0
-7672 7674 0
-7663 -7672 7675 0
-7673 7675 0
-7663 -7673 0
-7664 7676 0
-7674 7676 0
-7664 -7674 7677 0
-7675 7677 0
-7664 -7675 0
-7665 -7677 0
-7680 14 0
-14 7680 0
-7681 63 0
-63 7681 0
-7682 112 0
-112 7682 0
-7683 161 0
-161 7683 0
-7684 210 0
-210 7684 0
-7685 259 0
-259 7685 0
-7686 308 0
-308 7686 0
-7680 7687 0
-7681 7688 0
-7687 7688 0
-7681 -7687 0
-7682 7689 0
-7688 7689 0
-7682 -7688 0
-7683 7690 0
-7689 7690 0
-7683 -7689 0
-7684 7691 0
-7690 7691 0
-7684 -7690 0
-7685 7692 0
-7691 7692 0
-7685 -7691 0
-7686 -7692 0
-8 7694 0
-57 7695 0
-7694 7695 0
-57 -7694 0
-106 7696 0
-7695 7696 0
-106 -7695 0
-155 7697 0
-7696 7697 0
-155 -7696 0
-204 7698 0
-7697 7698 0
-204 -7697 0
-253 7699 0
-7698 7699 0
-253 -7698 0
-302 -7699 0
8 57 106 155 204 253 302 0
-9 7701 0
-58 7702 0
-7701 7702 0
-58 -7701 0
-107 7703 0
-7702 7703 0
-107 -7702 0
-156 7704 0
-7703 7704 0
-156 -7703 0
-205 7705 0
-7704 7705 0
-205 -7704 0
-254 7706 0
-7705 7706 0
-254 -7705 0
-303 -7706 0
9 58 107 156 205 254 303 0
-10 7708 0
-59 7709 0
-7708 7709 0
-59 -7708 0
-108 7710 0
-7709 7710 0
-108 -7709 0
-157 7711 0
-7710 7711 0
-157 -7710 0
-206 7712 0
-7711 7712 0
-206 -7711 0
-255 7713 0
-7712 7713 0
-255 -7712 0
-304 -7713 0
10 59 108 157 206 255 304 0
-11 7715 0
-60 7716 0
-7715 7716 0
-60 -7715 0
-109 7717 0
-7716 7717 0
-109 -7716 0
-158 7718 0
-7717 7718 0
-158 -7717 0
-207 7719 0
-7718 7719 0
-207 -7718 0
-256 7720 0
-7719 7720 0
-256 -7719 0
-305 -7720 0
11 60 109 158 207 256 305 0
-12 7722 0
-61 7723 0
-7722 7723 0
-61 -7722 0
-110 7724 0
-7723 7724 0
-110 -7723 0
-159 7725 0
-7724 7725 0
-159 -7724 0
-208 7726 0
-7725 7726 0
-208 -7725 0
-257 7727 0
-7726 7727 0
-257 -7726 0
-306 -7727 0
12 61 110 159 208 257 306 0
-13 7729 0
-62 7730 0
-7729 7730 0
-62 -7729 0
-111 7731 0
-7730 7731 0
-111 -7730 0
-160 7732 0
-7731 7732 0
-160 -7731 0
-209 7733 0
-7732 7733 0
-209 -7732 0
-258 7734 0
-7733 7734 0
-258 -7733 0
-307 -7734 0
13 62 111 160 209 258 307 0
-14 7736 0
-63 7737 0
-7736 7737 0
-63 -7736 0
-112 7738 0
-7737 7738 0
-112 -7737 0
-161 7739 0
-7738 7739 0
-161 -7738 0
-210 7740 0
-7739 7740 0
-210 -7739 0
-259 7741 0
-7740 7741 0
-259 -7740 0
-308 -7741 0
14 63 112 161 210 259 308 0
-7743 15 0
-15 7743 0
-7744 64 0
-64 7744 0
-7745 113 0
-113 7745 0
-7746 162 0
-162 7746 0
-7747 211 0
-211 7747 0
-7748 260 0
-260 7748 0
-7749 309 0
-309 7749 0
-7743 7750 0
-7744 7751 0
-7750 7751 0
-7744 -7750 0
-7745 7752 0
-7751 7752 0
-7745 -7751 0
-7746 7753 0
-7752 7753 0
-7746 -7752 0
-7747 7754 0
-7753 7754 0
-7747 -7753 0
-7748 7755 0
-7754 7755 0
-7748 -7754 0
-7749 -7755 0
-7757 15 16 0
-15 7757 0
-16 7757 0
-7758 64 65 0
-64 7758 0
-65 7758 0
-7759 113 114 0
-113 7759 0
-114 7759 0
-7760 162 163 0
-162 7760 0
-163 7760 0
-7761 211 212 0
-211 7761 0
-212 7761 0
-7762 260 261 0
-260 7762 0
-261 7762 0
-7763 309 310 0
-309 7763 0
-310 7763 0
-7757 7764 0
-7765 0
-7758 7766 0
-7764 7766 0
-7758 -7764 7767 0
-7765 7767 0
-7758 -7765 0
-7759 7768 0
-7766 7768 0
-7759 -7766 7769 0
-7767 7769 0
-7759 -7767 0
-7760 7770 0
-7768 7770 0
-7760 -7768 7771 0
-7769 7771 0
-7760 -7769 0
-7761 7772 0
-7770 7772 0
-7761 -7770 7773 0
-7771 7773 0
-7761 -7771 0
-7762 7774 0
-7772 7774 0
-7762 -7772 7775 0
-7773 7775 0
-7762 -7773 0
-7763 -7775 0
-7778 15 16 17 0
-15 7778 0
-16 7778 0
-17 7778 0
-7779 64 65 66 0
-64 7779 0
-65 7779 0
-66 7779 0
-7780 113 114 115 0
-113 7780 0
-114 7780 0
-115 7780 0
-7781 162 163 164 0
-162 7781 0
-163 7781 0
-164 7781 0
-7782 211 212 213 0
-211 7782 0
-212 7782 0
-213 7782 0
-7783 260 261 262 0
-260 7783 0
-261 7783 0
-262 7783 0
-7784 309 310 311 0
-309 7784 0
-310 7784 0
-311 7784 0
-7778 7785 0
-7786 0
-7787 0
-7779 7788 0
-7785 7788 0
-7779 -7785 7789 0
-7786 7789 0
-7779 -7786 7790 0
-7787 7790 0
-7779 -7787 0
-7780 7791 0
-7788 7791 0
-7780 -7788 7792 0
-7789 7792 0
-7780 -7789 7793 0
-7790 7793 0
-7780 -7790 0
-7781 7794 0
-7791 7794 0
-7781 -7791 7795 0
-7792 7795 0
-7781 -7792 7796 0
-7793 7796 0
-7781 -7793 0
-7782 7797 0
-7794 7797 0
-7782 -7794 7798 0
-7795 7798 0
-7782 -7795 7799 0
-7796 7799 0
-7782 -7796 0
-7783 7800 0
-7797 7800 0
-7783 -7797 7801 0
-7798 7801 0
-7783 -7798 7802 0
-7799 7802 0
-7783 -7799 0
-7784 -7802 0
-7806 15 16 17 18 0
-15 7806 0
-16 7806 0
-17 7806 0
-18 7806 0
-7807 64 65 66 67 0
-64 7807 0
-65 7807 0
-66 7807 0
-67 7807 0
-7808 113 114 115 116 0
-113 7808 0
-114 7808 0
-115 7808 0
-116 7808 0
-7809 162 163 164 165 0
-162 7809 0
-163 7809 0
-164 7809 0
-165 7809 0
-7810 211 212 213 214 0
-211 7810 0
-212 7810 0
-213 7810 0
-214 7810 0
-7811 260 261 262 263 0
-260 7811 0
-261 7811 0
-262 7811 0
-263 7811 0
-7812 309 310 311 312 0
-309 7812 0
-310 7812 0
-311 7812 0
-312 7812 0
-7806 7813 0
-7814 0
-7815 0
-7816 0
-7807 7817 0
-7813 7817 0
-7807 -7813 7818 0
-7814 7818 0
-7807 -7814 7819 0
-7815 7819 0
-7807 -7815 7820 0
-7816 7820 0
-7807 -7816 0
-7808 7821 0
-7817 7821 0
-7808 -7817 7822 0
-7818 7822 0
-7808 -7818 7823 0
-7819 7823 0
-7808 -7819 7824 0
-7820 7824 0
-7808 -7820 0
-7809 7825 0
-7821 7825 0
-7809 -7821 7826 0
-7822 7826 0
-7809 -7822 7827 0
-7823 7827 0
-7809 -7823 7828 0
-7824 7828 0
-7809 -7824 0
-7810 7829 0
-7825 7829 0
-7810 -7825 7830 0
-7826 7830 0
-7810 -7826 7831 0
-7827 7831 0
-7810 -7827 7832 0
-7828 7832 0
-7810 -7828 0
-7811 7833 0
-7829 7833 0
-7811 -7829 7834 0
-7830 7834 0
-7811 -7830 7835 0
-7831 7835 0
-7811 -7831 7836 0
-7832 7836 0
-7811 -7832 0
-7812 -7836 0
-7841 15 16 17 18 19 0
-15 7841 0
-16 7841 0
-17 7841 0
-18 7841 0
-19 7841 0
-7842 64 65 66 67 68 0
-64 7842 0
-65 7842 0
-66 7842 0
-67 7842 0
-68 7842 0
-7843 113 114 115 116 117 0
-113 7843 0
-114 7843 0
-115 7843 0
-116 7843 0
-117 7843 0
-7844 162 163 164 165 166 0
-162 7844 0
-163 7844 0
-164 7844 0
-165 7844 0
-166 7844 0
-7845 211 212 213 214 215 0
-211 7845 0
-212 7845 0
-213 7845 0
-214 7845 0
-215 7845 0
-7846 260 261 262 263 264 0
-260 7846 0
-261 7846 0
-262 7846 0
-263 7846 0
-264 7846 0
-7847 309 310 311 312 313 0
-309 7847 0
-310 7847 0
-311 7847 0
-312 7847 0
-313 7847 0
-7841 7848 0
-7849 0
-7850 0
-7851 0
-7852 0
-7842 7853 0
-7848 7853 0
-7842 -7848 7854 0
-7849 7854 0
-7842 -7849 7855 0
-7850 7855 0
-7842 -7850 7856 0
-7851 7856 0
-7842 -7851 7857 0
-7852 7857 0
-7842 -7852 0
-7843 7858 0
-7853 7858 0
-7843 -7853 7859 0
-7854 7859 0
-7843 -7854 7860 0
-7855 7860 0
-7843 -7855 7861 0
-7856 7861 0
-7843 -7856 7862 0
-7857 7862 0
-7843 -7857 0
-7844 7863 0
-7858 7863 0
-7844 -7858 7864 0
-7859 7864 0
-7844 -7859 7865 0
-7860 7865 0
-7844 -7860 7866 0
-7861 7866 0
-7844 -7861 7867 0
-7862 7867 0
-7844 -7862 0
-7845 7868 0
-7863 7868 0
-7845 -7863 7869 0
-7864 7869 0
-7845 -7864 7870 0
-7865 7870 0
-7845 -7865 7871 0
-7866 7871 0
-7845 -7866 7872 0
-7867 7872 0
-7845 -7867 0
-7846 7873 0
-7868 7873 0
-7846 -7868 7874 0
-7869 7874 0
-7846 -7869 7875 0
-7870 7875 0
-7846 -7870 7876 0
-7871 7876 0
-7846 -7871 7877 0
-7872 7877 0
-7846 -7872 0
-7847 -7877 0
-7883 15 16 17 18 19 20 0
-15 7883 0
-16 7883 0
-17 7883 0
-18 7883 0
-19 7883 0
-20 7883 0
-7884 64 65 66 67 68 69 0
-64 7884 0
-65 7884 0
-66 7884 0
-67 7884 0
-68 7884 0
-69 7884 0
-7885 113 114 115 116 117 118 0
-113 7885 0
-114 7885 0
-115 7885 0
-116 7885 0
-117 7885 0
-118 7885 0
-7886 162 163 164 165 166 167 0
-162 7886 0
-163 7886 0
-164 7886 0
-165 7886 0
-166 7886 0
-167 7886 0
-7887 211 212 213 214 215 216 0
-211 7887 0
-212 7887 0
-213 7887 0
-214 7887 0
-215 7887 0
-216 7887 0
-7888 260 261 262 263 264 265 0
-260 7888 0
-261 7888 0
-262 7888 0
-263 7888 0
-264 7888 0
-265 7888 0
-7889 309 310 311 312 313 314 0
-309 7889 0
-310 7889 0
-311 7889 0
-312 7889 0
-313 7889 0
-314 7889 0
-7883 7890 0
-7891 0
-7892 0
-7893 0
-7894 0
-7895 0
-7884 7896 0
-7890 7896 0
-7884 -7890 7897 0
-7891 7897 0
-7884 -7891 7898 0
-7892 7898 0
-7884 -7892 7899 0
-7893 7899 0
-7884 -7893 7900 0
-7894 7900 0
-7884 -7894 7901 0
-7895 7901 0
-7884 -7895 0
-7885 7902 0
-7896 7902 0
-7885 -7896 7903 0
-7897 7903 0
-7885 -7897 7904 0
-7898 7904 0
-7885 -7898 7905 0
-7899 7905 0
-7885 -7899 7906 0
-7900 7906 0
-7885 -7900 7907 0
-7901 7907 0
-7885 -7901 0
-7886 7908 0
-7902 7908 0
-7886 -7902 7909 0
-7903 7909 0
-7886 -7903 7910 0
-7904 7910 0
-7886 -7904 7911 0
-7905 7911 0
-7886 -7905 7912 0
-7906 7912 0
-7886 -7906 7913 0
-7907 7913 0
-7886 -7907 0
-7887 7914 0
-7908 7914 0
-7887 -7908 7915 0
-7909 7915 0
-7887 -7909 7916 0
-7910 7916 0
-7887 -7910 7917 0
-7911 7917 0
-7887 -7911 7918 0
-7912 7918 0
-7887 -7912 7919 0
-7913 7919 0
-7887 -7913 0
-7888 7920 0
-7914 7920 0
-7888 -7914 7921 0
-7915 7921 0
-7888 -7915 7922 0
-7916 7922 0
-7888 -7916 7923 0
-7917 7923 0
-7888 -7917 7924 0
-7918 7924 0
-7888 -7918 7925 0
-7919 7925 0
-7888 -7919 0
-7889 -7925 0
-7932 15 16 17 18 19 20 21 0
-15 7932 0
-16 7932 0
-17 7932 0
-18 7932 0
-19 7932 0
-20 7932 0
-21 7932 0
-7933 64 65 66 67 68 69 70 0
-64 7933 0
-65 7933 0
-66 7933 0
-67 7933 0
-68 7933 0
-69 7933 0
-70 7933 0
-7934 113 114 115 116 117 118 119 0
-113 7934 0
-114 7934 0
-115 7934 0
-116 7934 0
-117 7934 0
-118 7934 0
-119 7934 0
-7935 162 163 164 165 166 167 168 0
-162 7935 0
-163 7935 0
-164 7935 0
-165 7935 0
-166 7935 0
-167 7935 0
-168 7935 0
-7936 211 212 213 214 215 216 217 0
-211 7936 0
-212 7936 0
-213 7936 0
-214 7936 0
-215 7936 0
-216 7936 0
-217 7936 0
-7937 260 261 262 263 264 265 266 0
-260 7937 0
-261 7937 0
-262 7937 0
-263 7937 0
-264 7937 0
-265 7937 0
-266 7937 0
-7938 309 310 311 312 313 314 315 0
-309 7938 0
-310 7938 0
-311 7938 0
-312 7938 0
-313 7938 0
-314 7938 0
-315 7938 0
-7939 16 0
-16 7939 0
-7940 65 0
-65 7940 0
-7941 114 0
-114 7941 0
-7942 163 0
-163 7942 0
-7943 212 0
-212 7943 0
-7944 261 0
-261 7944 0
-7945 310 0
-310 7945 0
-7939 7946 0
-7940 7947 0
-7946 7947 0
-7940 -7946 0
-7941 7948 0
-7947 7948 0
-7941 -7947 0
-7942 7949 0
-7948 7949 0
-7942 -7948 0
-7943 7950 0
-7949 7950 0
-7943 -7949 0
-7944 7951 0
-7950 7951 0
-7944 -7950 0
-7945 -7951 0
-7953 16 17 0
-16 7953 0
-17 7953 0
-7954 65 66 0
-65 7954 0
-66 7954 0
-7955 114 115 0
-114 7955 0
-115 7955 0
-7956 163 164 0
-163 7956 0
-164 7956 0
-7957 212 213 0
-212 7957 0
-213 7957 0
-7958 261 262 0
-261 7958 0
-262 7958 0
-7959 310 311 0
-310 7959 0
-311 7959 0
-7953 7960 0
-7961 0
-7954 7962 0
-7960 7962 0
-7954 -7960 7963 0
-7961 7963 0
-7954 -7961 0
-7955 7964 0
-7962 7964 0
-7955 -7962 7965 0
-7963 7965 0
-7955 -7963 0
-7956 7966 0
-7964 7966 0
-7956 -7964 7967 0
-7965 7967 0
-7956 -7965 0
-7957 7968 0
-7966 7968 0
-7957 -7966 7969 0
-7967 7969 0
-7957 -7967 0
-7958 7970 0
-7968 7970 0
-7958 -7968 7971 0
-7969 7971 0
-7958 -7969 0
-7959 -7971 0
-7974 16 17 18 0
-16 7974 0
-17 7974 0
-18 7974 0
-7975 65 66 67 0
-65 7975 0
-66 7975 0
-67 7975 0
-7976 114 115 116 0
-114 7976 0
-115 7976 0
-116 7976 0
-7977 163 164 165 0
-163 7977 0
-164 7977 0
-165 7977 0
-7978 212 213 214 0
-212 7978 0
-213 7978 0
-214 7978 0
-7979 261 262 263 0
-261 7979 0
-262 7979 0
-263 7979 0
-7980 310 311 312 0
-310 7980 0
-311 7980 0
-312 7980 0
-7974 7981 0
-7982 0
-7983 0
-7975 7984 0
-7981 7984 0
-7975 -7981 7985 0
-7982 7985 0
-7975 -7982 7986 0
-7983 7986 0
-7975 -7983 0
-7976 7987 0
-7984 7987 0
-7976 -7984 7988 0
-7985 7988 0
-7976 -7985 7989 0
-7986 7989 0
-7976 -7986 0
-7977 7990 0
-7987 7990 0
-7977 -7987 7991 0
-7988 7991 0
-7977 -7988 7992 0
-7989 7992 0
-7977 -7989 0
-7978 7993 0
-7990 7993 0
-7978 -7990 7994 0
-7991 7994 0
-7978 -7991 7995 0
-7992 7995 0
-7978 -7992 0
-7979 7996 0
-7993 7996 0
-7979 -7993 7997 0
-7994 7997 0
-7979 -7994 7998 0
-7995 7998 0
-7979 -7995 0
-7980 -7998 0
-8002 16 17 18 19 0
-16 8002 0
-17 8002 0
-18 8002 0
-19 8002 0
-8003 65 66 67 68 0
-65 8003 0
-66 8003 0
-67 8003 0
-68 8003 0
-8004 114 115 116 117 0
-114 8004 0
-115 8004 0
-116 8004 0
-117 8004 0
-8005 163 164 165 166 0
-163 8005 0
-164 8005 0
-165 8005 0
-166 8005 0
-8006 212 213 214 215 0
-212 8006 0
-213 8006 0
-214 8006 0
-215 8006 0
-8007 261 262 263 264 0
-261 8007 0
-262 8007 0
-263 8007 0
-264 8007 0
-8008 310 311 312 313 0
-310 8008 0
-311 8008 0
-312 8008 0
-313 8008 0
-8002 8009 0
-8010 0
-8011 0
-8012 0
-8003 8013 0
-8009 8013 0
-8003 -8009 8014 0
-8010 8014 0
-8003 -8010 8015 0
-8011 8015 0
-8003 -8011 8016 0
-8012 8016 0
-8003 -8012 0
-8004 8017 0
-8013 8017 0
-8004 -8013 8018 0
-8014 8018 0
-8004 -8014 8019 0
-8015 8019 0
-8004 -8015 8020 0
-8016 8020 0
-8004 -8016 0
-8005 8021 0
-8017 8021 0
-8005 -8017 8022 0
-8018 8022 0
-8005 -8018 8023 0
-8019 8023 0
-8005 -8019 8024 0
-8020 8024 0
-8005 -8020 0
-8006 8025 0
-8021 8025 0
-8006 -8021 8026 0
-8022 8026 0
-8006 -8022 8027 0
-8023 8027 0
-8006 -8023 8028 0
-8024 8028 0
-8006 -8024 0
-8007 8029 0
-8025 8029 0
-8007 -8025 8030 0
-8026 8030 0
-8007 -8026 8031 0
-8027 8031 0
-8007 -8027 8032 0
-8028 8032 0
-8007 -8028 0
-8008 -8032 0
-8037 16 17 18 19 20 0
-16 8037 0
-17 8037 0
-18 8037 0
-19 8037 0
-20 8037 0
-8038 65 66 67 68 69 0
-65 8038 0
-66 8038 0
-67 8038 0
-68 8038 0
-69 8038 0
-8039 114 115 116 117 118 0
-114 8039 0
-115 8039 0
-116 8039 0
-117 8039 0
-118 8039 0
-8040 163 164 165 166 167 0
-163 8040 0
-164 8040 0
-165 8040 0
-166 8040 0
-167 8040 0
-8041 212 213 214 215 216 0
-212 8041 0
-213 8041 0
-214 8041 0
-215 8041 0
-216 8041 0
-8042 261 262 263 264 265 0
-261 8042 0
-262 8042 0
-263 8042 0
-264 8042 0
-265 8042 0
-8043 310 311 312 313 314 0
-310 8043 0
-311 8043 0
-312 8043 0
-313 8043 0
-314 8043 0
-8037 8044 0
-8045 0
-8046 0
-8047 0
-8048 0
-8038 8049 0
-8044 8049 0
-8038 -8044 8050 0
-8045 8050 0
-8038 -8045 8051 0
-8046 8051 0
-8038 -8046 8052 0
-8047 8052 0
-8038 -8047 8053 0
-8048 8053 0
-8038 -8048 0
-8039 8054 0
-8049 8054 0
-8039 -8049 8055 0
-8050 8055 0
-8039 -8050 8056 0
-8051 8056 0
-8039 -8051 8057 0
-8052 8057 0
-8039 -8052 8058 0
-8053 8058 0
-8039 -8053 0
-8040 8059 0
-8054 8059 0
-8040 -8054 8060 0
-8055 8060 0
-8040 -8055 8061 0
-8056 8061 0
-8040 -8056 8062 0
-8057 8062 0
-8040 -8057 8063 0
-8058 8063 0
-8040 -8058 0
-8041 8064 0
-8059 8064 0
-8041 -8059 8065 0
-8060 8065 0
-8041 -8060 8066 0
-8061 8066 0
-8041 -8061 8067 0
-8062 8067 0
-8041 -8062 8068 0
-8063 8068 0
-8041 -8063 0
-8042 8069 0
-8064 8069 0
-8042 -8064 8070 0
-8065 8070 0
-8042 -8065 8071 0
-8066 8071 0
-8042 -8066 8072 0
-8067 8072 0
-8042 -8067 8073 0
-8068 8073 0
-8042 -8068 0
-8043 -8073 0
-8079 16 17 18 19 20 21 0
-16 8079 0
-17 8079 0
-18 8079 0
-19 8079 0
-20 8079 0
-21 8079 0
-8080 65 66 67 68 69 70 0
-65 8080 0
-66 8080 0
-67 8080 0
-68 8080 0
-69 8080 0
-70 8080 0
-8081 114 115 116 117 118 119 0
-114 8081 0
-115 8081 0
-116 8081 0
-117 8081 0
-118 8081 0
-119 8081 0
-8082 163 164 165 166 167 168 0
-163 8082 0
-164 8082 0
-165 8082 0
-166 8082 0
-167 8082 0
-168 8082 0
-8083 212 213 214 215 216 217 0
-212 8083 0
-213 8083 0
-214 8083 0
-215 8083 0
-216 8083 0
-217 8083 0
-8084 261 262 263 264 265 266 0
-261 8084 0
-262 8084 0
-263 8084 0
-264 8084 0
-265 8084 0
-266 8084 0
-8085 310 311 312 313 314 315 0
-310 8085 0
-311 8085 0
-312 8085 0
-313 8085 0
-314 8085 0
-315 8085 0
-8079 8086 0
-8087 0
-8088 0
-8089 0
-8090 0
-8091 0
-8080 8092 0
-8086 8092 0
-8080 -8086 8093 0
-8087 8093 0
-8080 -8087 8094 0
-8088 8094 0
-8080 -8088 8095 0
-8089 8095 0
-8080 -8089 8096 0
-8090 8096 0
-8080 -8090 8097 0
-8091 8097 0
-8080 -8091 0
-8081 8098 0
-8092 8098 0
-8081 -8092 8099 0
-8093 8099 0
-8081 -8093 8100 0
-8094 8100 0
-8081 -8094 8101 0
-8095 8101 0
-8081 -8095 8102 0
-8096 8102 0
-8081 -8096 8103 0
-8097 8103 0
-8081 -8097 0
-8082 8104 0
-8098 8104 0
-8082 -8098 8105 0
-8099 8105 0
-8082 -8099 8106 0
-8100 8106 0
-8082 -8100 8107 0
-8101 8107 0
-8082 -8101 8108 0
-8102 8108 0
-8082 -8102 8109 0
-8103 8109 0
-8082 -8103 0
-8083 8110 0
-8104 8110 0
-8083 -8104 8111 0
-8105 8111 0
-8083 -8105 8112 0
-8106 8112 0
-8083 -8106 8113 0
-8107 8113 0
-8083 -8107 8114 0
-8108 8114 0
-8083 -8108 8115 0
-8109 8115 0
-8083 -8109 0
-8084 8116 0
-8110 8116 0
-8084 -8110 8117 0
-8111 8117 0
-8084 -8111 8118 0
-8112 8118 0
-8084 -8112 8119 0
-8113 8119 0
-8084 -8113 8120 0
-8114 8120 0
-8084 -8114 8121 0
-8115 8121 0
-8084 -8115 0
-8085 -8121 0
-8128 17 0
-17 8128 0
-8129 66 0
-66 8129 0
-8130 115 0
-115 8130 0
-8131 164 0
-164 8131 0
-8132 213 0
-213 8132 0
-8133 262 0
-262 8133 0
-8134 311 0
-311 8134 0
-8128 8135 0
-8129 8136 0
-8135 8136 0
-8129 -8135 0
-8130 8137 0
-8136 8137 0
-8130 -8136 0
-8131 8138 0
-8137 8138 0
-8131 -8137 0
-8132 8139 0
-8138 8139 0
-8132 -8138 0
-8133 8140 0
-8139 8140 0
-8133 -8139 0
-8134 -8140 0
-8142 17 18 0
-17 8142 0
-18 8142 0
-8143 66 67 0
-66 8143 0
-67 8143 0
-8144 115 116 0
-115 8144 0
-116 8144 0
-8145 164 165 0
-164 8145 0
-165 8145 0
-8146 213 214 0
-213 8146 0
-214 8146 0
-8147 262 263 0
-262 8147 0
-263 8147 0
-8148 311 312 0
-311 8148 0
-312 8148 0
-8142 8149 0
-8150 0
-8143 8151 0
-8149 8151 0
-8143 -8149 8152 0
-8150 8152 0
-8143 -8150 0
-8144 8153 0
-8151 8153 0
-8144 -8151 8154 0
-8152 8154 0
-8144 -8152 0
-8145 8155 0
-8153 8155 0
-8145 -8153 8156 0
-8154 8156 0
-8145 -8154 0
-8146 8157 0
-8155 8157 0
-8146 -8155 8158 0
-8156 8158 0
-8146 -8156 0
-8147 8159 0
-8157 8159 0
-8147 -8157 8160 0
-8158 8160 0
-8147 -8158 0
-8148 -8160 0
-8163 17 18 19 0
-17 8163 0
-18 8163 0
-19 8163 0
-8164 66 67 68 0
-66 8164 0
-67 8164 0
-68 8164 0
-8165 115 116 117 0
-115 8165 0
-116 8165 0
-117 8165 0
-8166 164 165 166 0
-164 8166 0
-165 8166 0
-166 8166 0
-8167 213 214 215 0
-213 8167 0
-214 8167 0
-215 8167 0
-8168 262 263 264 0
-262 8168 0
-263 8168 0
-264 8168 0
-8169 311 312 313 0
-311 8169 0
-312 8169 0
-313 8169 0
-8163 8170 0
-8171 0
-8172 0
-8164 8173 0
-8170 8173 0
-8164 -8170 8174 0
-8171 8174 0
-8164 -8171 8175 0
-8172 8175 0
-8164 -8172 0
-8165 8176 0
-8173 8176 0
-8165 -8173 8177 0
-8174 8177 0
-8165 -8174 8178 0
-8175 8178 0
-8165 -8175 0
-8166 8179 0
-8176 8179 0
-8166 -8176 8180 0
-8177 8180 0
-8166 -8177 8181 0
-8178 8181 0
-8166 -8178 0
-8167 8182 0
-8179 8182 0
-8167 -8179 8183 0
-8180 8183 0
-8167 -8180 8184 0
-8181 8184 0
-8167 -8181 0
-8168 8185 0
-8182 8185 0
-8168 -8182 8186 0
-8183 8186 0
-8168 -8183 8187 0
-8184 8187 0
-8168 -8184 0
-8169 -8187 0
-8191 17 18 19 20 0
-17 8191 0
-18 8191 0
-19 8191 0
-20 8191 0
-8192 66 67 68 69 0
-66 8192 0
-67 8192 0
-68 8192 0
-69 8192 0
-8193 115 116 117 118 0
-115 8193 0
-116 8193 0
-117 8193 0
-118 8193 0
-8194 164 165 166 167 0
-164 8194 0
-165 8194 0
-166 8194 0
-167 8194 0
-8195 213 214 215 216 0
-213 8195 0
-214 8195 0
-215 8195 0
-216 8195 0
-8196 262 263 264 265 0
-262 8196 0
-263 8196 0
-264 8196 0
-265 8196 0
-8197 311 312 313 314 0
-311 8197 0
-312 8197 0
-313 8197 0
-314 8197 0
-8191 8198 0
-8199 0
-8200 0
-8201 0
-8192 8202 0
-8198 8202 0
-8192 -8198 8203 0
-8199 8203 0
-8192 -8199 8204 0
-8200 8204 0
-8192 -8200 8205 0
-8201 8205 0
-8192 -8201 0
-8193 8206 0
-8202 8206 0
-8193 -8202 8207 0
-8203 8207 0
-8193 -8203 8208 0
-8204 8208 0
-8193 -8204 8209 0
-8205 8209 0
-8193 -8205 0
-8194 8210 0
-8206 8210 0
-8194 -8206 8211 0
-8207 8211 0
-8194 -8207 8212 0
-8208 8212 0
-8194 -8208 8213 0
-8209 8213 0
-8194 -8209 0
-8195 8214 0
-8210 8214 0
-8195 -8210 8215 0
-8211 8215 0
-8195 -8211 8216 0
-8212 8216 0
-8195 -8212 8217 0
-8213 8217 0
-8195 -8213 0
-8196 8218 0
-8214 8218 0
-8196 -8214 8219 0
-8215 8219 0
-8196 -8215 8220 0
-8216 8220 0
-8196 -8216 8221 0
-8217 8221 0
-8196 -8217 0
-8197 -8221 0
-8226 17 18 19 20 21 0
-17 8226 0
-18 8226 0
-19 8226 0
-20 8226 0
-21 8226 0
-8227 66 67 68 69 70 0
-66 8227 0
-67 8227 0
-68 8227 0
-69 8227 0
-70 8227 0
-8228 115 116 117 118 119 0
-115 8228 0
-116 8228 0
-117 8228 0
-118 8228 0
-119 8228 0
-8229 164 165 166 167 168 0
-164 8229 0
-165 8229 0
-166 8229 0
-167 8229 0
-168 8229 0
-8230 213 214 215 216 217 0
-213 8230 0
-214 8230 0
-215 8230 0
-216 8230 0
-217 8230 0
-8231 262 263 264 265 266 0
-262 8231 0
-263 8231 0
-264 8231 0
-265 8231 0
-266 8231 0
-8232 311 312 313 314 315 0
-311 8232 0
-312 8232 0
-313 8232 0
-314 8232 0
-315 8232 0
-8226 8233 0
-8234 0
-8235 0
-8236 0
-8237 0
-8227 8238 0
-8233 8238 0
-8227 -8233 8239 0
-8234 8239 0
-8227 -8234 8240 0
-8235 8240 0
-8227 -8235 8241 0
-8236 8241 0
-8227 -8236 8242 0
-8237 8242 0
-8227 -8237 0
-8228 8243 0
-8238 8243 0
-8228 -8238 8244 0
-8239 8244 0
-8228 -8239 8245 0
-8240 8245 0
-8228 -8240 8246 0
-8241 8246 0
-8228 -8241 8247 0
-8242 8247 0
-8228 -8242 0
-8229 8248 0
-8243 8248 0
-8229 -8243 8249 0
-8244 8249 0
-8229 -8244 8250 0
-8245 8250 0
-8229 -8245 8251 0
-8246 8251 0
-8229 -8246 8252 0
-8247 8252 0
-8229 -8247 0
-8230 8253 0
-8248 8253 0
-8230 -8248 8254 0
-8249 8254 0
-8230 -8249 8255 0
-8250 8255 0
-8230 -8250 8256 0
-8251 8256 0
-8230 -8251 8257 0
-8252 8257 0
-8230 -8252 0
-8231 8258 0
-8253 8258 0
-8231 -8253 8259 0
-8254 8259 0
-8231 -8254 8260 0
-8255 8260 0
-8231 -8255 8261 0
-8256 8261 0
-8231 -8256 8262 0
-8257 8262 0
-8231 -8257 0
-8232 -8262 0
-8268 18 0
-18 8268 0
-8269 67 0
-67 8269 0
-8270 116 0
-116 8270 0
-8271 165 0
-165 8271 0
-8272 214 0
-214 8272 0
-8273 263 0
-263 8273 0
-8274 312 0
-312 8274 0
-8268 8275 0
-8269 8276 0
-8275 8276 0
-8269 -8275 0
-8270 8277 0
-8276 8277 0
-8270 -8276 0
-8271 8278 0
-8277 8278 0
-8271 -8277 0
-8272 8279 0
-8278 8279 0
-8272 -8278 0
-8273 8280 0
-8279 8280 0
-8273 -8279 0
-8274 -8280 0
-8282 18 19 0
-18 8282 0
-19 8282 0
-8283 67 68 0
-67 8283 0
-68 8283 0
-8284 116 117 0
-116 8284 0
-117 8284 0
-8285 165 166 0
-165 8285 0
-166 8285 0
-8286 214 215 0
-214 8286 0
-215 8286 0
-8287 263 264 0
-263 8287 0
-264 8287 0
-8288 312 313 0
-312 8288 0
-313 8288 0
-8282 8289 0
-8290 0
-8283 8291 0
-8289 8291 0
-8283 -8289 8292 0
-8290 8292 0
-8283 -8290 0
-8284 8293 0
-8291 8293 0
-8284 -8291 8294 0
-8292 8294 0
-8284 -8292 0
-8285 8295 0
-8293 8295 0
-8285 -8293 8296 0
-8294 8296 0
-8285 -8294 0
-8286 8297 0
-8295 8297 0
-8286 -8295 8298 0
-8296 8298 0
-8286 -8296 0
-8287 8299 0
-8297 8299 0
-8287 -8297 8300 0
-8298 8300 0
-8287 -8298 0
-8288 -8300 0
-8303 18 19 20 0
-18 8303 0
-19 8303 0
-20 8303 0
-8304 67 68 69 0
-67 8304 0
-68 8304 0
-69 8304 0
-8305 116 117 118 0
-116 8305 0
-117 8305 0
-118 8305 0
-8306 165 166 167 0
-165 8306 0
-166 8306 0
-167 8306 0
-8307 214 215 216 0
-214 8307 0
-215 8307 0
-216 8307 0
-8308 263 264 265 0
-263 8308 0
-264 8308 0
-265 8308 0
-8309 312 313 314 0
-312 8309 0
-313 8309 0
-314 8309 0
-8303 8310 0
-8311 0
-8312 0
-8304 8313 0
-8310 8313 0
-8304 -8310 8314 0
-8311 8314 0
-8304 -8311 8315 0
-8312 8315 0
-8304 -8312 0
-8305 8316 0
-8313 8316 0
-8305 -8313 8317 0
-8314 8317 0
-8305 -8314 8318 0
-8315 8318 0
-8305 -8315 0
-8306 8319 0
-8316 8319 0
-8306 -8316 8320 0
-8317 8320 0
-8306 -8317 8321 0
-8318 8321 0
-8306 -8318 0
-8307 8322 0
-8319 8322 0
-8307 -8319 8323 0
-8320 8323 0
-8307 -8320 8324 0
-8321 8324 0
-8307 -8321 0
-8308 8325 0
-8322 8325 0
-8308 -8322 8326 0
-8323 8326 0
-8308 -8323 8327 0
-8324 8327 0
-8308 -8324 0
-8309 -8327 0
-8331 18 19 20 21 0
-18 8331 0
-19 8331 0
-20 8331 0
-21 8331 0
-8332 67 68 69 70 0
-67 8332 0
-68 8332 0
-69 8332 0
-70 8332 0
-8333 116 117 118 119 0
-116 8333 0
-117 8333 0
-118 8333 0
-119 8333 0
-8334 165 166 167 168 0
-165 8334 0
-166 8334 0
-167 8334 0
-168 8334 0
-8335 214 215 216 217 0
-214 8335 0
-215 8335 0
-216 8335 0
-217 8335 0
-8336 263 264 265 266 0
-263 8336 0
-264 8336 0
-265 8336 0
-266 8336 0
-8337 312 313 314 315 0
-312 8337 0
-313 8337 0
-314 8337 0
-315 8337 0
-8331 8338 0
-8339 0
-8340 0
-8341 0
-8332 8342 0
-8338 8342 0
-8332 -8338 8343 0
-8339 8343 0
-8332 -8339 8344 0
-8340 8344 0
-8332 -8340 8345 0
-8341 8345 0
-8332 -8341 0
-8333 8346 0
-8342 8346 0
-8333 -8342 8347 0
-8343 8347 0
-8333 -8343 8348 0
-8344 8348 0
-8333 -8344 8349 0
-8345 8349 0
-8333 -8345 0
-8334 8350 0
-8346 8350 0
-8334 -8346 8351 0
-8347 8351 0
-8334 -8347 8352 0
-8348 8352 0
-8334 -8348 8353 0
-8349 8353 0
-8334 -8349 0
-8335 8354 0
-8350 8354 0
-8335 -8350 8355 0
-8351 8355 0
-8335 -8351 8356 0
-8352 8356 0
-8335 -8352 8357 0
-8353 8357 0
-8335 -8353 0
-8336 8358 0
-8354 8358 0
-8336 -8354 8359 0
-8355 8359 0
-8336 -8355 8360 0
-8356 8360 0
-8336 -8356 8361 0
-8357 8361 0
-8336 -8357 0
-8337 -8361 0
-8366 19 0
-19 8366 0
-8367 68 0
-68 8367 0
-8368 117 0
-117 8368 0
-8369 166 0
-166 8369 0
-8370 215 0
-215 8370 0
-8371 264 0
-264 8371 0
-8372 313 0
-313 8372 0
-8366 8373 0
-8367 8374 0
-8373 8374 0
-8367 -8373 0
-8368 8375 0
-8374 8375 0
-8368 -8374 0
-8369 8376 0
-8375 8376 0
-8369 -8375 0
-8370 8377 0
-8376 8377 0
-8370 -8376 0
-8371 8378 0
-8377 8378 0
-8371 -8377 0
-8372 -8378 0
-8380 19 20 0
-19 8380 0
-20 8380 0
-8381 68 69 0
-68 8381 0
-69 8381 0
-8382 117 118 0
-117 8382 0
-118 8382 0
-8383 166 167 0
-166 8383 0
-167 8383 0
-8384 215 216 0
-215 8384 0
-216 8384 0
-8385 264 265 0
-264 8385 0
-265 8385 0
-8386 313 314 0
-313 8386 0
-314 8386 0
-8380 8387 0
-8388 0
-8381 8389 0
-8387 8389 0
-8381 -8387 8390 0
-8388 8390 0
-8381 -8388 0
-8382 8391 0
-8389 8391 0
-8382 -8389 8392 0
-8390 8392 0
-8382 -8390 0
-8383 8393 0
-8391 8393 0
-8383 -8391 8394 0
-8392 8394 0
-8383 -8392 0
-8384 8395 0
-8393 8395 0
-8384 -8393 8396 0
-8394 8396 0
-8384 -8394 0
-8385 8397 0
-8395 8397 0
-8385 -8395 8398 0
-8396 8398 0
-8385 -8396 0
-8386 -8398 0
-8401 19 20 21 0
-19 8401 0
-20 8401 0
-21 8401 0
-8402 68 69 70 0
-68 8402 0
-69 8402 0
-70 8402 0
-8403 117 118 119 0
-117 8403 0
-118 8403 0
-119 8403 0
-8404 166 167 168 0
-166 8404 0
-167 8404 0
-168 8404 0
-8405 215 216 217 0
-215 8405 0
-216 8405 0
-217 8405 0
-8406 264 265 266 0
-264 8406 0
-265 8406 0
-266 8406 0
-8407 313 314 315 0
-313 8407 0
-314 8407 0
-315 8407 0
-8401 8408 0
-8409 0
-8410 0
-8402 8411 0
-8408 8411 0
-8402 -8408 8412 0
-8409 8412 0
-8402 -8409 8413 0
-8410 8413 0
-8402 -8410 0
-8403 8414 0
-8411 8414 0
-8403 -8411 8415 0
-8412 8415 0
-8403 -8412 8416 0
-8413 8416 0
-8403 -8413 0
-8404 8417 0
-8414 8417 0
-8404 -8414 8418 0
-8415 8418 0
-8404 -8415 8419 0
-8416 8419 0
-8404 -8416 0
-8405 8420 0
-8417 8420 0
-8405 -8417 8421 0
-8418 8421 0
-8405 -8418 8422 0
-8419 8422 0
-8405 -8419 0
-8406 8423 0
-8420 8423 0
-8406 -8420 8424 0
-8421 8424 0
-8406 -8421 8425 0
-8422 8425 0
-8406 -8422 0
-8407 -8425 0
-8429 20 0
-20 8429 0
-8430 69 0
-69 8430 0
-8431 118 0
-118 8431 0
-8432 167 0
-167 8432 0
-8433 216 0
-216 8433 0
-8434 265 0
-265 8434 0
-8435 314 0
-314 8435 0
-8429 8436 0
-8430 8437 0
-8436 8437 0
-8430 -8436 0
-8431 8438 0
-8437 8438 0
-8431 -8437 0
-8432 8439 0
-8438 8439 0
-8432 -8438 0
-8433 8440 0
-8439 8440 0
-8433 -8439 0
-8434 8441 0
-8440 8441 0
-8434 -8440 0
-8435 -8441 0
-8443 20 21 0
-20 8443 0
-21 8443 0
-8444 69 70 0
-69 8444 0
-70 8444 0
-8445 118 119 0
-118 8445 0
-119 8445 0
-8446 167 168 0
-167 8446 0
-168 8446 0
-8447 216 217 0
-216 8447 0
-217 8447 0
-8448 265 266 0
-265 8448 0
-266 8448 0
-8449 314 315 0
-314 8449 0
-315 8449 0
-8443 8450 0
-8451 0
-8444 8452 0
-8450 8452 0
-8444 -8450 8453 0
-8451 8453 0
-8444 -8451 0
-8445 8454 0
-8452 8454 0
-8445 -8452 8455 0
-8453 8455 0
-8445 -8453 0
-8446 8456 0
-8454 8456 0
-8446 -8454 8457 0
-8455 8457 0
-8446 -8455 0
-8447 8458 0
-8456 8458 0
-8447 -8456 8459 0
-8457 8459 0
-8447 -8457 0
-8448 8460 0
-8458 8460 0
-8448 -8458 8461 0
-8459 8461 0
-8448 -8459 0
-8449 -8461 0
-8464 21 0
-21 8464 0
-8465 70 0
-70 8465 0
-8466 119 0
-119 8466 0
-8467 168 0
-168 8467 0
-8468 217 0
-217 8468 0
-8469 266 0
-266 8469 0
-8470 315 0
-315 8470 0
-8464 8471 0
-8465 8472 0
-8471 8472 0
-8465 -8471 0
-8466 8473 0
-8472 8473 0
-8466 -8472 0
-8467 8474 0
-8473 8474 0
-8467 -8473 0
-8468 8475 0
-8474 8475 0
-8468 -8474 0
-8469 8476 0
-8475 8476 0
-8469 -8475 0
-8470 -8476 0
-15 8478 0
-64 8479 0
-8478 8479 0
-64 -8478 0
-113 8480 0
-8479 8480 0
-113 -8479 0
-162 8481 0
-8480 8481 0
-162 -8480 0
-211 8482 0
-8481 8482 0
-211 -8481 0
-260 8483 0
-8482 8483 0
-260 -8482 0
-309 -8483 0
15 64 113 162 211 260 309 0
-16 8485 0
-65 8486 0
-8485 8486 0
-65 -8485 0
-114 8487 0
-8486 8487 0
-114 -8486 0
-163 8488 0
-8487 8488 0
-163 -8487 0
-212 8489 0
-8488 8489 0
-212 -8488 0
-261 8490 0
-8489 8490 0
-261 -8489 0
-310 -8490 0
16 65 114 163 212 261 310 0
-17 8492 0
-66 8493 0
-8492 8493 0
-66 -8492 0
-115 8494 0
-8493 8494 0
-115 -8493 0
-164 8495 0
-8494 8495 0
-164 -8494 0
-213 8496 0
-8495 8496 0
-213 -8495 0
-262 8497 0
-8496 8497 0
-262 -8496 0
-311 -8497 0
17 66 115 164 213 262 311 0
-18 8499 0
-67 8500 0
-8499 8500 0
-67 -8499 0
-116 8501 0
-8500 8501 0
-116 -8500 0
-165 8502 0
-8501 8502 0
-165 -8501 0
-214 8503 0
-8502 8503 0
-214 -8502 0
-263 8504 0
-8503 8504 0
-263 -8503 0
-312 -8504 0
18 67 116 165 214 263 312 0
-19 8506 0
-68 8507 0
-8506 8507 0
-68 -8506 0
-117 8508 0
-8507 8508 0
-117 -8507 0
-166 8509 0
-8508 8509 0
-166 -8508 0
-215 8510 0
-8509 8510 0
-215 -8509 0
-264 8511 0
-8510 8511 0
-264 -8510 0
-313 -8511 0
19 68 117 166 215 264 313 0
-20 8513 0
-69 8514 0
-8513 8514 0
-69 -8513 0
-118 8515 0
-8514 8515 0
-118 -8514 0
-167 8516 0
-8515 8516 0
-167 -8515 0
-216 8517 0
-8516 8517 0
-216 -8516 0
-265 8518 0
-8517 8518 0
-265 -8517 0
-314 -8518 0
20 69 118 167 216 265 314 0
-21 8520 0
-70 8521 0
-8520 8521 0
-70 -8520 0
-119 8522 0
-8521 8522 0
-119 -8521 0
-168 8523 0
-8522 8523 0
-168 -8522 0
-217 8524 0
-8523 8524 0
-217 -8523 0
-266 8525 0
-8524 8525 0
-266 -8524 0
-315 -8525 0
21 70 119 168 217 266 315 0
-8527 22 0
-22 8527 0
-8528 71 0
-71 8528 0
-8529 120 0
-120 8529 0
-8530 169 0
-169 8530 0
-8531 218 0
-218 8531 0
-8532 267 0
-267 8532 0
-8533 316 0
-316 8533 0
-8527 8534 0
-8528 8535 0
-8534 8535 0
-8528 -8534 0
-8529 8536 0
-8535 8536 0
-8529 -8535 0
-8530 8537 0
-8536 8537 0
-8530 -8536 0
-8531 8538 0
-8537 8538 0
-8531 -8537 0
-8532 8539 0
-8538 8539 0
-8532 -8538 0
-8533 -8539 0
-8541 22 23 0
-22 8541 0
-23 8541 0
-8542 71 72 0
-71 8542 0
-72 8542 0
-8543 120 121 0
-120 8543 0
-121 8543 0
-8544 169 170 0
-169 8544 0
-170 8544 0
-8545 218 219 0
-218 8545 0
-219 8545 0
-8546 267 268 0
-267 8546 0
-268 8546 0
-8547 316 317 0
-316 8547 0
-317 8547 0
-8541 8548 0
-8549 0
-8542 8550 0
-8548 8550 0
-8542 -8548 8551 0
-8549 8551 0
-8542 -8549 0
-8543 8552 0
-8550 8552 0
-8543 -8550 8553 0
-8551 8553 0
-8543 -8551 0
-8544 8554 0
-8552 8554 0
-8544 -8552 8555 0
-8553 8555 0
-8544 -8553 0
-8545 8556 0
-8554 8556 0
-8545 -8554 8557 0
-8555 8557 0
-8545 -8555 0
-8546 8558 0
-8556 8558 0
-8546 -8556 8559 0
-8557 8559 0
-8546 -8557 0
-8547 -8559 0
-8562 22 23 24 0
-22 8562 0
-23 8562 0
-24 8562 0
-8563 71 72 73 0
-71 8563 0
-72 8563 0
-73 8563 0
-8564 120 121 122 0
-120 8564 0
-121 8564 0
-122 8564 0
-8565 169 170 171 0
-169 8565 0
-170 8565 0
-171 8565 0
-8566 218 219 220 0
-218 8566 0
-219 8566 0
-220 8566 0
-8567 267 268 269 0
-267 8567 0
-268 8567 0
-269 8567 0
-8568 316 317 318 0
-316 8568 0
-317 8568 0
-318 8568 0
-8562 8569 0
-8570 0
-8571 0
-8563 8572 0
-8569 8572 0
-8563 -8569 8573 0
-8570 8573 0
-8563 -8570 8574 0
-8571 8574 0
-8563 -8571 0
-8564 8575 0
-8572 8575 0
-8564 -8572 8576 0
-8573 8576 0
-8564 -8573 8577 0
-8574 8577 0
-8564 -8574 0
-8565 8578 0
-8575 8578 0
-8565 -8575 8579 0
-8576 8579 0
-8565 -8576 8580 0
-8577 8580 0
-8565 -8577 0
-8566 8581 0
-8578 8581 0
-8566 -8578 8582 0
-8579 8582 0
-8566 -8579 8583 0
-8580 8583 0
-8566 -8580 0
-8567 8584 0
-8581 8584 0
-8567 -8581 8585 0
-8582 8585 0
-8567 -8582 8586 0
-8583 8586 0
-8567 -8583 0
-8568 -8586 0
-8590 22 23 24 25 0
-22 8590 0
-23 8590 0
-24 8590 0
-25 8590 0
-8591 71 72 73 74 0
-71 8591 0
-72 8591 0
-73 8591 0
-74 8591 0
-8592 120 121 122 123 0
-120 8592 0
-121 8592 0
-122 8592 0
-123 8592 0
-8593 169 170 171 172 0
-169 8593 0
-170 8593 0
-171 8593 0
-172 8593 0
-8594 218 219 220 221 0
-218 8594 0
-219 8594 0
-220 8594 0
-221 8594 0
-8595 267 268 269 270 0
-267 8595 0
-268 8595 0
-269 8595 0
-270 8595 0
-8596 316 317 318 319 0
-316 8596 0
-317 8596 0
-318 8596 0
-319 8596 0
-8590 8597 0
-8598 0
-8599 0
-8600 0
-8591 8601 0
-8597 8601 0
-8591 -8597 8602 0
-8598 8602 0
-8591 -8598 8603 0
-8599 8603 0
-8591 -8599 8604 0
-8600 8604 0
-8591 -8600 0
-8592 8605 0
-8601 8605 0
-8592 -8601 8606 0
-8602 8606 0
-8592 -8602 8607 0
-8603 8607 0
-8592 -8603 8608 0
-8604 8608 0
-8592 -8604 0
-8593 8609 0
-8605 8609 0
-8593 -8605 8610 0
-8606 8610 0
-8593 -8606 8611 0
-8607 8611 0
-8593 -8607 8612 0
-8608 8612 0
-8593 -8608 0
-8594 8613 0
-8609 8613 0
-8594 -8609 8614 0
-8610 8614 0
-8594 -8610 8615 0
-8611 8615 0
-8594 -8611 8616 0
-8612 8616 0
-8594 -8612 0
-8595 8617 0
-8613 8617 0
-8595 -8613 8618 0
-8614 8618 0
-8595 -8614 8619 0
-8615 8619 0
-8595 -8615 8620 0
-8616 8620 0
-8595 -8616 0
-8596 -8620 0
-8625 22 23 24 25 26 0
-22 8625 0
-23 8625 0
-24 8625 0
-25 8625 0
-26 8625 0
-8626 71 72 73 74 75 0
-71 8626 0
-72 8626 0
-73 8626 0
-74 8626 0
-75 8626 0
-8627 120 121 122 123 124 0
-120 8627 0
-121 8627 0
-122 8627 0
-123 8627 0
-124 8627 0
-8628 169 170 171 172 173 0
-169 8628 0
-170 8628 0
-171 8628 0
-172 8628 0
-173 8628 0
-8629 218 219 220 221 222 0
-218 8629 0
-219 8629 0
-220 8629 0
-221 8629 0
-222 8629 0
-8630 267 268 269 270 271 0
-267 8630 0
-268 8630 0
-269 8630 0
-270 8630 0
-271 8630 0
-8631 316 317 318 319 320 0
-316 8631 0
-317 8631 0
-318 8631 0
-319 8631 0
-320 8631 0
-8625 8632 0
-8633 0
-8634 0
-8635 0
-8636 0
-8626 8637 0
-8632 8637 0
-8626 -8632 8638 0
-8633 8638 0
-8626 -8633 8639 0
-8634 8639 0
-8626 -8634 8640 0
-8635 8640 0
-8626 -8635 8641 0
-8636 8641 0
-8626 -8636 0
-8627 8642 0
-8637 8642 0
-8627 -8637 8643 0
-8638 8643 0
-8627 -8638 8644 0
-8639 8644 0
-8627 -8639 8645 0
-8640 8645 0
-8627 -8640 8646 0
-8641 8646 0
-8627 -8641 0
-8628 8647 0
-8642 8647 0
-8628 -8642 8648 0
-8643 8648 0
-8628 -8643 8649 0
-8644 8649 0
-8628 -8644 8650 0
-8645 8650 0
-8628 -8645 8651 0
-8646 8651 0
-8628 -8646 0
-8629 8652 0
-8647 8652 0
-8629 -8647 8653 0
-8648 8653 0
-8629 -8648 8654 0
-8649 8654 0
-8629 -8649 8655 0
-8650 8655 0
-8629 -8650 8656 0
-8651 8656 0
-8629 -8651 0
-8630 8657 0
-8652 8657 0
-8630 -8652 8658 0
-8653 8658 0
-8630 -8653 8659 0
-8654 8659 0
-8630 -8654 8660 0
-8655 8660 0
-8630 -8655 8661 0
-8656 8661 0
-8630 -8656 0
-8631 -8661 0
-8667 22 23 24 25 26 27 0
-22 8667 0
-23 8667 0
-24 8667 0
-25 8667 0
-26 8667 0
-27 8667 0
-8668 71 72 73 74 75 76 0
-71 8668 0
-72 8668 0
-73 8668 0
-74 8668 0
-75 8668 0
-76 8668 0
-8669 120 121 122 123 124 125 0
-120 8669 0
-121 8669 0
-122 8669 0
-123 8669 0
-124 8669 0
-125 8669 0
-8670 169 170 171 172 173 174 0
-169 8670 0
-170 8670 0
-171 8670 0
-172 8670 0
-173 8670 0
-174 8670 0
-8671 218 219 220 221 222 223 0
-218 8671 0
-219 8671 0
-220 8671 0
-221 8671 0
-222 8671 0
-223 8671 0
-8672 267 268 269 270 271 272 0
-267 8672 0
-268 8672 0
-269 8672 0
-270 8672 0
-271 8672 0
-272 8672 0
-8673 316 317 318 319 320 321 0
-316 8673 0
-317 8673 0
-318 8673 0
-319 8673 0
-320 8673 0
-321 8673 0
-8667 8674 0
-8675 0
-8676 0
-8677 0
-8678 0
-8679 0
-8668 8680 0
-8674 8680 0
-8668 -8674 8681 0
-8675 8681 0
-8668 -8675 8682 0
-8676 8682 0
-8668 -8676 8683 0
-8677 8683 0
-8668 -8677 8684 0
-8678 8684 0
-8668 -8678 8685 0
-8679 8685 0
-8668 -8679 0
-8669 8686 0
-8680 8686 0
-8669 -8680 8687 0
-8681 8687 0
-8669 -8681 8688 0
-8682 8688 0
-8669 -8682 8689 0
-8683 8689 0
-8669 -8683 8690 0
-8684 8690 0
-8669 -8684 8691 0
-8685 8691 0
-8669 -8685 0
-8670 8692 0
-8686 8692 0
-8670 -8686 8693 0
-8687 8693 0
-8670 -8687 8694 0
-8688 8694 0
-8670 -8688 8695 0
-8689 8695 0
-8670 -8689 8696 0
-8690 8696 0
-8670 -8690 8697 0
-8691 8697 0
-8670 -8691 0
-8671 8698 0
-8692 8698 0
-8671 -8692 8699 0
-8693 8699 0
-8671 -8693 8700 0
-8694 8700 0
-8671 -8694 8701 0
-8695 8701 0
-8671 -8695 8702 0
-8696 8702 0
-8671 -8696 8703 0
-8697 8703 0
-8671 -8697 0
-8672 8704 0
-8698 8704 0
-8672 -8698 8705 0
-8699 8705 0
-8672 -8699 8706 0
-8700 8706 0
-8672 -8700 8707 0
-8701 8707 0
-8672 -8701 8708 0
-8702 8708 0
-8672 -8702 8709 0
-8703 8709 0
-8672 -8703 0
-8673 -8709 0
-8716 22 23 24 25 26 27 28 0
-22 8716 0
-23 8716 0
-24 8716 0
-25 8716 0
-26 8716 0
-27 8716 0
-28 8716 0
-8717 71 72 73 74 75 76 77 0
-71 8717 0
-72 8717 0
-73 8717 0
-74 8717 0
-75 8717 0
-76 8717 0
-77 8717 0
-8718 120 121 122 123 124 125 126 0
-120 8718 0
-121 8718 0
-122 8718 0
-123 8718 0
-124 8718 0
-125 8718 0
-126 8718 0
-8719 169 170 171 172 173 174 175 0
-169 8719 0
-170 8719 0
-171 8719 0
-172 8719 0
-173 8719 0
-174 8719 0
-175 8719 0
-8720 218 219 220 221 222 223 224 0
-218 8720 0
-219 8720 0
-220 8720 0
-221 8720 0
-222 8720 0
-223 8720 0
-224 8720 0
-8721 267 268 269 270 271 272 273 0
-267 8721 0
-268 8721 0
-269 8721 0
-270 8721 0
-271 8721 0
-272 8721 0
-273 8721 0
-8722 316 317 318 319 320 321 322 0
-316 8722 0
-317 8722 0
-318 8722 0
-319 8722 0
-320 8722 0
-321 8722 0
-322 8722 0
-8723 23 0
-23 8723 0
-8724 72 0
-72 8724 0
-8725 121 0
-121 8725 0
-8726 170 0
-170 8726 0
-8727 219 0
-219 8727 0
-8728 268 0
-268 8728 0
-8729 317 0
-317 8729 0
-8723 8730 0
-8724 8731 0
-8730 8731 0
-8724 -8730 0
-8725 8732 0
-8731 8732 0
-8725 -8731 0
-8726 8733 0
-8732 8733 0
-8726 -8732 0
-8727 8734 0
-8733 8734 0
-8727 -8733 0
-8728 8735 0
-8734 8735 0
-8728 -8734 0
-8729 -8735 0
-8737 23 24 0
-23 8737 0
-24 8737 0
-8738 72 73 0
-72 8738 0
-73 8738 0
-8739 121 122 0
-121 8739 0
-122 8739 0
-8740 170 171 0
-170 8740 0
-171 8740 0
-8741 219 220 0
-219 8741 0
-220 8741 0
-8742 268 269 0
-268 8742 0
-269 8742 0
-8743 317 318 0
-317 8743 0
-318 8743 0
-8737 8744 0
-8745 0
-8738 8746 0
-8744 8746 0
-8738 -8744 8747 0
-8745 8747 0
-8738 -8745 0
-8739 8748 0
-8746 8748 0
-8739 -8746 8749 0
-8747 8749 0
-8739 -8747 0
-8740 8750 0
-8748 8750 0
-8740 -8748 8751 0
-8749 8751 0
-8740 -8749 0
-8741 8752 0
-8750 8752 0
-8741 -8750 8753 0
-8751 8753 0
-8741 -8751 0
-8742 8754 0
-8752 8754 0
-8742 -8752 8755 0
-8753 8755 0
-8742 -8753 0
-8743 -8755 0
-8758 23 24 25 0
-23 8758 0
-24 8758 0
-25 8758 0
-8759 72 73 74 0
-72 8759 0
-73 8759 0
-74 8759 0
-8760 121 122 123 0
-121 8760 0
-122 8760 0
-123 8760 0
-8761 170 171 172 0
-170 8761 0
-171 8761 0
-172 8761 0
-8762 219 220 221 0
-219 8762 0
-220 8762 0
-221 8762 0
-8763 268 269 270 0
-268 8763 0
-269 8763 0
-270 8763 0
-8764 317 318 319 0
-317 8764 0
-318 8764 0
-319 8764 0
-8758 8765 0
-8766 0
-8767 0
-8759 8768 0
-8765 8768 0
-8759 -8765 8769 0
-8766 8769 0
-8759 -8766 8770 0
-8767 8770 0
-8759 -8767 0
-8760 8771 0
-8768 8771 0
-8760 -8768 8772 0
-8769 8772 0
-8760 -8769 8773 0
-8770 8773 0
-8760 -8770 0
-8761 8774 0
-8771 8774 0
-8761 -8771 8775 0
-8772 8775 0
-8761 -8772 8776 0
-8773 8776 0
-8761 -8773 0
-8762 8777 0
-8774 8777 0
-8762 -8774 8778 0
-8775 8778 0
-8762 -8775 8779 0
-8776 8779 0
-8762 -8776 0
-8763 8780 0
-8777 8780 0
-8763 -8777 8781 0
-8778 8781 0
-8763 -8778 8782 0
-8779 8782 0
-8763 -8779 0
-8764 -8782 0
-8786 23 24 25 26 0
-23 8786 0
-24 8786 0
-25 8786 0
-26 8786 0
-8787 72 73 74 75 0
-72 8787 0
-73 8787 0
-74 8787 0
-75 8787 0
-8788 121 122 123 124 0
-121 8788 0
-122 8788 0
-123 8788 0
-124 8788 0
-8789 170 171 172 173 0
-170 8789 0
-171 8789 0
-172 8789 0
-173 8789 0
-8790 219 220 221 222 0
-219 8790 0
-220 8790 0
-221 8790 0
-222 8790 0
-8791 268 269 270 271 0
-268 8791 0
-269 8791 0
-270 8791 0
-271 8791 0
-8792 317 318 319 320 0
-317 8792 0
-318 8792 0
-319 8792 0
-320 8792 0
-8786 8793 0
-8794 0
-8795 0
-8796 0
-8787 8797 0
-8793 8797 0
-8787 -8793 8798 0
-8794 8798 0
-8787 -8794 8799 0
-8795 8799 0
-8787 -8795 8800 0
-8796 8800 0
-8787 -8796 0
-8788 8801 0
-8797 8801 0
-8788 -8797 8802 0
-8798 8802 0
-8788 -8798 8803 0
-8799 8803 0
-8788 -8799 8804 0
-8800 8804 0
-8788 -8800 0
-8789 8805 0
-8801 8805 0
-8789 -8801 8806 0
-8802 8806 0
-8789 -8802 8807 0
-8803 8807 0
-8789 -8803 8808 0
-8804 8808 0
-8789 -8804 0
-8790 8809 0
-8805 8809 0
-8790 -8805 8810 0
-8806 8810 0
-8790 -8806 8811 0
-8807 8811 0
-8790 -8807 8812 0
-8808 8812 0
-8790 -8808 0
-8791 8813 0
-8809 8813 0
-8791 -8809 8814 0
-8810 8814 0
-8791 -8810 8815 0
-8811 8815 0
-8791 -8811 8816 0
-8812 8816 0
-8791 -8812 0
-8792 -8816 0
-8821 23 24 25 26 27 0
-23 8821 0
-24 8821 0
-25 8821 0
-26 8821 0
-27 8821 0
-8822 72 73 74 75 76 0
-72 8822 0
-73 8822 0
-74 8822 0
-75 8822 0
-76 8822 0
-8823 121 122 123 124 125 0
-121 8823 0
-122 8823 0
-123 8823 0
-124 8823 0
-125 8823 0
-8824 170 171 172 173 174 0
-170 8824 0
-171 8824 0
-172 8824 0
-173 8824 0
-174 8824 0
-8825 219 220 221 222 223 0
-219 8825 0
-220 8825 0
-221 8825 0
-222 8825 0
-223 8825 0
-8826 268 269 270 271 272 0
-268 8826 0
-269 8826 0
-270 8826 0
-271 8826 0
-272 8826 0
-8827 317 318 319 320 321 0
-317 8827 0
-318 8827 0
-319 8827 0
-320 8827 0
-321 8827 0
-8821 8828 0
-8829 0
-8830 0
-8831 0
-8832 0
-8822 8833 0
-8828 8833 0
-8822 -8828 8834 0
-8829 8834 0
-8822 -8829 8835 0
-8830 8835 0
-8822 -8830 8836 0
-8831 8836 0
-8822 -8831 8837 0
-8832 8837 0
-8822 -8832 0
-8823 8838 0
-8833 8838 0
-8823 -8833 8839 0
-8834 8839 0
-8823 -8834 8840 0
-8835 8840 0
-8823 -8835 8841 0
-8836 8841 0
-8823 -8836 8842 0
-8837 8842 0
-8823 -8837 0
-8824 8843 0
-8838 8843 0
-8824 -8838 8844 0
-8839 8844 0
-8824 -8839 8845 0
-8840 8845 0
-8824 -8840 8846 0
-8841 8846 0
-8824 -8841 8847 0
-8842 8847 0
-8824 -8842 0
-8825 8848 0
-8843 8848 0
-8825 -8843 8849 0
-8844 8849 0
-8825 -8844 8850 0
-8845 8850 0
-8825 -8845 8851 0
-8846 8851 0
-8825 -8846 8852 0
-8847 8852 0
-8825 -8847 0
-8826 8853 0
-8848 8853 0
-8826 -8848 8854 0
-8849 8854 0
-8826 -8849 8855 0
-8850 8855 0
-8826 -8850 8856 0
-8851 8856 0
-8826 -8851 8857 0
-8852 8857 0
-8826 -8852 0
-8827 -8857 0
-8863 23 24 25 26 27 28 0
-23 8863 0
-24 8863 0
-25 8863 0
-26 8863 0
-27 8863 0
-28 8863 0
-8864 72 73 74 75 76 77 0
-72 8864 0
-73 8864 0
-74 8864 0
-75 8864 0
-76 8864 0
-77 8864 0
-8865 121 122 123 124 125 126 0
-121 8865 0
-122 8865 0
-123 8865 0
-124 8865 0
-125 8865 0
-126 8865 0
-8866 170 171 172 173 174 175 0
-170 8866 0
-171 8866 0
-172 8866 0
-173 8866 0
-174 8866 0
-175 8866 0
-8867 219 220 221 222 223 224 0
-219 8867 0
-220 8867 0
-221 8867 0
-222 8867 0
-223 8867 0
-224 8867 0
-8868 268 269 270 271 272 273 0
-268 8868 0
-269 8868 0
-270 8868 0
-271 8868 0
-272 8868 0
-273 8868 0
-8869 317 318 319 320 321 322 0
-317 8869 0
-318 8869 0
-319 8869 0
-320 8869 0
-321 8869 0
-322 8869 0
-8863 8870 0
-8871 0
-8872 0
-8873 0
-8874 0
-8875 0
-8864 8876 0
-8870 8876 0
-8864 -8870 8877 0
-8871 8877 0
-8864 -8871 8878 0
-8872 8878 0
-8864 -8872 8879 0
-8873 8879 0
-8864 -8873 8880 0
-8874 8880 0
-8864 -8874 8881 0
-8875 8881 0
-8864 -8875 0
-8865 8882 0
-8876 8882 0
-8865 -8876 8883 0
-8877 8883 0
-8865 -8877 8884 0
-8878 8884 0
-8865 -8878 8885 0
-8879 8885 0
-8865 -8879 8886 0
-8880 8886 0
-8865 -8880 8887 0
-8881 8887 0
-8865 -8881 0
-8866 8888 0
-8882 8888 0
-8866 -8882 8889 0
-8883 8889 0
-8866 -8883 8890 0
-8884 8890 0
-8866 -8884 8891 0
-8885 8891 0
-8866 -8885 8892 0
-8886 8892 0
-8866 -8886 8893 0
-8887 8893 0
-8866 -8887 0
-8867 8894 0
-8888 8894 0
-8867 -8888 8895 0
-8889 8895 0
-8867 -8889 8896 0
-8890 8896 0
-8867 -8890 8897 0
-8891 8897 0
-8867 -8891 8898 0
-8892 8898 0
-8867 -8892 8899 0
-8893 8899 0
-8867 -8893 0
-8868 8900 0
-8894 8900 0
-8868 -8894 8901 0
-8895 8901 0
-8868 -8895 8902 0
-8896 8902 0
-8868 -8896 8903 0
-8897 8903 0
-8868 -8897 8904 0
-8898 8904 0
-8868 -8898 8905 0
-8899 8905 0
-8868 -8899 0
-8869 -8905 0
-8912 24 0
-24 8912 0
-8913 73 0
-73 8913 0
-8914 122 0
-122 8914 0
-8915 171 0
-171 8915 0
-8916 220 0
-220 8916 0
-8917 269 0
-269 8917 0
-8918 318 0
-318 8918 0
-8912 8919 0
-8913 8920 0
-8919 8920 0
-8913 -8919 0
-8914 8921 0
-8920 8921 0
-8914 -8920 0
-8915 8922 0
-8921 8922 0
-8915 -8921 0
-8916 8923 0
-8922 8923 0
-8916 -8922 0
-8917 8924 0
-8923 8924 0
-8917 -8923 0
-8918 -8924 0
-8926 24 25 0
-24 8926 0
-25 8926 0
-8927 73 74 0
-73 8927 0
-74 8927 0
-8928 122 123 0
-122 8928 0
-123 8928 0
-8929 171 172 0
-171 8929 0
-172 8929 0
-8930 220 221 0
-220 8930 0
-221 8930 0
-8931 269 270 0
-269 8931 0
-270 8931 0
-8932 318 319 0
-318 8932 0
-319 8932 0
-8926 8933 0
-8934 0
-8927 8935 0
-8933 8935 0
-8927 -8933 8936 0
-8934 8936 0
-8927 -8934 0
-8928 8937 0
-8935 8937 0
-8928 -8935 8938 0
-8936 8938 0
-8928 -8936 0
-8929 8939 0
-8937 8939 0
-8929 -8937 8940 0
-8938 8940 0
-8929 -8938 0
-8930 8941 0
-8939 8941 0
-8930 -8939 8942 0
-8940 8942 0
-8930 -8940 0
-8931 8943 0
-8941 8943 0
-8931 -8941 8944 0
-8942 8944 0
-8931 -8942 0
-8932 -8944 0
-8947 24 25 26 0
-24 8947 0
-25 8947 0
-26 8947 0
-8948 73 74 75 0
-73 8948 0
-74 8948 0
-75 8948 0
-8949 122 123 124 0
-122 8949 0
-123 8949 0
-124 8949 0
-8950 171 172 173 0
-171 8950 0
-172 8950 0
-173 8950 0
-8951 220 221 222 0
-220 8951 0
-221 8951 0
-222 8951 0
-8952 269 270 271 0
-269 8952 0
-270 8952 0
-271 8952 0
-8953 318 319 320 0
-318 8953 0
-319 8953 0
-320 8953 0
-8947 8954 0
-8955 0
-8956 0
-8948 8957 0
-8954 8957 0
-8948 -8954 8958 0
-8955 8958 0
-8948 -8955 8959 0
-8956 8959 0
-8948 -8956 0
-8949 8960 0
-8957 8960 0
-8949 -8957 8961 0
-8958 8961 0
-8949 -8958 8962 0
-8959 8962 0
-8949 -8959 0
-8950 8963 0
-8960 8963 0
-8950 -8960 8964 0
-8961 8964 0
-8950 -8961 8965 0
-8962 8965 0
-8950 -8962 0
-8951 8966 0
-8963 8966 0
-8951 -8963 8967 0
-8964 8967 0
-8951 -8964 8968 0
-8965 8968 0
-8951 -8965 0
-8952 8969 0
-8966 8969 0
-8952 -8966 8970 0
-8967 8970 0
-8952 -8967 8971 0
-8968 8971 0
-8952 -8968 0
-8953 -8971 0
-8975 24 25 26 27 0
-24 8975 0
-25 8975 0
-26 8975 0
-27 8975 0
-8976 73 74 75 76 0
-73 8976 0
-74 8976 0
-75 8976 0
-76 8976 0
-8977 122 123 124 125 0
-122 8977 0
-123 8977 0
-124 8977 0
-125 8977 0
-8978 171 172 173 174 0
-171 8978 0
-172 8978 0
-173 8978 0
-174 8978 0
-8979 220 221 222 223 0
-220 8979 0
-221 8979 0
-222 8979 0
-223 8979 0
-8980 269 270 271 272 0
-269 8980 0
-270 8980 0
-271 8980 0
-272 8980 0
-8981 318 319 320 321 0
-318 8981 0
-319 8981 0
-320 8981 0
-321 8981 0
-8975 8982 0
-8983 0
-8984 0
-8985 0
-8976 8986 0
-8982 8986 0
-8976 -8982 8987 0
-8983 8987 0
-8976 -8983 8988 0
-8984 8988 0
-8976 -8984 8989 0
-8985 8989 0
-8976 -8985 0
-8977 8990 0
-8986 8990 0
-8977 -8986 8991 0
-8987 8991 0
-8977 -8987 8992 0
-8988 8992 0
-8977 -8988 8993 0
-8989 8993 0
-8977 -8989 0
-8978 8994 0
-8990 8994 0
-8978 -8990 8995 0
-8991 8995 0
-8978 -8991 8996 0
-8992 8996 0
-8978 -8992 8997 0
-8993 8997 0
-8978 -8993 0
-8979 8998 0
-8994 8998 0
-8979 -8994 8999 0
-8995 8999 0
-8979 -8995 9000 0
-8996 9000 0
-8979 -8996 9001 0
-8997 9001 0
-8979 -8997 0
-8980 9002 0
-8998 9002 0
-8980 -8998 9003 0
-8999 9003 0
-8980 -8999 9004 0
-9000 9004 0
-8980 -9000 9005 0
-9001 9005 0
-8980 -9001 0
-8981 -9005 0
-9010 24 25 26 27 28 0
-24 9010 0
-25 9010 0
-26 9010 0
-27 9010 0
-28 9010 0
-9011 73 74 75 76 77 0
-73 9011 0
-74 9011 0
-75 9011 0
-76 9011 0
-77 9011 0
-9012 122 123 124 125 126 0
-122 9012 0
-123 9012 0
-124 9012 0
-125 9012 0
-126 9012 0
-9013 171 172 173 174 175 0
-171 9013 0
-172 9013 0
-173 9013 0
-174 9013 0
-175 9013 0
-9014 220 221 222 223 224 0
-220 9014 0
-221 9014 0
-222 9014 0
-223 9014 0
-224 9014 0
-9015 269 270 271 272 273 0
-269 9015 0
-270 9015 0
-271 9015 0
-272 9015 0
-273 9015 0
-9016 318 319 320 321 322 0
-318 9016 0
-319 9016 0
-320 9016 0
-321 9016 0
-322 9016 0
-9010 9017 0
-9018 0
-9019 0
-9020 0
-9021 0
-9011 9022 0
-9017 9022 0
-9011 -9017 9023 0
-9018 9023 0
-9011 -9018 9024 0
-9019 9024 0
-9011 -9019 9025 0
-9020 9025 0
-9011 -9020 9026 0
-9021 9026 0
-9011 -9021 0
-9012 9027 0
-9022 9027 0
-9012 -9022 9028 0
-9023 9028 0
-9012 -9023 9029 0
-9024 9029 0
-9012 -9024 9030 0
-9025 9030 0
-9012 -9025 9031 0
-9026 9031 0
-9012 -9026 0
-9013 9032 0
-9027 9032 0
-9013 -9027 9033 0
-9028 9033 0
-9013 -9028 9034 0
-9029 9034 0
-9013 -9029 9035 0
-9030 9035 0
-9013 -9030 9036 0
-9031 9036 0
-9013 -9031 0
-9014 9037 0
-9032 9037 0
-9014 -9032 9038 0
-9033 9038 0
-9014 -9033 9039 0
-9034 9039 0
-9014 -9034 9040 0
-9035 9040 0
-9014 -9035 9041 0
-9036 9041 0
-9014 -9036 0
-9015 9042 0
-9037 9042 0
-9015 -9037 9043 0
-9038 9043 0
-9015 -9038 9044 0
-9039 9044 0
-9015 -9039 9045 0
-9040 9045 0
-9015 -9040 9046 0
-9041 9046 0
-9015 -9041 0
-9016 -9046 0
-9052 25 0
-25 9052 0
-9053 74 0
-74 9053 0
-9054 123 0
-123 9054 0
-9055 172 0
-172 9055 0
-9056 221 0
-221 9056 0
-9057 270 0
-270 9057 0
-9058 319 0
-319 9058 0
-9052 9059 0
-9053 9060 0
-9059 9060 0
-9053 -9059 0
-9054 9061 0
-9060 9061 0
-9054 -9060 0
-9055 9062 0
-9061 9062 0
-9055 -9061 0
-9056 9063 0
-9062 9063 0
-9056 -9062 0
-9057 9064 0
-9063 9064 0
-9057 -9063 0
-9058 -9064 0
-9066 25 26 0
-25 9066 0
-26 9066 0
-9067 74 75 0
-74 9067 0
-75 9067 0
-9068 123 124 0
-123 9068 0
-124 9068 0
-9069 172 173 0
-172 9069 0
-173 9069 0
-9070 221 222 0
-221 9070 0
-222 9070 0
-9071 270 271 0
-270 9071 0
-271 9071 0
-9072 319 320 0
-319 9072 0
-320 9072 0
-9066 9073 0
-9074 0
-9067 9075 0
-9073 9075 0
-9067 -9073 9076 0
-9074 9076 0
-9067 -9074 0
-9068 9077 0
-9075 9077 0
-9068 -9075 9078 0
-9076 9078 0
-9068 -9076 0
-9069 9079 0
-9077 9079 0
-9069 -9077 9080 0
-9078 9080 0
-9069 -9078 0
-9070 9081 0
-9079 9081 0
-9070 -9079 9082 0
-9080 9082 0
-9070 -9080 0
-9071 9083 0
-9081 9083 0
-9071 -9081 9084 0
-9082 9084 0
-9071 -9082 0
-9072 -9084 0
-9087 25 26 27 0
-25 9087 0
-26 9087 0
-27 9087 0
-9088 74 75 76 0
-74 9088 0
-75 9088 0
-76 9088 0
-9089 123 124 125 0
-123 9089 0
-124 9089 0
-125 9089 0
-9090 172 173 174 0
-172 9090 0
-173 9090 0
-174 9090 0
-9091 221 222 223 0
-221 9091 0
-222 9091 0
-223 9091 0
-9092 270 271 272 0
-270 9092 0
-271 9092 0
-272 9092 0
-9093 319 320 321 0
-319 9093 0
-320 9093 0
-321 9093 0
-9087 9094 0
-9095 0
-9096 0
-9088 9097 0
-9094 9097 0
-9088 -9094 9098 0
-9095 9098 0
-9088 -9095 9099 0
-9096 9099 0
-9088 -9096 0
-9089 9100 0
-9097 9100 0
-9089 -9097 9101 0
-9098 9101 0
-9089 -9098 9102 0
-9099 9102 0
-9089 -9099 0
-9090 9103 0
-9100 9103 0
-9090 -9100 9104 0
-9101 9104 0
-9090 -9101 9105 0
-9102 9105 0
-9090 -9102 0
-9091 9106 0
-9103 9106 0
-9091 -9103 9107 0
-9104 9107 0
-9091 -9104 9108 0
-9105 9108 0
-9091 -9105 0
-9092 9109 0
-9106 9109 0
-9092 -9106 9110 0
-9107 9110 0
-9092 -9107 9111 0
-9108 9111 0
-9092 -9108 0
-9093 -9111 0
-9115 25 26 27 28 0
-25 9115 0
-26 9115 0
-27 9115 0
-28 9115 0
-9116 74 75 76 77 0
-74 9116 0
-75 9116 0
-76 9116 0
-77 9116 0
-9117 123 124 125 126 0
-123 9117 0
-124 9117 0
-125 9117 0
-126 9117 0
-9118 172 173 174 175 0
-172 9118 0
-173 9118 0
-174 9118 0
-175 9118 0
-9119 221 222 223 224 0
-221 9119 0
-222 9119 0
-223 9119 0
-224 9119 0
-9120 270 271 272 273 0
-270 9120 0
-271 9120 0
-272 9120 0
-273 9120 0
-9121 319 320 321 322 0
-319 9121 0
-320 9121 0
-321 9121 0
-322 9121 0
-9115 9122 0
-9123 0
-9124 0
-9125 0
-9116 9126 0
-9122 9126 0
-9116 -9122 9127 0
-9123 9127 0
-9116 -9123 9128 0
-9124 9128 0
-9116 -9124 9129 0
-9125 9129 0
-9116 -9125 0
-9117 9130 0
-9126 9130 0
-9117 -9126 9131 0
-9127 9131 0
-9117 -9127 9132 0
-9128 9132 0
-9117 -9128 9133 0
-9129 9133 0
-9117 -9129 0
-9118 9134 0
-9130 9134 0
-9118 -9130 9135 0
-9131 9135 0
-9118 -9131 9136 0
-9132 9136 0
-9118 -9132 9137 0
-9133 9137 0
-9118 -9133 0
-9119 9138 0
-9134 9138 0
-9119 -9134 9139 0
-9135 9139 0
-9119 -9135 9140 0
-9136 9140 0
-9119 -9136 9141 0
-9137 9141 0
-9119 -9137 0
-9120 9142 0
-9138 9142 0
-9120 -9138 9143 0
-9139 9143 0
-9120 -9139 9144 0
-9140 9144 0
-9120 -9140 9145 0
-9141 9145 0
-9120 -9141 0
-9121 -9145 0
-9150 26 0
-26 9150 0
-9151 75 0
-75 9151 0
-9152 124 0
-124 9152 0
-9153 173 0
-173 9153 0
-9154 222 0
-222 9154 0
-9155 271 0
-271 9155 0
-9156 320 0
-320 9156 0
-9150 9157 0
-9151 9158 0
-9157 9158 0
-9151 -9157 0
-9152 9159 0
-9158 9159 0
-9152 -9158 0
-9153 9160 0
-9159 9160 0
-9153 -9159 0
-9154 9161 0
-9160 9161 0
-9154 -9160 0
-9155 9162 0
-9161 9162 0
-9155 -9161 0
-9156 -9162 0
-9164 26 27 0
-26 9164 0
-27 9164 0
-9165 75 76 0
-75 9165 0
-76 9165 0
-9166 124 125 0
-124 9166 0
-125 9166 0
-9167 173 174 0
-173 9167 0
-174 9167 0
-9168 222 223 0
-222 9168 0
-223 9168 0
-9169 271 272 0
-271 9169 0
-272 9169 0
-9170 320 321 0
-320 9170 0
-321 9170 0
-9164 9171 0
-9172 0
-9165 9173 0
-9171 9173 0
-9165 -9171 9174 0
-9172 9174 0
-9165 -9172 0
-9166 9175 0
-9173 9175 0
-9166 -9173 9176 0
-9174 9176 0
-9166 -9174 0
-9167 9177 0
-9175 9177 0
-9167 -9175 9178 0
-9176 9178 0
-9167 -9176 0
-9168 9179 0
-9177 9179 0
-9168 -9177 9180 0
-9178 9180 0
-9168 -9178 0
-9169 9181 0
-9179 9181 0
-9169 -9179 9182 0
-9180 9182 0
-9169 -9180 0
-9170 -9182 0
-9185 26 27 28 0
-26 9185 0
-27 9185 0
-28 9185 0
-9186 75 76 77 0
-75 9186 0
-76 9186 0
-77 9186 0
-9187 124 125 126 0
-124 9187 0
-125 9187 0
-126 9187 0
-9188 173 174 175 0
-173 9188 0
-174 9188 0
-175 9188 0
-9189 222 223 224 0
-222 9189 0
-223 9189 0
-224 9189 0
-9190 271 272 273 0
-271 9190 0
-272 9190 0
-273 9190 0
-9191 320 321 322 0
-320 9191 0
-321 9191 0
-322 9191 0
-9185 9192 0
-9193 0
-9194 0
-9186 9195 0
-9192 9195 0
-9186 -9192 9196 0
-9193 9196 0
-9186 -9193 9197 0
-9194 9197 0
-9186 -9194 0
-9187 9198 0
-9195 9198 0
-9187 -9195 9199 0
-9196 9199 0
-9187 -9196 9200 0
-9197 9200 0
-9187 -9197 0
-9188 9201 0
-9198 9201 0
-9188 -9198 9202 0
-9199 9202 0
-9188 -9199 9203 0
-9200 9203 0
-9188 -9200 0
-9189 9204 0
-9201 9204 0
-9189 -9201 9205 0
-9202 9205 0
-9189 -9202 9206 0
-9203 9206 0
-9189 -9203 0
-9190 9207 0
-9204 9207 0
-9190 -9204 9208 0
-9205 9208 0
-9190 -9205 9209 0
-9206 9209 0
-9190 -9206 0
-9191 -9209 0
-9213 27 0
-27 9213 0
-9214 76 0
-76 9214 0
-9215 125 0
-125 9215 0
-9216 174 0
-174 9216 0
-9217 223 0
-223 9217 0
-9218 272 0
-272 9218 0
-9219 321 0
-321 9219 0
-9213 9220 0
-9214 9221 0
-9220 9221 0
-9214 -9220 0
-9215 9222 0
-9221 9222 0
-9215 -9221 0
-9216 9223 0
-9222 9223 0
-9216 -9222 0
-9217 9224 0
-9223 9224 0
-9217 -9223 0
-9218 9225 0
-9224 9225 0
-9218 -9224 0
-9219 -9225 0
-9227 27 28 0
-27 9227 0
-28 9227 0
-9228 76 77 0
-76 9228 0
-77 9228 0
-9229 125 126 0
-125 9229 0
-126 9229 0
-9230 174 175 0
-174 9230 0
-175 9230 0
-9231 223 224 0
-223 9231 0
-224 9231 0
-9232 272 273 0
-272 9232 0
-273 9232 0
-9233 321 322 0
-321 9233 0
-322 9233 0
-9227 9234 0
-9235 0
-9228 9236 0
-9234 9236 0
-9228 -9234 9237 0
-9235 9237 0
-9228 -9235 0
-9229 9238 0
-9236 9238 0
-9229 -9236 9239 0
-9237 9239 0
-9229 -9237 0
-9230 9240 0
-9238 9240 0
-9230 -9238 9241 0
-9239 9241 0
-9230 -9239 0
-9231 9242 0
-9240 9242 0
-9231 -9240 9243 0
-9241 9243 0
-9231 -9241 0
-9232 9244 0
-9242 9244 0
-9232 -9242 9245 0
-9243 9245 0
-9232 -9243 0
-9233 -9245 0
-9248 28 0
-28 9248 0
-9249 77 0
-77 9249 0
-9250 126 0
-126 9250 0
-9251 175 0
-175 9251 0
-9252 224 0
-224 9252 0
-9253 273 0
-273 9253 0
-9254 322 0
-322 9254 0
-9248 9255 0
-9249 9256 0
-9255 9256 0
-9249 -9255 0
-9250 9257 0
-9256 9257 0
-9250 -9256 0
-9251 9258 0
-9257 9258 0
-9251 -9257 0
-9252 9259 0
-9258 9259 0
-9252 -9258 0
-9253 9260 0
-9259 9260 0
-9253 -9259 0
-9254 -9260 0
-22 9262 0
-71 9263 0
-9262 9263 0
-71 -9262 0
-120 9264 0
-9263 9264 0
-120 -9263 0
-169 9265 0
-9264 9265 0
-169 -9264 0
-218 9266 0
-9265 9266 0
-218 -9265 0
-267 9267 0
-9266 9267 0
-267 -9266 0
-316 -9267 0
22 71 120 169 218 267 316 0
-23 9269 0
-72 9270 0
-9269 9270 0
-72 -9269 0
-121 9271 0
-9270 9271 0
-121 -9270 0
-170 9272 0
-9271 9272 0
-170 -9271 0
-219 9273 0
-9272 9273 0
-219 -9272 0
-268 9274 0
-9273 9274 0
-268 -9273 0
-317 -9274 0
23 72 121 170 219 268 317 0
-24 9276 0
-73 9277 0
-9276 9277 0
-73 -9276 0
-122 9278 0
-9277 9278 0
-122 -9277 0
-171 9279 0
-9278 9279 0
-171 -9278 0
-220 9280 0
-9279 9280 0
-220 -9279 0
-269 9281 0
-9280 9281 0
-269 -9280 0
-318 -9281 0
24 73 122 171 220 269 318 0
-25 9283 0
-74 9284 0
-9283 9284 0
-74 -9283 0
-123 9285 0
-9284 9285 0
-123 -9284 0
-172 9286 0
-9285 9286 0
-172 -9285 0
-221 9287 0
-9286 9287 0
-221 -9286 0
-270 9288 0
-9287 9288 0
-270 -9287 0
-319 -9288 0
25 74 123 172 221 270 319 0
-26 9290 0
-75 9291 0
-9290 9291 0
-75 -9290 0
-124 9292 0
-9291 9292 0
-124 -9291 0
-173 9293 0
-9292 9293 0
-173 -9292 0
-222 9294 0
-9293 9294 0
-222 -9293 0
-271 9295 0
-9294 9295 0
-271 -9294 0
-320 -9295 0
26 75 124 173 222 271 320 0
-27 9297 0
-76 9298 0
-9297 9298 0
-76 -9297 0
-125 9299 0
-9298 9299 0
-125 -9298 0
-174 9300 0
-9299 9300 0
-174 -9299 0
-223 9301 0
-9300 9301 0
-223 -9300 0
-272 9302 0
-9301 9302 0
-272 -9301 0
-321 -9302 0
27 76 125 174 223 272 321 0
-28 9304 0
-77 9305 0
-9304 9305 0
-77 -9304 0
-126 9306 0
-9305 9306 0
-126 -9305 0
-175 9307 0
-9306 9307 0
-175 -9306 0
-224 9308 0
-9307 9308 0
-224 -9307 0
-273 9309 0
-9308 9309 0
-273 -9308 0
-322 -9309 0
28 77 126 175 224 273 322 0
-9311 29 0
-29 9311 0
-9312 78 0
-78 9312 0
-9313 127 0
-127 9313 0
-9314 176 0
-176 9314 0
-9315 225 0
-225 9315 0
-9316 274 0
-274 9316 0
-9317 323 0
-323 9317 0
-9311 9318 0
-9312 9319 0
-9318 9319 0
-9312 -9318 0
-9313 9320 0
-9319 9320 0
-9313 -9319 0
-9314 9321 0
-9320 9321 0
-9314 -9320 0
-9315 9322 0
-9321 9322 0
-9315 -9321 0
-9316 9323 0
-9322 9323 0
-9316 -9322 0
-9317 -9323 0
-9325 29 30 0
-29 9325 0
-30 9325 0
-9326 78 79 0
-78 9326 0
-79 9326 0
-9327 127 128 0
-127 9327 0
-128 9327 0
-9328 176 177 0
-176 9328 0
-177 9328 0
-9329 225 226 0
-225 9329 0
-226 9329 0
-9330 274 275 0
-274 9330 0
-275 9330 0
-9331 323 324 0
-323 9331 0
-324 9331 0
-9325 9332 0
-9333 0
-9326 9334 0
-9332 9334 0
-9326 -9332 9335 0
-9333 9335 0
-9326 -9333 0
-9327 9336 0
-9334 9336 0
-9327 -9334 9337 0
-9335 9337 0
-9327 -9335 0
-9328 9338 0
-9336 9338 0
-9328 -9336 9339 0
-9337 9339 0
-9328 -9337 0
-9329 9340 0
-9338 9340 0
-9329 -9338 9341 0
-9339 9341 0
-9329 -9339 0
-9330 9342 0
-9340 9342 0
-9330 -9340 9343 0
-9341 9343 0
-9330 -9341 0
-9331 -9343 0
-9346 29 30 31 0
-29 9346 0
-30 9346 0
-31 9346 0
-9347 78 79 80 0
-78 9347 0
-79 9347 0
-80 9347 0
-9348 127 128 129 0
-127 9348 0
-128 9348 0
-129 9348 0
-9349 176 177 178 0
-176 9349 0
-177 9349 0
-178 9349 0
-9350 225 226 227 0
-225 9350 0
-226 9350 0
-227 9350 0
-9351 274 275 276 0
-274 9351 0
-275 9351 0
-276 9351 0
-9352 323 324 325 0
-323 9352 0
-324 9352 0
-325 9352 0
-9346 9353 0
-9354 0
-9355 0
-9347 9356 0
-9353 9356 0
-9347 -9353 9357 0
-9354 9357 0
-9347 -9354 9358 0
-9355 9358 0
-9347 -9355 0
-9348 9359 0
-9356 9359 0
-9348 -9356 9360 0
-9357 9360 0
-9348 -9357 9361 0
-9358 9361 0
-9348 -9358 0
-9349 9362 0
-9359 9362 0
-9349 -9359 9363 0
-9360 9363 0
-9349 -9360 9364 0
-9361 9364 0
-9349 -9361 0
-9350 9365 0
-9362 9365 0
-9350 -9362 9366 0
-9363 9366 0
-9350 -9363 9367 0
-9364 9367 0
-9350 -9364 0
-9351 9368 0
-9365 9368 0
-9351 -9365 9369 0
-9366 9369 0
-9351 -9366 9370 0
-9367 9370 0
-9351 -9367 0
-9352 -9370 0
-9374 29 30 31 32 0
-29 9374 0
-30 9374 0
-31 9374 0
-32 9374 0
-9375 78 79 80 81 0
-78 9375 0
-79 9375 0
-80 9375 0
-81 9375 0
-9376 127 128 129 130 0
-127 9376 0
-128 9376 0
-129 9376 0
-130 9376 0
-9377 176 177 178 179 0
-176 9377 0
-177 9377 0
-178 9377 0
-179 9377 0
-9378 225 226 227 228 0
-225 9378 0
-226 9378 0
-227 9378 0
-228 9378 0
-9379 274 275 276 277 0
-274 9379 0
-275 9379 0
-276 9379 0
-277 9379 0
-9380 323 324 325 326 0
-323 9380 0
-324 9380 0
-325 9380 0
-326 9380 0
-9374 9381 0
-9382 0
-9383 0
-9384 0
-9375 9385 0
-9381 9385 0
-9375 -9381 9386 0
-9382 9386 0
-9375 -9382 9387 0
-9383 9387 0
-9375 -9383 9388 0
-9384 9388 0
-9375 -9384 0
-9376 9389 0
-9385 9389 0
-9376 -9385 9390 0
-9386 9390 0
-9376 -9386 9391 0
-9387 9391 0
-9376 -9387 9392 0
-9388 9392 0
-9376 -9388 0
-9377 9393 0
-9389 9393 0
-9377 -9389 9394 0
-9390 9394 0
-9377 -9390 9395 0
-9391 9395 0
-9377 -9391 9396 0
-9392 9396 0
-9377 -9392 0
-9378 9397 0
-9393 9397 0
-9378 -9393 9398 0
-9394 9398 0
-9378 -9394 9399 0
-9395 9399 0
-9378 -9395 9400 0
-9396 9400 0
-9378 -9396 0
-9379 9401 0
-9397 9401 0
-9379 -9397 9402 0
-9398 9402 0
-9379 -9398 9403 0
-9399 9403 0
-9379 -9399 9404 0
-9400 9404 0
-9379 -9400 0
-9380 -9404 0
-9409 29 30 31 32 33 0
-29 9409 0
-30 9409 0
-31 9409 0
-32 9409 0
-33 9409 0
-9410 78 79 80 81 82 0
-78 9410 0
-79 9410 0
-80 9410 0
-81 9410 0
-82 9410 0
-9411 127 128 129 130 131 0
-127 9411 0
-128 9411 0
-129 9411 0
-130 9411 0
-131 9411 0
-9412 176 177 178 179 180 0
-176 9412 0
-177 9412 0
-178 9412 0
-179 9412 0
-180 9412 0
-9413 225 226 227 228 229 0
-225 9413 0
-226 9413 0
-227 9413 0
-228 9413 0
-229 9413 0
-9414 274 275 276 277 278 0
-274 9414 0
-275 9414 0
-276 9414 0
-277 9414 0
-278 9414 0
-9415 323 324 325 326 327 0
-323 9415 0
-324 9415 0
-325 9415 0
-326 9415 0
-327 9415 0
-9409 9416 0
-9417 0
-9418 0
-9419 0
-9420 0
-9410 9421 0
-9416 9421 0
-9410 -9416 9422 0
-9417 9422 0
-9410 -9417 9423 0
-9418 9423 0
-9410 -9418 9424 0
-9419 9424 0
-9410 -9419 9425 0
-9420 9425 0
-9410 -9420 0
-9411 9426 0
-9421 9426 0
-9411 -9421 9427 0
-9422 9427 0
-9411 -9422 9428 0
-9423 9428 0
-9411 -9423 9429 0
-9424 9429 0
-9411 -9424 9430 0
-9425 9430 0
-9411 -9425 0
-9412 9431 0
-9426 9431 0
-9412 -9426 9432 0
-9427 9432 0
-9412 -9427 9433 0
-9428 9433 0
-9412 -9428 9434 0
-9429 9434 0
-9412 -9429 9435 0
-9430 9435 0
-9412 -9430 0
-9413 9436 0
-9431 9436 0
-9413 -9431 9437 0
-9432 9437 0
-9413 -9432 9438 0
-9433 9438 0
-9413 -9433 9439 0
-9434 9439 0
-9413 -9434 9440 0
-9435 9440 0
-9413 -9435 0
-9414 9441 0
-9436 9441 0
-9414 -9436 9442 0
-9437 9442 0
-9414 -9437 9443 0
-9438 9443 0
-9414 -9438 9444 0
-9439 9444 0
-9414 -9439 9445 0
-9440 9445 0
-9414 -9440 0
-9415 -9445 0
-9451 29 30 31 32 33 34 0
-29 9451 0
-30 9451 0
-31 9451 0
-32 9451 0
-33 9451 0
-34 9451 0
-9452 78 79 80 81 82 83 0
-78 9452 0
-79 9452 0
-80 9452 0
-81 9452 0
-82 9452 0
-83 9452 0
-9453 127 128 129 130 131 132 0
-127 9453 0
-128 9453 0
-129 9453 0
-130 9453 0
-131 9453 0
-132 9453 0
-9454 176 177 178 179 180 181 0
-176 9454 0
-177 9454 0
-178 9454 0
-179 9454 0
-180 9454 0
-181 9454 0
-9455 225 226 227 228 229 230 0
-225 9455 0
-226 9455 0
-227 9455 0
-228 9455 0
-229 9455 0
-230 9455 0
-9456 274 275 276 277 278 279 0
-274 9456 0
-275 9456 0
-276 9456 0
-277 9456 0
-278 9456 0
-279 9456 0
-9457 323 324 325 326 327 328 0
-323 9457 0
-324 9457 0
-325 9457 0
-326 9457 0
-327 9457 0
-328 9457 0
-9451 9458 0
-9459 0
-9460 0
-9461 0
-9462 0
-9463 0
-9452 9464 0
-9458 9464 0
-9452 -9458 9465 0
-9459 9465 0
-9452 -9459 9466 0
-9460 9466 0
-9452 -9460 9467 0
-9461 9467 0
-9452 -9461 9468 0
-9462 9468 0
-9452 -9462 9469 0
-9463 9469 0
-9452 -9463 0
-9453 9470 0
-9464 9470 0
-9453 -9464 9471 0
-9465 9471 0
-9453 -9465 9472 0
-9466 9472 0
-9453 -9466 9473 0
-9467 9473 0
-9453 -9467 9474 0
-9468 9474 0
-9453 -9468 9475 0
-9469 9475 0
-9453 -9469 0
-9454 9476 0
-9470 9476 0
-9454 -9470 9477 0
-9471 9477 0
-9454 -9471 9478 0
-9472 9478 0
-9454 -9472 9479 0
-9473 9479 0
-9454 -9473 9480 0
-9474 9480 0
-9454 -9474 9481 0
-9475 9481 0
-9454 -9475 0
-9455 9482 0
-9476 9482 0
-9455 -9476 9483 0
-9477 9483 0
-9455 -9477 9484 0
-9478 9484 0
-9455 -9478 9485 0
-9479 9485 0
-9455 -9479 9486 0
-9480 9486 0
-9455 -9480 9487 0
-9481 9487 0
-9455 -9481 0
-9456 9488 0
-9482 9488 0
-9456 -9482 9489 0
-9483 9489 0
-9456 -9483 9490 0
-9484 9490 0
-9456 -9484 9491 0
-9485 9491 0
-9456 -9485 9492 0
-9486 9492 0
-9456 -9486 9493 0
-9487 9493 0
-9456 -9487 0
-9457 -9493 0
-9500 29 30 31 32 33 34 35 0
-29 9500 0
-30 9500 0
-31 9500 0
-32 9500 0
-33 9500 0
-34 9500 0
-35 9500 0
-9501 78 79 80 81 82 83 84 0
-78 9501 0
-79 9501 0
-80 9501 0
-81 9501 0
-82 9501 0
-83 9501 0
-84 9501 0
-9502 127 128 129 130 131 132 133 0
-127 9502 0
-128 9502 0
-129 9502 0
-130 9502 0
-131 9502 0
-132 9502 0
-133 9502 0
-9503 176 177 178 179 180 181 182 0
-176 9503 0
-177 9503 0
-178 9503 0
-179 9503 0
-180 9503 0
-181 9503 0
-182 9503 0
-9504 225 226 227 228 229 230 231 0
-225 9504 0
-226 9504 0
-227 9504 0
-228 9504 0
-229 9504 0
-230 9504 0
-231 9504 0
-9505 274 275 276 277 278 279 280 0
-274 9505 0
-275 9505 0
-276 9505 0
-277 9505 0
-278 9505 0
-279 9505 0
-280 9505 0
-9506 323 324 325 326 327 328 329 0
-323 9506 0
-324 9506 0
-325 9506 0
-326 9506 0
-327 9506 0
-328 9506 0
-329 9506 0
-9507 30 0
-30 9507 0
-9508 79 0
-79 9508 0
-9509 128 0
-128 9509 0
-9510 177 0
-177 9510 0
-9511 226 0
-226 9511 0
-9512 275 0
-275 9512 0
-9513 324 0
-324 9513 0
-9507 9514 0
-9508 9515 0
-9514 9515 0
-9508 -9514 0
-9509 9516 0
-9515 9516 0
-9509 -9515 0
-9510 9517 0
-9516 9517 0
-9510 -9516 0
-9511 9518 0
-9517 9518 0
-9511 -9517 0
-9512 9519 0
-9518 9519 0
-9512 -9518 0
-9513 -9519 0
-9521 30 31 0
-30 9521 0
-31 9521 0
-9522 79 80 0
-79 9522 0
-80 9522 0
-9523 128 129 0
-128 9523 0
-129 9523 0
-9524 177 178 0
-177 9524 0
-178 9524 0
-9525 226 227 0
-226 9525 0
-227 9525 0
-9526 275 276 0
-275 9526 0
-276 9526 0
-9527 324 325 0
-324 9527 0
-325 9527 0
-9521 9528 0
-9529 0
-9522 9530 0
-9528 9530 0
-9522 -9528 9531 0
-9529 9531 0
-9522 -9529 0
-9523 9532 0
-9530 9532 0
-9523 -9530 9533 0
-9531 9533 0
-9523 -9531 0
-9524 9534 0
-9532 9534 0
-9524 -9532 9535 0
-9533 9535 0
-9524 -9533 0
-9525 9536 0
-9534 9536 0
-9525 -9534 9537 0
-9535 9537 0
-9525 -9535 0
-9526 9538 0
-9536 9538 0
-9526 -9536 9539 0
-9537 9539 0
-9526 -9537 0
-9527 -9539 0
-9542 30 31 32 0
-30 9542 0
-31 9542 0
-32 9542 0
-9543 79 80 81 0
-79 9543 0
-80 9543 0
-81 9543 0
-9544 128 129 130 0
-128 9544 0
-129 9544 0
-130 9544 0
-9545 177 178 179 0
-177 9545 0
-178 9545 0
-179 9545 0
-9546 226 227 228 0
-226 9546 0
-227 9546 0
-228 9546 0
-9547 275 276 277 0
-275 9547 0
-276 9547 0
-277 9547 0
-9548 324 325 326 0
-324 9548 0
-325 9548 0
-326 9548 0
-9542 9549 0
-9550 0
-9551 0
-9543 9552 0
-9549 9552 0
-9543 -9549 9553 0
-9550 9553 0
-9543 -9550 9554 0
-9551 9554 0
-9543 -9551 0
-9544 9555 0
-9552 9555 0
-9544 -9552 9556 0
-9553 9556 0
-9544 -9553 9557 0
-9554 9557 0
-9544 -9554 0
-9545 9558 0
-9555 9558 0
-9545 -9555 9559 0
-9556 9559 0
-9545 -9556 9560 0
-9557 9560 0
-9545 -9557 0
-9546 9561 0
-9558 9561 0
-9546 -9558 9562 0
-9559 9562 0
-9546 -9559 9563 0
-9560 9563 0
-9546 -9560 0
-9547 9564 0
-9561 9564 0
-9547 -9561 9565 0
-9562 9565 0
-9547 -9562 9566 0
-9563 9566 0
-9547 -9563 0
-9548 -9566 0
-9570 30 31 32 33 0
-30 9570 0
-31 9570 0
-32 9570 0
-33 9570 0
-9571 79 80 81 82 0
-79 9571 0
-80 9571 0
-81 9571 0
-82 9571 0
-9572 128 129 130 131 0
-128 9572 0
-129 9572 0
-130 9572 0
-131 9572 0
-9573 177 178 179 180 0
-177 9573 0
-178 9573 0
-179 9573 0
-180 9573 0
-9574 226 227 228 229 0
-226 9574 0
-227 9574 0
-228 9574 0
-229 9574 0
-9575 275 276 277 278 0
-275 9575 0
-276 9575 0
-277 9575 0
-278 9575 0
-9576 324 325 326 327 0
-324 9576 0
-325 9576 0
-326 9576 0
-327 9576 0
-9570 9577 0
-9578 0
-9579 0
-9580 0
-9571 9581 0
-9577 9581 0
-9571 -9577 9582 0
-9578 9582 0
-9571 -9578 9583 0
-9579 9583 0
-9571 -9579 9584 0
-9580 9584 0
-9571 -9580 0
-9572 9585 0
-9581 9585 0
-9572 -9581 9586 0
-9582 9586 0
-9572 -9582 9587 0
-9583 9587 0
-9572 -9583 9588 0
-9584 9588 0
-9572 -9584 0
-9573 9589 0
-9585 9589 0
-9573 -9585 9590 0
-9586 9590 0
-9573 -9586 9591 0
-9587 9591 0
-9573 -9587 9592 0
-9588 9592 0
-9573 -9588 0
-9574 9593 0
-9589 9593 0
-9574 -9589 9594 0
-9590 9594 0
-9574 -9590 9595 0
-9591 9595 0
-9574 -9591 9596 0
-9592 9596 0
-9574 -9592 0
-9575 9597 0
-9593 9597 0
-9575 -9593 9598 0
-9594 9598 0
-9575 -9594 9599 0
-9595 9599 0
-9575 -9595 9600 0
-9596 9600 0
-9575 -9596 0
-9576 -9600 0
-9605 30 31 32 33 34 0
-30 9605 0
-31 9605 0
-32 9605 0
-33 9605 0
-34 9605 0
-9606 79 80 81 82 83 0
-79 9606 0
-80 9606 0
-81 9606 0
-82 9606 0
-83 9606 0
-9607 128 129 130 131 132 0
-128 9607 0
-129 9607 0
-130 9607 0
-131 9607 0
-132 9607 0
-9608 177 178 179 180 181 0
-177 9608 0
-178 9608 0
-179 9608 0
-180 9608 0
-181 9608 0
-9609 226 227 228 229 230 0
-226 9609 0
-227 9609 0
-228 9609 0
-229 9609 0
-230 9609 0
-9610 275 276 277 278 279 0
-275 9610 0
-276 9610 0
-277 9610 0
-278 9610 0
-279 9610 0
-9611 324 325 326 327 328 0
-324 9611 0
-325 9611 0
-326 9611 0
-327 9611 0
-328 9611 0
-9605 9612 0
-9613 0
-9614 0
-9615 0
-9616 0
-9606 9617 0
-9612 9617 0
-9606 -9612 9618 0
-9613 9618 0
-9606 -9613 9619 0
-9614 9619 0
-9606 -9614 9620 0
-9615 9620 0
-9606 -9615 9621 0
-9616 9621 0
-9606 -9616 0
-9607 9622 0
-9617 9622 0
-9607 -9617 9623 0
-9618 9623 0
-9607 -9618 9624 0
-9619 9624 0
-9607 -9619 9625 0
-9620 9625 0
-9607 -9620 9626 0
-9621 9626 0
-9607 -9621 0
-9608 9627 0
-9622 9627 0
-9608 -9622 9628 0
-9623 9628 0
-9608 -9623 9629 0
-9624 9629 0
-9608 -9624 9630 0
-9625 9630 0
-9608 -9625 9631 0
-9626 9631 0
-9608 -9626 0
-9609 9632 0
-9627 9632 0
-9609 -9627 9633 0
-9628 9633 0
-9609 -9628 9634 0
-9629 9634 0
-9609 -9629 9635 0
-9630 9635 0
-9609 -9630 9636 0
-9631 9636 0
-9609 -9631 0
-9610 9637 0
-9632 9637 0
-9610 -9632 9638 0
-9633 9638 0
-9610 -9633 9639 0
-9634 9639 0
-9610 -9634 9640 0
-9635 9640 0
-9610 -9635 9641 0
-9636 9641 0
-9610 -9636 0
-9611 -9641 0
-9647 30 31 32 33 34 35 0
-30 9647 0
-31 9647 0
-32 9647 0
-33 9647 0
-34 9647 0
-35 9647 0
-9648 79 80 81 82 83 84 0
-79 9648 0
-80 9648 0
-81 9648 0
-82 9648 0
-83 9648 0
-84 9648 0
-9649 128 129 130 131 132 133 0
-128 9649 0
-129 9649 0
-130 9649 0
-131 9649 0
-132 9649 0
-133 9649 0
-9650 177 178 179 180 181 182 0
-177 9650 0
-178 9650 0
-179 9650 0
-180 9650 0
-181 9650 0
-182 9650 0
-9651 226 227 228 229 230 231 0
-226 9651 0
-227 9651 0
-228 9651 0
-229 9651 0
-230 9651 0
-231 9651 0
-9652 275 276 277 278 279 280 0
-275 9652 0
-276 9652 0
-277 9652 0
-278 9652 0
-279 9652 0
-280 9652 0
-9653 324 325 326 327 328 329 0
-324 9653 0
-325 9653 0
-326 9653 0
-327 9653 0
-328 9653 0
-329 9653 0
-9647 9654 0
-9655 0
-9656 0
-9657 0
-9658 0
-9659 0
-9648 9660 0
-9654 9660 0
-9648 -9654 9661 0
-9655 9661 0
-9648 -9655 9662 0
-9656 9662 0
-9648 -9656 9663 0
-9657 9663 0
-9648 -9657 9664 0
-9658 9664 0
-9648 -9658 9665 0
-9659 9665 0
-9648 -9659 0
-9649 9666 0
-9660 9666 0
-9649 -9660 9667 0
-9661 9667 0
-9649 -9661 9668 0
-9662 9668 0
-9649 -9662 9669 0
-9663 9669 0
-9649 -9663 9670 0
-9664 9670 0
-9649 -9664 9671 0
-9665 9671 0
-9649 -9665 0
-9650 9672 0
-9666 9672 0
-9650 -9666 9673 0
-9667 9673 0
-9650 -9667 9674 0
-9668 9674 0
-9650 -9668 9675 0
-9669 9675 0
-9650 -9669 9676 0
-9670 9676 0
-9650 -9670 9677 0
-9671 9677 0
-9650 -9671 0
-9651 9678 0
-9672 9678 0
-9651 -9672 9679 0
-9673 9679 0
-9651 -9673 9680 0
-9674 9680 0
-9651 -9674 9681 0
-9675 9681 0
-9651 -9675 9682 0
-9676 9682 0
-9651 -9676 9683 0
-9677 9683 0
-9651 -9677 0
-9652 9684 0
-9678 9684 0
-9652 -9678 9685 0
-9679 9685 0
-9652 -9679 9686 0
-9680 9686 0
-9652 -9680 9687 0
-9681 9687 0
-9652 -9681 9688 0
-9682 9688 0
-9652 -9682 9689 0
-9683 9689 0
-9652 -9683 0
-9653 -9689 0
-9696 31 0
-31 9696 0
-9697 80 0
-80 9697 0
-9698 129 0
-129 9698 0
-9699 178 0
-178 9699 0
-9700 227 0
-227 9700 0
-9701 276 0
-276 9701 0
-9702 325 0
-325 9702 0
-9696 9703 0
-9697 9704 0
-9703 9704 0
-9697 -9703 0
-9698 9705 0
-9704 9705 0
-9698 -9704 0
-9699 9706 0
-9705 9706 0
-9699 -9705 0
-9700 9707 0
-9706 9707 0
-9700 -9706 0
-9701 9708 0
-9707 9708 0
-9701 -9707 0
-9702 -9708 0
-9710 31 32 0
-31 9710 0
-32 9710 0
-9711 80 81 0
-80 9711 0
-81 9711 0
-9712 129 130 0
-129 9712 0
-130 9712 0
-9713 178 179 0
-178 9713 0
-179 9713 0
-9714 227 228 0
-227 9714 0
-228 9714 0
-9715 276 277 0
-276 9715 0
-277 9715 0
-9716 325 326 0
-325 9716 0
-326 9716 0
-9710 9717 0
-9718 0
-9711 9719 0
-9717 9719 0
-9711 -9717 9720 0
-9718 9720 0
-9711 -9718 0
-9712 9721 0
-9719 9721 0
-9712 -9719 9722 0
-9720 9722 0
-9712 -9720 0
-9713 9723 0
-9721 9723 0
-9713 -9721 9724 0
-9722 9724 0
-9713 -9722 0
-9714 9725 0
-9723 9725 0
-9714 -9723 9726 0
-9724 9726 0
-9714 -9724 0
-9715 9727 0
-9725 9727 0
-9715 -9725 9728 0
-9726 9728 0
-9715 -9726 0
-9716 -9728 0
-9731 31 32 33 0
-31 9731 0
-32 9731 0
-33 9731 0
-9732 80 81 82 0
-80 9732 0
-81 9732 0
-82 9732 0
-9733 129 130 131 0
-129 9733 0
-130 9733 0
-131 9733 0
-9734 178 179 180 0
-178 9734 0
-179 9734 0
-180 9734 0
-9735 227 228 229 0
-227 9735 0
-228 9735 0
-229 9735 0
-9736 276 277 278 0
-276 9736 0
-277 9736 0
-278 9736 0
-9737 325 326 327 0
-325 9737 0
-326 9737 0
-327 9737 0
-9731 9738 0
-9739 0
-9740 0
-9732 9741 0
-9738 9741 0
-9732 -9738 9742 0
-9739 9742 0
-9732 -9739 9743 0
-9740 9743 0
-9732 -9740 0
-9733 9744 0
-9741 9744 0
-9733 -9741 9745 0
-9742 9745 0
-9733 -9742 9746 0
-9743 9746 0
-9733 -9743 0
-9734 9747 0
-9744 9747 0
-9734 -9744 9748 0
-9745 9748 0
-9734 -9745 9749 0
-9746 9749 0
-9734 -9746 0
-9735 9750 0
-9747 9750 0
-9735 -9747 9751 0
-9748 9751 0
-9735 -9748 9752 0
-9749 9752 0
-9735 -9749 0
-9736 9753 0
-9750 9753 0
-9736 -9750 9754 0
-9751 9754 0
-9736 -9751 9755 0
-9752 9755 0
-9736 -9752 0
-9737 -9755 0
-9759 31 32 33 34 0
-31 9759 0
-32 9759 0
-33 9759 0
-34 9759 0
-9760 80 81 82 83 0
-80 9760 0
-81 9760 0
-82 9760 0
-83 9760 0
-9761 129 130 131 132 0
-129 9761 0
-130 9761 0
-131 9761 0
-132 9761 0
-9762 178 179 180 181 0
-178 9762 0
-179 9762 0
-180 9762 0
-181 9762 0
-9763 227 228 229 230 0
-227 9763 0
-228 9763 0
-229 9763 0
-230 9763 0
-9764 276 277 278 279 0
-276 9764 0
-277 9764 0
-278 9764 0
-279 9764 0
-9765 325 326 327 328 0
-325 9765 0
-326 9765 0
-327 9765 0
-328 9765 0
-9759 9766 0
-9767 0
-9768 0
-9769 0
-9760 9770 0
-9766 9770 0
-9760 -9766 9771 0
-9767 9771 0
-9760 -9767 9772 0
-9768 9772 0
-9760 -9768 9773 0
-9769 9773 0
-9760 -9769 0
-9761 9774 0
-9770 9774 0
-9761 -9770 9775 0
-9771 9775 0
-9761 -9771 9776 0
-9772 9776 0
-9761 -9772 9777 0
-9773 9777 0
-9761 -9773 0
-9762 9778 0
-9774 9778 0
-9762 -9774 9779 0
-9775 9779 0
-9762 -9775 9780 0
-9776 9780 0
-9762 -9776 9781 0
-9777 9781 0
-9762 -9777 0
-9763 9782 0
-9778 9782 0
-9763 -9778 9783 0
-9779 9783 0
-9763 -9779 9784 0
-9780 9784 0
-9763 -9780 9785 0
-9781 9785 0
-9763 -9781 0
-9764 9786 0
-9782 9786 0
-9764 -9782 9787 0
-9783 9787 0
-9764 -9783 9788 0
-9784 9788 0
-9764 -9784 9789 0
-9785 9789 0
-9764 -9785 0
-9765 -9789 0
-9794 31 32 33 34 35 0
-31 9794 0
-32 9794 0
-33 9794 0
-34 9794 0
-35 9794 0
-9795 80 81 82 83 84 0
-80 9795 0
-81 9795 0
-82 9795 0
-83 9795 0
-84 9795 0
-9796 129 130 131 132 133 0
-129 9796 0
-130 9796 0
-131 9796 0
-132 9796 0
-133 9796 0
-9797 178 179 180 181 182 0
-178 9797 0
-179 9797 0
-180 9797 0
-181 9797 0
-182 9797 0
-9798 227 228 229 230 231 0
-227 9798 0
-228 9798 0
-229 9798 0
-230 9798 0
-231 9798 0
-9799 276 277 278 279 280 0
-276 9799 0
-277 9799 0
-278 9799 0
-279 9799 0
-280 9799 0
-9800 325 326 327 328 329 0
-325 9800 0
-326 9800 0
-327 9800 0
-328 9800 0
-329 9800 0
-9794 9801 0
-9802 0
-9803 0
-9804 0
-9805 0
-9795 9806 0
-9801 9806 0
-9795 -9801 9807 0
-9802 9807 0
-9795 -9802 9808 0
-9803 9808 0
-9795 -9803 9809 0
-9804 9809 0
-9795 -9804 9810 0
-9805 9810 0
-9795 -9805 0
-9796 9811 0
-9806 9811 0
-9796 -9806 9812 0
-9807 9812 0
-9796 -9807 9813 0
-9808 9813 0
-9796 -9808 9814 0
-9809 9814 0
-9796 -9809 9815 0
-9810 9815 0
-9796 -9810 0
-9797 9816 0
-9811 9816 0
-9797 -9811 9817 0
-9812 9817 0
-9797 -9812 9818 0
-9813 9818 0
-9797 -9813 9819 0
-9814 9819 0
-9797 -9814 9820 0
-9815 9820 0
-9797 -9815 0
-9798 9821 0
-9816 9821 0
-9798 -9816 9822 0
-9817 9822 0
-9798 -9817 9823 0
-9818 9823 0
-9798 -9818 9824 0
-9819 9824 0
-9798 -9819 9825 0
-9820 9825 0
-9798 -9820 0
-9799 9826 0
-9821 9826 0
-9799 -9821 9827 0
-9822 9827 0
-9799 -9822 9828 0
-9823 9828 0
-9799 -9823 9829 0
-9824 9829 0
-9799 -9824 9830 0
-9825 9830 0
-9799 -9825 0
-9800 -9830 0
-9836 32 0
-32 9836 0
-9837 81 0
-81 9837 0
-9838 130 0
-130 9838 0
-9839 179 0
-179 9839 0
-9840 228 0
-228 9840 0
-9841 277 0
-277 9841 0
-9842 326 0
-326 9842 0
-9836 9843 0
-9837 9844 0
-9843 9844 0
-9837 -9843 0
-9838 9845 0
-9844 9845 0
-9838 -9844 0
-9839 9846 0
-9845 9846 0
-9839 -9845 0
-9840 9847 0
-9846 9847 0
-9840 -9846 0
-9841 9848 0
-9847 9848 0
-9841 -9847 0
-9842 -9848 0
-9850 32 33 0
-32 9850 0
-33 9850 0
-9851 81 82 0
-81 9851 0
-82 9851 0
-9852 130 131 0
-130 9852 0
-131 9852 0
-9853 179 180 0
-179 9853 0
-180 9853 0
-9854 228 229 0
-228 9854 0
-229 9854 0
-9855 277 278 0
-277 9855 0
-278 9855 0
-9856 326 327 0
-326 9856 0
-327 9856 0
-9850 9857 0
-9858 0
-9851 9859 0
-9857 9859 0
-9851 -9857 9860 0
-9858 9860 0
-9851 -9858 0
-9852 9861 0
-9859 9861 0
-9852 -9859 9862 0
-9860 9862 0
-9852 -9860 0
-9853 9863 0
-9861 9863 0
-9853 -9861 9864 0
-9862 9864 0
-9853 -9862 0
-9854 9865 0
-9863 9865 0
-9854 -9863 9866 0
-9864 9866 0
-9854 -9864 0
-9855 9867 0
-9865 9867 0
-9855 -9865 9868 0
-9866 9868 0
-9855 -9866 0
-9856 -9868 0
-9871 32 33 34 0
-32 9871 0
-33 9871 0
-34 9871 0
-9872 81 82 83 0
-81 9872 0
-82 9872 0
-83 9872 0
-9873 130 131 132 0
-130 9873 0
-131 9873 0
-132 9873 0
-9874 179 180 181 0
-179 9874 0
-180 9874 0
-181 9874 0
-9875 228 229 230 0
-228 9875 0
-229 9875 0
-230 9875 0
-9876 277 278 279 0
-277 9876 0
-278 9876 0
-279 9876 0
-9877 326 327 328 0
-326 9877 0
-327 9877 0
-328 9877 0
-9871 9878 0
-9879 0
-9880 0
-9872 9881 0
-9878 9881 0
-9872 -9878 9882 0
-9879 9882 0
-9872 -9879 9883 0
-9880 9883 0
-9872 -9880 0
-9873 9884 0
-9881 9884 0
-9873 -9881 9885 0
-9882 9885 0
-9873 -9882 9886 0
-9883 9886 0
-9873 -9883 0
-9874 9887 0
-9884 9887 0
-9874 -9884 9888 0
-9885 9888 0
-9874 -9885 9889 0
-9886 9889 0
-9874 -9886 0
-9875 9890 0
-9887 9890 0
-9875 -9887 9891 0
-9888 9891 0
-9875 -9888 9892 0
-9889 9892 0
-9875 -9889 0
-9876 9893 0
-9890 9893 0
-9876 -9890 9894 0
-9891 9894 0
-9876 -9891 9895 0
-9892 9895 0
-9876 -9892 0
-9877 -9895 0
-9899 32 33 34 35 0
-32 9899 0
-33 9899 0
-34 9899 0
-35 9899 0
-9900 81 82 83 84 0
-81 9900 0
-82 9900 0
-83 9900 0
-84 9900 0
-9901 130 131 132 133 0
-130 9901 0
-131 9901 0
-132 9901 0
-133 9901 0
-9902 179 180 181 182 0
-179 9902 0
-180 9902 0
-181 9902 0
-182 9902 0
-9903 228 229 230 231 0
-228 9903 0
-229 9903 0
-230 9903 0
-231 9903 0
-9904 277 278 279 280 0
-277 9904 0
-278 9904 0
-279 9904 0
-280 9904 0
-9905 326 327 328 329 0
-326 9905 0
-327 9905 0
-328 9905 0
-329 9905 0
-9899 9906 0
-9907 0
-9908 0
-9909 0
-9900 9910 0
-9906 9910 0
-9900 -9906 9911 0
-9907 9911 0
-9900 -9907 9912 0
-9908 9912 0
-9900 -9908 9913 0
-9909 9913 0
-9900 -9909 0
-9901 9914 0
-9910 9914 0
-9901 -9910 9915 0
-9911 9915 0
-9901 -9911 9916 0
-9912 9916 0
-9901 -9912 9917 0
-9913 9917 0
-9901 -9913 0
-9902 9918 0
-9914 9918 0
-9902 -9914 9919 0
-9915 9919 0
-9902 -9915 9920 0
-9916 9920 0
-9902 -9916 9921 0
-9917 9921 0
-9902 -9917 0
-9903 9922 0
-9918 9922 0
-9903 -9918 9923 0
-9919 9923 0
-9903 -9919 9924 0
-9920 9924 0
-9903 -9920 9925 0
-9921 9925 0
-9903 -9921 0
-9904 9926 0
-9922 9926 0
-9904 -9922 9927 0
-9923 9927 0
-9904 -9923 9928 0
-9924 9928 0
-9904 -9924 9929 0
-9925 9929 0
-9904 -9925 0
-9905 -9929 0
-9934 33 0
-33 9934 0
-9935 82 0
-82 9935 0
-9936 131 0
-131 9936 0
-9937 180 0
-180 9937 0
-9938 229 0
-229 9938 0
-9939 278 0
-278 9939 0
-9940 327 0
-327 9940 0
-9934 9941 0
-9935 9942 0
-9941 9942 0
-9935 -9941 0
-9936 9943 0
-9942 9943 0
-9936 -9942 0
-9937 9944 0
-9943 9944 0
-9937 -9943 0
-9938 9945 0
-9944 9945 0
-9938 -9944 0
-9939 9946 0
-9945 9946 0
-9939 -9945 0
-9940 -9946 0
-9948 33 34 0
-33 9948 0
-34 9948 0
-9949 82 83 0
-82 9949 0
-83 9949 0
-9950 131 132 0
-131 9950 0
-132 9950 0
-9951 180 181 0
-180 9951 0
-181 9951 0
-9952 229 230 0
-229 9952 0
-230 9952 0
-9953 278 279 0
-278 9953 0
-279 9953 0
-9954 327 328 0
-327 9954 0
-328 9954 0
-9948 9955 0
-9956 0
-9949 9957 0
-9955 9957 0
-9949 -9955 9958 0
-9956 9958 0
-9949 -9956 0
-9950 9959 0
-9957 9959 0
-9950 -9957 9960 0
-9958 9960 0
-9950 -9958 0
-9951 9961 0
-9959 9961 0
-9951 -9959 9962 0
-9960 9962 0
-9951 -9960 0
-9952 9963 0
-9961 9963 0
-9952 -9961 9964 0
-9962 9964 0
-9952 -9962 0
-9953 9965 0
-9963 9965 0
-9953 -9963 9966 0
-9964 9966 0
-9953 -9964 0
-9954 -9966 0
-9969 33 34 35 0
-33 9969 0
-34 9969 0
-35 9969 0
-9970 82 83 84 0
-82 9970 0
-83 9970 0
-84 9970 0
-9971 131 132 133 0
-131 9971 0
-132 9971 0
-133 9971 0
-9972 180 181 182 0
-180 9972 0
-181 9972 0
-182 9972 0
-9973 229 230 231 0
-229 9973 0
-230 9973 0
-231 9973 0
-9974 278 279 280 0
-278 9974 0
-279 9974 0
-280 9974 0
-9975 327 328 329 0
-327 9975 0
-328 9975 0
-329 9975 0
-9969 9976 0
-9977 0
-9978 0
-9970 9979 0
-9976 9979 0
-9970 -9976 9980 0
-9977 9980 0
-9970 -9977 9981 0
-9978 9981 0
-9970 -9978 0
-9971 9982 0
-9979 9982 0
-9971 -9979 9983 0
-9980 9983 0
-9971 -9980 9984 0
-9981 9984 0
-9971 -9981 0
-9972 9985 0
-9982 9985 0
-9972 -9982 9986 0
-9983 9986 0
-9972 -9983 9987 0
-9984 9987 0
-9972 -9984 0
-9973 9988 0
-9985 9988 0
-9973 -9985 9989 0
-9986 9989 0
-9973 -9986 9990 0
-9987 9990 0
-9973 -9987 0
-9974 9991 0
-9988 9991 0
-9974 -9988 9992 0
-9989 9992 0
-9974 -9989 9993 0
-9990 9993 0
-9974 -9990 0
-9975 -9993 0
-9997 34 0
-34 9997 0
-9998 83 0
-83 9998 0
-9999 132 0
-132 9999 0
-10000 181 0
-181 10000 0
-10001 230 0
-230 10001 0
-10002 279 0
-279 10002 0
-10003 328 0
-328 10003 0
-9997 10004 0
-9998 10005 0
-10004 10005 0
-9998 -10004 0
-9999 10006 0
-10005 10006 0
-9999 -10005 0
-10000 10007 0
-10006 10007 0
-10000 -10006 0
-10001 10008 0
-10007 10008 0
-10001 -10007 0
-10002 10009 0
-10008 10009 0
-10002 -10008 0
-10003 -10009 0
-10011 34 35 0
-34 10011 0
-35 10011 0
-10012 83 84 0
-83 10012 0
-84 10012 0
-10013 132 133 0
-132 10013 0
-133 10013 0
-10014 181 182 0
-181 10014 0
-182 10014 0
-10015 230 231 0
-230 10015 0
-231 10015 0
-10016 279 280 0
-279 10016 0
-280 10016 0
-10017 328 329 0
-328 10017 0
-329 10017 0
-10011 10018 0
-10019 0
-10012 10020 0
-10018 10020 0
-10012 -10018 10021 0
-10019 10021 0
-10012 -10019 0
-10013 10022 0
-10020 10022 0
-10013 -10020 10023 0
-10021 10023 0
-10013 -10021 0
-10014 10024 0
-10022 10024 0
-10014 -10022 10025 0
-10023 10025 0
-10014 -10023 0
-10015 10026 0
-10024 10026 0
-10015 -10024 10027 0
-10025 10027 0
-10015 -10025 0
-10016 10028 0
-10026 10028 0
-10016 -10026 10029 0
-10027 10029 0
-10016 -10027 0
-10017 -10029 0
-10032 35 0
-35 10032 0
-10033 84 0
-84 10033 0
-10034 133 0
-133 10034 0
-10035 182 0
-182 10035 0
-10036 231 0
-231 10036 0
-10037 280 0
-280 10037 0
-10038 329 0
-329 10038 0
-10032 10039 0
-10033 10040 0
-10039 10040 0
-10033 -10039 0
-10034 10041 0
-10040 10041 0
-10034 -10040 0
-10035 10042 0
-10041 10042 0
-10035 -10041 0
-10036 10043 0
-10042 10043 0
-10036 -10042 0
-10037 10044 0
-10043 10044 0
-10037 -10043 0
-10038 -10044 0
-29 10046 0
-78 10047 0
-10046 10047 0
-78 -10046 0
-127 10048 0
-10047 10048 0
-127 -10047 0
-176 10049 0
-10048 10049 0
-176 -10048 0
-225 10050 0
-10049 10050 0
-225 -10049 0
-274 10051 0
-10050 10051 0
-274 -10050 0
-323 -10051 0
29 78 127 176 225 274 323 0
-30 10053 0
-79 10054 0
-10053 10054 0
-79 -10053 0
-128 10055 0
-10054 10055 0
-128 -10054 0
-177 10056 0
-10055 10056 0
-177 -10055 0
-226 10057 0
-10056 10057 0
-226 -10056 0
-275 10058 0
-10057 10058 0
-275 -10057 0
-324 -10058 0
30 79 128 177 226 275 324 0
-31 10060 0
-80 10061 0
-10060 10061 0
-80 -10060 0
-129 10062 0
-10061 10062 0
-129 -10061 0
-178 10063 0
-10062 10063 0
-178 -10062 0
-227 10064 0
-10063 10064 0
-227 -10063 0
-276 10065 0
-10064 10065 0
-276 -10064 0
-325 -10065 0
31 80 129 178 227 276 325 0
-32 10067 0
-81 10068 0
-10067 10068 0
-81 -10067 0
-130 10069 0
-10068 10069 0
-130 -10068 0
-179 10070 0
-10069 10070 0
-179 -10069 0
-228 10071 0
-10070 10071 0
-228 -10070 0
-277 10072 0
-10071 10072 0
-277 -10071 0
-326 -10072 0
32 81 130 179 228 277 326 0
-33 10074 0
-82 10075 0
-10074 10075 0
-82 -10074 0
-131 10076 0
-10075 10076 0
-131 -10075 0
-180 10077 0
-10076 10077 0
-180 -10076 0
-229 10078 0
-10077 10078 0
-229 -10077 0
-278 10079 0
-10078 10079 0
-278 -10078 0
-327 -10079 0
33 82 131 180 229 278 327 0
-34 10081 0
-83 10082 0
-10081 10082 0
-83 -10081 0
-132 10083 0
-10082 10083 0
-132 -10082 0
-181 10084 0
-10083 10084 0
-181 -10083 0
-230 10085 0
-10084 10085 0
-230 -10084 0
-279 10086 0
-10085 10086 0
-279 -10085 0
-328 -10086 0
34 83 132 181 230 279 328 0
-35 10088 0
-84 10089 0
-10088 10089 0
-84 -10088 0
-133 10090 0
-10089 10090 0
-133 -10089 0
-182 10091 0
-10090 10091 0
-182 -10090 0
-231 10092 0
-10091 10092 0
-231 -10091 0
-280 10093 0
-10092 10093 0
-280 -10092 0
-329 -10093 0
35 84 133 182 231 280 329 0
-10095 36 0
-36 10095 0
-10096 85 0
-85 10096 0
-10097 134 0
-134 10097 0
-10098 183 0
-183 10098 0
-10099 232 0
-232 10099 0
-10100 281 0
-281 10100 0
-10101 330 0
-330 10101 0
-10095 10102 0
-10096 10103 0
-10102 10103 0
-10096 -10102 0
-10097 10104 0
-10103 10104 0
-10097 -10103 0
-10098 10105 0
-10104 10105 0
-10098 -10104 0
-10099 10106 0
-10105 10106 0
-10099 -10105 0
-10100 10107 0
-10106 10107 0
-10100 -10106 0
-10101 -10107 0
-10109 36 37 0
-36 10109 0
-37 10109 0
-10110 85 86 0
-85 10110 0
-86 10110 0
-10111 134 135 0
-134 10111 0
-135 10111 0
-10112 183 184 0
-183 10112 0
-184 10112 0
-10113 232 233 0
-232 10113 0
-233 10113 0
-10114 281 282 0
-281 10114 0
-282 10114 0
-10115 330 331 0
-330 10115 0
-331 10115 0
-10109 10116 0
-10117 0
-10110 10118 0
-10116 10118 0
-10110 -10116 10119 0
-10117 10119 0
-10110 -10117 0
-10111 10120 0
-10118 10120 0
-10111 -10118 10121 0
-10119 10121 0
-10111 -10119 0
-10112 10122 0
-10120 10122 0
-10112 -10120 10123 0
-10121 10123 0
-10112 -10121 0
-10113 10124 0
-10122 10124 0
-10113 -10122 10125 0
-10123 10125 0
-10113 -10123 0
-10114 10126 0
-10124 10126 0
-10114 -10124 10127 0
-10125 10127 0
-10114 -10125 0
-10115 -10127 0
-10130 36 37 38 0
-36 10130 0
-37 10130 0
-38 10130 0
-10131 85 86 87 0
-85 10131 0
-86 10131 0
-87 10131 0
-10132 134 135 136 0
-134 10132 0
-135 10132 0
-136 10132 0
-10133 183 184 185 0
-183 10133 0
-184 10133 0
-185 10133 0
-10134 232 233 234 0
-232 10134 0
-233 10134 0
-234 10134 0
-10135 281 282 283 0
-281 10135 0
-282 10135 0
-283 10135 0
-10136 330 331 332 0
-330 10136 0
-331 10136 0
-332 10136 0
-10130 10137 0
-10138 0
-10139 0
-10131 10140 0
-10137 10140 0
-10131 -10137 10141 0
-10138 10141 0
-10131 -10138 10142 0
-10139 10142 0
-10131 -10139 0
-10132 10143 0
-10140 10143 0
-10132 -10140 10144 0
-10141 10144 0
-10132 -10141 10145 0
-10142 10145 0
-10132 -10142 0
-10133 10146 0
-10143 10146 0
-10133 -10143 10147 0
-10144 10147 0
-10133 -10144 10148 0
-10145 10148 0
-10133 -10145 0
-10134 10149 0
-10146 10149 0
-10134 -10146 10150 0
-10147 10150 0
-10134 -10147 10151 0
-10148 10151 0
-10134 -10148 0
-10135 10152 0
-10149 10152 0
-10135 -10149 10153 0
-10150 10153 0
-10135 -10150 10154 0
-10151 10154 0
-10135 -10151 0
-10136 -10154 0
-10158 36 37 38 39 0
-36 10158 0
-37 10158 0
-38 10158 0
-39 10158 0
-10159 85 86 87 88 0
-85 10159 0
-86 10159 0
-87 10159 0
-88 10159 0
-10160 134 135 136 137 0
-134 10160 0
-135 10160 0
-136 10160 0
-137 10160 0
-10161 183 184 185 186 0
-183 10161 0
-184 10161 0
-185 10161 0
-186 10161 0
-10162 232 233 234 235 0
-232 10162 0
-233 10162 0
-234 10162 0
-235 10162 0
-10163 281 282 283 284 0
-281 10163 0
-282 10163 0
-283 10163 0
-284 10163 0
-10164 330 331 332 333 0
-330 10164 0
-331 10164 0
-332 10164 0
-333 10164 0
-10158 10165 0
-10166 0
-10167 0
-10168 0
-10159 10169 0
-10165 10169 0
-10159 -10165 10170 0
-10166 10170 0
-10159 -10166 10171 0
-10167 10171 0
-10159 -10167 10172 0
-10168 10172 0
-10159 -10168 0
-10160 10173 0
-10169 10173 0
-10160 -10169 10174 0
-10170 10174 0
-10160 -10170 10175 0
-10171 10175 0
-10160 -10171 10176 0
-10172 10176 0
-10160 -10172 0
-10161 10177 0
-10173 10177 0
-10161 -10173 10178 0
-10174 10178 0
-10161 -10174 10179 0
-10175 10179 0
-10161 -10175 10180 0
-10176 10180 0
-10161 -10176 0
-10162 10181 0
-10177 10181 0
-10162 -10177 10182 0
-10178 10182 0
-10162 -10178 10183 0
-10179 10183 0
-10162 -10179 10184 0
-10180 10184 0
-10162 -10180 0
-10163 10185 0
-10181 10185 0
-10163 -10181 10186 0
-10182 10186 0
-10163 -10182 10187 0
-10183 10187 0
-10163 -10183 10188 0
-10184 10188 0
-10163 -10184 0
-10164 -10188 0
-10193 36 37 38 39 40 0
-36 10193 0
-37 10193 0
-38 10193 0
-39 10193 0
-40 10193 0
-10194 85 86 87 88 89 0
-85 10194 0
-86 10194 0
-87 10194 0
-88 10194 0
-89 10194 0
-10195 134 135 136 137 138 0
-134 10195 0
-135 10195 0
-136 10195 0
-137 10195 0
-138 10195 0
-10196 183 184 185 186 187 0
-183 10196 0
-184 10196 0
-185 10196 0
-186 10196 0
-187 10196 0
-10197 232 233 234 235 236 0
-232 10197 0
-233 10197 0
-234 10197 0
-235 10197 0
-236 10197 0
-10198 281 282 283 284 285 0
-281 10198 0
-282 10198 0
-283 10198 0
-284 10198 0
-285 10198 0
-10199 330 331 332 333 334 0
-330 10199 0
-331 10199 0
-332 10199 0
-333 10199 0
-334 10199 0
-10193 10200 0
-10201 0
-10202 0
-10203 0
-10204 0
-10194 10205 0
-10200 10205 0
-10194 -10200 10206 0
-10201 10206 0
-10194 -10201 10207 0
-10202 10207 0
-10194 -10202 10208 0
-10203 10208 0
-10194 -10203 10209 0
-10204 10209 0
-10194 -10204 0
-10195 10210 0
-10205 10210 0
-10195 -10205 10211 0
-10206 10211 0
-10195 -10206 10212 0
-10207 10212 0
-10195 -10207 10213 0
-10208 10213 0
-10195 -10208 10214 0
-10209 10214 0
-10195 -10209 0
-10196 10215 0
-10210 10215 0
-10196 -10210 10216 0
-10211 10216 0
-10196 -10211 10217 0
-10212 10217 0
-10196 -10212 10218 0
-10213 10218 0
-10196 -10213 10219 0
-10214 10219 0
-10196 -10214 0
-10197 10220 0
-10215 10220 0
-10197 -10215 10221 0
-10216 10221 0
-10197 -10216 10222 0
-10217 10222 0
-10197 -10217 10223 0
-10218 10223 0
-10197 -10218 10224 0
-10219 10224 0
-10197 -10219 0
-10198 10225 0
-10220 10225 0
-10198 -10220 10226 0
-10221 10226 0
-10198 -10221 10227 0
-10222 10227 0
-10198 -10222 10228 0
-10223 10228 0
-10198 -10223 10229 0
-10224 10229 0
-10198 -10224 0
-10199 -10229 0
-10235 36 37 38 39 40 41 0
-36 10235 0
-37 10235 0
-38 10235 0
-39 10235 0
-40 10235 0
-41 10235 0
-10236 85 86 87 88 89 90 0
-85 10236 0
-86 10236 0
-87 10236 0
-88 10236 0
-89 10236 0
-90 10236 0
-10237 134 135 136 137 138 139 0
-134 10237 0
-135 10237 0
-136 10237 0
-137 10237 0
-138 10237 0
-139 10237 0
-10238 183 184 185 186 187 188 0
-183 10238 0
-184 10238 0
-185 10238 0
-186 10238 0
-187 10238 0
-188 10238 0
-10239 232 233 234 235 236 237 0
-232 10239 0
-233 10239 0
-234 10239 0
-235 10239 0
-236 10239 0
-237 10239 0
-10240 281 282 283 284 285 286 0
-281 10240 0
-282 10240 0
-283 10240 0
-284 10240 0
-285 10240 0
-286 10240 0
-10241 330 331 332 333 334 335 0
-330 10241 0
-331 10241 0
-332 10241 0
-333 10241 0
-334 10241 0
-335 10241 0
-10235 10242 0
-10243 0
-10244 0
-10245 0
-10246 0
-10247 0
-10236 10248 0
-10242 10248 0
-10236 -10242 10249 0
-10243 10249 0
-10236 -10243 10250 0
-10244 10250 0
-10236 -10244 10251 0
-10245 10251 0
-10236 -10245 10252 0
-10246 10252 0
-10236 -10246 10253 0
-10247 10253 0
-10236 -10247 0
-10237 10254 0
-10248 10254 0
-10237 -10248 10255 0
-10249 10255 0
-10237 -10249 10256 0
-10250 10256 0
-10237 -10250 10257 0
-10251 10257 0
-10237 -10251 10258 0
-10252 10258 0
-10237 -10252 10259 0
-10253 10259 0
-10237 -10253 0
-10238 10260 0
-10254 10260 0
-10238 -10254 10261 0
-10255 10261 0
-10238 -10255 10262 0
-10256 10262 0
-10238 -10256 10263 0
-10257 10263 0
-10238 -10257 10264 0
-10258 10264 0
-10238 -10258 10265 0
-10259 10265 0
-10238 -10259 0
-10239 10266 0
-10260 10266 0
-10239 -10260 10267 0
-10261 10267 0
-10239 -10261 10268 0
-10262 10268 0
-10239 -10262 10269 0
-10263 10269 0
-10239 -10263 10270 0
-10264 10270 0
-10239 -10264 10271 0
-10265 10271 0
-10239 -10265 0
-10240 10272 0
-10266 10272 0
-10240 -10266 10273 0
-10267 10273 0
-10240 -10267 10274 0
-10268 10274 0
-10240 -10268 10275 0
-10269 10275 0
-10240 -10269 10276 0
-10270 10276 0
-10240 -10270 10277 0
-10271 10277 0
-10240 -10271 0
-10241 -10277 0
-10284 36 37 38 39 40 41 42 0
-36 10284 0
-37 10284 0
-38 10284 0
-39 10284 0
-40 10284 0
-41 10284 0
-42 10284 0
-10285 85 86 87 88 89 90 91 0
-85 10285 0
-86 10285 0
-87 10285 0
-88 10285 0
-89 10285 0
-90 10285 0
-91 10285 0
-10286 134 135 136 137 138 139 140 0
-134 10286 0
-135 10286 0
-136 10286 0
-137 10286 0
-138 10286 0
-139 10286 0
-140 10286 0
-10287 183 184 185 186 187 188 189 0
-183 10287 0
-184 10287 0
-185 10287 0
-186 10287 0
-187 10287 0
-188 10287 0
-189 10287 0
-10288 232 233 234 235 236 237 238 0
-232 10288 0
-233 10288 0
-234 10288 0
-235 10288 0
-236 10288 0
-237 10288 0
-238 10288 0
-10289 281 282 283 284 285 286 287 0
-281 10289 0
-282 10289 0
-283 10289 0
-284 10289 0
-285 10289 0
-286 10289 0
-287 10289 0
-10290 330 331 332 333 334 335 336 0
-330 10290 0
-331 10290 0
-332 10290 0
-333 10290 0
-334 10290 0
-335 10290 0
-336 10290 0
-10291 37 0
-37 10291 0
-10292 86 0
-86 10292 0
-10293 135 0
-135 10293 0
-10294 184 0
-184 10294 0
-10295 233 0
-233 10295 0
-10296 282 0
-282 10296 0
-10297 331 0
-331 10297 0
-10291 10298 0
-10292 10299 0
-10298 10299 0
-10292 -10298 0
-10293 10300 0
-10299 10300 0
-10293 -10299 0
-10294 10301 0
-10300 10301 0
-10294 -10300 0
-10295 10302 0
-10301 10302 0
-10295 -10301 0
-10296 10303 0
-10302 10303 0
-10296 -10302 0
-10297 -10303 0
-10305 37 38 0
-37 10305 0
-38 10305 0
-10306 86 87 0
-86 10306 0
-87 10306 0
-10307 135 136 0
-135 10307 0
-136 10307 0
-10308 184 185 0
-184 10308 0
-185 10308 0
-10309 233 234 0
-233 10309 0
-234 10309 0
-10310 282 283 0
-282 10310 0
-283 10310 0
-10311 331 332 0
-331 10311 0
-332 10311 0
-10305 10312 0
-10313 0
-10306 10314 0
-10312 10314 0
-10306 -10312 10315 0
-10313 10315 0
-10306 -10313 0
-10307 10316 0
-10314 10316 0
-10307 -10314 10317 0
-10315 10317 0
-10307 -10315 0
-10308 10318 0
-10316 10318 0
-10308 -10316 10319 0
-10317 10319 0
-10308 -10317 0
-10309 10320 0
-10318 10320 0
-10309 -10318 10321 0
-10319 10321 0
-10309 -10319 0
-10310 10322 0
-10320 10322 0
-10310 -10320 10323 0
-10321 10323 0
-10310 -10321 0
-10311 -10323 0
-10326 37 38 39 0
-37 10326 0
-38 10326 0
-39 10326 0
-10327 86 87 88 0
-86 10327 0
-87 10327 0
-88 10327 0
-10328 135 136 137 0
-135 10328 0
-136 10328 0
-137 10328 0
-10329 184 185 186 0
-184 10329 0
-185 10329 0
-186 10329 0
-10330 233 234 235 0
-233 10330 0
-234 10330 0
-235 10330 0
-10331 282 283 284 0
-282 10331 0
-283 10331 0
-284 10331 0
-10332 331 332 333 0
-331 10332 0
-332 10332 0
-333 10332 0
-10326 10333 0
-10334 0
-10335 0
-10327 10336 0
-10333 10336 0
-10327 -10333 10337 0
-10334 10337 0
-10327 -10334 10338 0
-10335 10338 0
-10327 -10335 0
-10328 10339 0
-10336 10339 0
-10328 -10336 10340 0
-10337 10340 0
-10328 -10337 10341 0
-10338 10341 0
-10328 -10338 0
-10329 10342 0
-10339 10342 0
-10329 -10339 10343 0
-10340 10343 0
-10329 -10340 10344 0
-10341 10344 0
-10329 -10341 0
-10330 10345 0
-10342 10345 0
-10330 -10342 10346 0
-10343 10346 0
-10330 -10343 10347 0
-10344 10347 0
-10330 -10344 0
-10331 10348 0
-10345 10348 0
-10331 -10345 10349 0
-10346 10349 0
-10331 -10346 10350 0
-10347 10350 0
-10331 -10347 0
-10332 -10350 0
-10354 37 38 39 40 0
-37 10354 0
-38 10354 0
-39 10354 0
-40 10354 0
-10355 86 87 88 89 0
-86 10355 0
-87 10355 0
-88 10355 0
-89 10355 0
-10356 135 136 137 138 0
-135 10356 0
-136 10356 0
-137 10356 0
-138 10356 0
-10357 184 185 186 187 0
-184 10357 0
-185 10357 0
-186 10357 0
-187 10357 0
-10358 233 234 235 236 0
-233 10358 0
-234 10358 0
-235 10358 0
-236 10358 0
-10359 282 283 284 285 0
-282 10359 0
-283 10359 0
-284 10359 0
-285 10359 0
-10360 331 332 333 334 0
-331 10360 0
-332 10360 0
-333 10360 0
-334 10360 0
-10354 10361 0
-10362 0
-10363 0
-10364 0
-10355 10365 0
-10361 10365 0
-10355 -10361 10366 0
-10362 10366 0
-10355 -10362 10367 0
-10363 10367 0
-10355 -10363 10368 0
-10364 10368 0
-10355 -10364 0
-10356 10369 0
-10365 10369 0
-10356 -10365 10370 0
-10366 10370 0
-10356 -10366 10371 0
-10367 10371 0
-10356 -10367 10372 0
-10368 10372 0
-10356 -10368 0
-10357 10373 0
-10369 10373 0
-10357 -10369 10374 0
-10370 10374 0
-10357 -10370 10375 0
-10371 10375 0
-10357 -10371 10376 0
-10372 10376 0
-10357 -10372 0
-10358 10377 0
-10373 10377 0
-10358 -10373 10378 0
-10374 10378 0
-10358 -10374 10379 0
-10375 10379 0
-10358 -10375 10380 0
-10376 10380 0
-10358 -10376 0
-10359 10381 0
-10377 10381 0
-10359 -10377 10382 0
-10378 10382 0
-10359 -10378 10383 0
-10379 10383 0
-10359 -10379 10384 0
-10380 10384 0
-10359 -10380 0
-10360 -10384 0
-10389 37 38 39 40 41 0
-37 10389 0
-38 10389 0
-39 10389 0
-40 10389 0
-41 10389 0
-10390 86 87 88 89 90 0
-86 10390 0
-87 10390 0
-88 10390 0
-89 10390 0
-90 10390 0
-10391 135 136 137 138 139 0
-135 10391 0
-136 10391 0
-137 10391 0
-138 10391 0
-139 10391 0
-10392 184 185 186 187 188 0
-184 10392 0
-185 10392 0
-186 10392 0
-187 10392 0
-188 10392 0
-10393 233 234 235 236 237 0
-233 10393 0
-234 10393 0
-235 10393 0
-236 10393 0
-237 10393 0
-10394 282 283 284 285 286 0
-282 10394 0
-283 10394 0
-284 10394 0
-285 10394 0
-286 10394 0
-10395 331 332 333 334 335 0
-331 10395 0
-332 10395 0
-333 10395 0
-334 10395 0
-335 10395 0
-10389 10396 0
-10397 0
-10398 0
-10399 0
-10400 0
-10390 10401 0
-10396 10401 0
-10390 -10396 10402 0
-10397 10402 0
-10390 -10397 10403 0
-10398 10403 0
-10390 -10398 10404 0
-10399 10404 0
-10390 -10399 10405 0
-10400 10405 0
-10390 -10400 0
-10391 10406 0
-10401 10406 0
-10391 -10401 10407 0
-10402 10407 0
-10391 -10402 10408 0
-10403 10408 0
-10391 -10403 10409 0
-10404 10409 0
-10391 -10404 10410 0
-10405 10410 0
-10391 -10405 0
-10392 10411 0
-10406 10411 0
-10392 -10406 10412 0
-10407 10412 0
-10392 -10407 10413 0
-10408 10413 0
-10392 -10408 10414 0
-10409 10414 0
-10392 -10409 10415 0
-10410 10415 0
-10392 -10410 0
-10393 10416 0
-10411 10416 0
-10393 -10411 10417 0
-10412 10417 0
-10393 -10412 10418 0
-10413 10418 0
-10393 -10413 10419 0
-10414 10419 0
-10393 -10414 10420 0
-10415 10420 0
-10393 -10415 0
-10394 10421 0
-10416 10421 0
-10394 -10416 10422 0
-10417 10422 0
-10394 -10417 10423 0
-10418 10423 0
-10394 -10418 10424 0
-10419 10424 0
-10394 -10419 10425 0
-10420 10425 0
-10394 -10420 0
-10395 -10425 0
-10431 37 38 39 40 41 42 0
-37 10431 0
-38 10431 0
-39 10431 0
-40 10431 0
-41 10431 0
-42 10431 0
-10432 86 87 88 89 90 91 0
-86 10432 0
-87 10432 0
-88 10432 0
-89 10432 0
-90 10432 0
-91 10432 0
-10433 135 136 137 138 139 140 0
-135 10433 0
-136 10433 0
-137 10433 0
-138 10433 0
-139 10433 0
-140 10433 0
-10434 184 185 186 187 188 189 0
-184 10434 0
-185 10434 0
-186 10434 0
-187 10434 0
-188 10434 0
-189 10434 0
-10435 233 234 235 236 237 238 0
-233 10435 0
-234 10435 0
-235 10435 0
-236 10435 0
-237 10435 0
-238 10435 0
-10436 282 283 284 285 286 287 0
-282 10436 0
-283 10436 0
-284 10436 0
-285 10436 0
-286 10436 0
-287 10436 0
-10437 331 332 333 334 335 336 0
-331 10437 0
-332 10437 0
-333 10437 0
-334 10437 0
-335 10437 0
-336 10437 0
-10431 10438 0
-10439 0
-10440 0
-10441 0
-10442 0
-10443 0
-10432 10444 0
-10438 10444 0
-10432 -10438 10445 0
-10439 10445 0
-10432 -10439 10446 0
-10440 10446 0
-10432 -10440 10447 0
-10441 10447 0
-10432 -10441 10448 0
-10442 10448 0
-10432 -10442 10449 0
-10443 10449 0
-10432 -10443 0
-10433 10450 0
-10444 10450 0
-10433 -10444 10451 0
-10445 10451 0
-10433 -10445 10452 0
-10446 10452 0
-10433 -10446 10453 0
-10447 10453 0
-10433 -10447 10454 0
-10448 10454 0
-10433 -10448 10455 0
-10449 10455 0
-10433 -10449 0
-10434 10456 0
-10450 10456 0
-10434 -10450 10457 0
-10451 10457 0
-10434 -10451 10458 0
-10452 10458 0
-10434 -10452 10459 0
-10453 10459 0
-10434 -10453 10460 0
-10454 10460 0
-10434 -10454 10461 0
-10455 10461 0
-10434 -10455 0
-10435 10462 0
-10456 10462 0
-10435 -10456 10463 0
-10457 10463 0
-10435 -10457 10464 0
-10458 10464 0
-10435 -10458 10465 0
-10459 10465 0
-10435 -10459 10466 0
-10460 10466 0
-10435 -10460 10467 0
-10461 10467 0
-10435 -10461 0
-10436 10468 0
-10462 10468 0
-10436 -10462 10469 0
-10463 10469 0
-10436 -10463 10470 0
-10464 10470 0
-10436 -10464 10471 0
-10465 10471 0
-10436 -10465 10472 0
-10466 10472 0
-10436 -10466 10473 0
-10467 10473 0
-10436 -10467 0
-10437 -10473 0
-10480 38 0
-38 10480 0
-10481 87 0
-87 10481 0
-10482 136 0
-136 10482 0
-10483 185 0
-185 10483 0
-10484 234 0
-234 10484 0
-10485 283 0
-283 10485 0
-10486 332 0
-332 10486 0
-10480 10487 0
-10481 10488 0
-10487 10488 0
-10481 -10487 0
-10482 10489 0
-10488 10489 0
-10482 -10488 0
-10483 10490 0
-10489 10490 0
-10483 -10489 0
-10484 10491 0
-10490 10491 0
-10484 -10490 0
-10485 10492 0
-10491 10492 0
-10485 -10491 0
-10486 -10492 0
-10494 38 39 0
-38 10494 0
-39 10494 0
-10495 87 88 0
-87 10495 0
-88 10495 0
-10496 136 137 0
-136 10496 0
-137 10496 0
-10497 185 186 0
-185 10497 0
-186 10497 0
-10498 234 235 0
-234 10498 0
-235 10498 0
-10499 283 284 0
-283 10499 0
-284 10499 0
-10500 332 333 0
-332 10500 0
-333 10500 0
-10494 10501 0
-10502 0
-10495 10503 0
-10501 10503 0
-10495 -10501 10504 0
-10502 10504 0
-10495 -10502 0
-10496 10505 0
-10503 10505 0
-10496 -10503 10506 0
-10504 10506 0
-10496 -10504 0
-10497 10507 0
-10505 10507 0
-10497 -10505 10508 0
-10506 10508 0
-10497 -10506 0
-10498 10509 0
-10507 10509 0
-10498 -10507 10510 0
-10508 10510 0
-10498 -10508 0
-10499 10511 0
-10509 10511 0
-10499 -10509 10512 0
-10510 10512 0
-10499 -10510 0
-10500 -10512 0
-10515 38 39 40 0
-38 10515 0
-39 10515 0
-40 10515 0
-10516 87 88 89 0
-87 10516 0
-88 10516 0
-89 10516 0
-10517 136 137 138 0
-136 10517 0
-137 10517 0
-138 10517 0
-10518 185 186 187 0
-185 10518 0
-186 10518 0
-187 10518 0
-10519 234 235 236 0
-234 10519 0
-235 10519 0
-236 10519 0
-10520 283 284 285 0
-283 10520 0
-284 10520 0
-285 10520 0
-10521 332 333 334 0
-332 10521 0
-333 10521 0
-334 10521 0
-10515 10522 0
-10523 0
-10524 0
-10516 10525 0
-10522 10525 0
-10516 -10522 10526 0
-10523 10526 0
-10516 -10523 10527 0
-10524 10527 0
-10516 -10524 0
-10517 10528 0
-10525 10528 0
-10517 -10525 10529 0
-10526 10529 0
-10517 -10526 10530 0
-10527 10530 0
-10517 -10527 0
-10518 10531 0
-10528 10531 0
-10518 -10528 10532 0
-10529 10532 0
-10518 -10529 10533 0
-10530 10533 0
-10518 -10530 0
-10519 10534 0
-10531 10534 0
-10519 -10531 10535 0
-10532 10535 0
-10519 -10532 10536 0
-10533 10536 0
-10519 -10533 0
-10520 10537 0
-10534 10537 0
-10520 -10534 10538 0
-10535 10538 0
-10520 -10535 10539 0
-10536 10539 0
-10520 -10536 0
-10521 -10539 0
-10543 38 39 40 41 0
-38 10543 0
-39 10543 0
-40 10543 0
-41 10543 0
-10544 87 88 89 90 0
-87 10544 0
-88 10544 0
-89 10544 0
-90 10544 0
-10545 136 137 138 139 0
-136 10545 0
-137 10545 0
-138 10545 0
-139 10545 0
-10546 185 186 187 188 0
-185 10546 0
-186 10546 0
-187 10546 0
-188 10546 0
-10547 234 235 236 237 0
-234 10547 0
-235 10547 0
-236 10547 0
-237 10547 0
-10548 283 284 285 286 0
-283 10548 0
-284 10548 0
-285 10548 0
-286 10548 0
-10549 332 333 334 335 0
-332 10549 0
-333 10549 0
-334 10549 0
-335 10549 0
-10543 10550 0
-10551 0
-10552 0
-10553 0
-10544 10554 0
-10550 10554 0
-10544 -10550 10555 0
-10551 10555 0
-10544 -10551 10556 0
-10552 10556 0
-10544 -10552 10557 0
-10553 10557 0
-10544 -10553 0
-10545 10558 0
-10554 10558 0
-10545 -10554 10559 0
-10555 10559 0
-10545 -10555 10560 0
-10556 10560 0
-10545 -10556 10561 0
-10557 10561 0
-10545 -10557 0
-10546 10562 0
-10558 10562 0
-10546 -10558 10563 0
-10559 10563 0
-10546 -10559 10564 0
-10560 10564 0
-10546 -10560 10565 0
-10561 10565 0
-10546 -10561 0
-10547 10566 0
-10562 10566 0
-10547 -10562 10567 0
-10563 10567 0
-10547 -10563 10568 0
-10564 10568 0
-10547 -10564 10569 0
-10565 10569 0
-10547 -10565 0
-10548 10570 0
-10566 10570 0
-10548 -10566 10571 0
-10567 10571 0
-10548 -10567 10572 0
-10568 10572 0
-10548 -10568 10573 0
-10569 10573 0
-10548 -10569 0
-10549 -10573 0
-10578 38 39 40 41 42 0
-38 10578 0
-39 10578 0
-40 10578 0
-41 10578 0
-42 10578 0
-10579 87 88 89 90 91 0
-87 10579 0
-88 10579 0
-89 10579 0
-90 10579 0
-91 10579 0
-10580 136 137 138 139 140 0
-136 10580 0
-137 10580 0
-138 10580 0
-139 10580 0
-140 10580 0
-10581 185 186 187 188 189 0
-185 10581 0
-186 10581 0
-187 10581 0
-188 10581 0
-189 10581 0
-10582 234 235 236 237 238 0
-234 10582 0
-235 10582 0
-236 10582 0
-237 10582 0
-238 10582 0
-10583 283 284 285 286 287 0
-283 10583 0
-284 10583 0
-285 10583 0
-286 10583 0
-287 10583 0
-10584 332 333 334 335 336 0
-332 10584 0
-333 10584 0
-334 10584 0
-335 10584 0
-336 10584 0
-10578 10585 0
-10586 0
-10587 0
-10588 0
-10589 0
-10579 10590 0
-10585 10590 0
-10579 -10585 10591 0
-10586 10591 0
-10579 -10586 10592 0
-10587 10592 0
-10579 -10587 10593 0
-10588 10593 0
-10579 -10588 10594 0
-10589 10594 0
-10579 -10589 0
-10580 10595 0
-10590 10595 0
-10580 -10590 10596 0
-10591 10596 0
-10580 -10591 10597 0
-10592 10597 0
-10580 -10592 10598 0
-10593 10598 0
-10580 -10593 10599 0
-10594 10599 0
-10580 -10594 0
-10581 10600 0
-10595 10600 0
-10581 -10595 10601 0
-10596 10601 0
-10581 -10596 10602 0
-10597 10602 0
-10581 -10597 10603 0
-10598 10603 0
-10581 -10598 10604 0
-10599 10604 0
-10581 -10599 0
-10582 10605 0
-10600 10605 0
-10582 -10600 10606 0
-10601 10606 0
-10582 -10601 10607 0
-10602 10607 0
-10582 -10602 10608 0
-10603 10608 0
-10582 -10603 10609 0
-10604 10609 0
-10582 -10604 0
-10583 10610 0
-10605 10610 0
-10583 -10605 10611 0
-10606 10611 0
-10583 -10606 10612 0
-10607 10612 0
-10583 -10607 10613 0
-10608 10613 0
-10583 -10608 10614 0
-10609 10614 0
-10583 -10609 0
-10584 -10614 0
-10620 39 0
-39 10620 0
-10621 88 0
-88 10621 0
-10622 137 0
-137 10622 0
-10623 186 0
-186 10623 0
-10624 235 0
-235 10624 0
-10625 284 0
-284 10625 0
-10626 333 0
-333 10626 0
-10620 10627 0
-10621 10628 0
-10627 10628 0
-10621 -10627 0
-10622 10629 0
-10628 10629 0
-10622 -10628 0
-10623 10630 0
-10629 10630 0
-10623 -10629 0
-10624 10631 0
-10630 10631 0
-10624 -10630 0
-10625 10632 0
-10631 10632 0
-10625 -10631 0
-10626 -10632 0
-10634 39 40 0
-39 10634 0
-40 10634 0
-10635 88 89 0
-88 10635 0
-89 10635 0
-10636 137 138 0
-137 10636 0
-138 10636 0
-10637 186 187 0
-186 10637 0
-187 10637 0
-10638 235 236 0
-235 10638 0
-236 10638 0
-10639 284 285 0
-284 10639 0
-285 10639 0
-10640 333 334 0
-333 10640 0
-334 10640 0
-10634 10641 0
-10642 0
-10635 10643 0
-10641 10643 0
-10635 -10641 10644 0
-10642 10644 0
-10635 -10642 0
-10636 10645 0
-10643 10645 0
-10636 -10643 10646 0
-10644 10646 0
-10636 -10644 0
-10637 10647 0
-10645 10647 0
-10637 -10645 10648 0
-10646 10648 0
-10637 -10646 0
-10638 10649 0
-10647 10649 0
-10638 -10647 10650 0
-10648 10650 0
-10638 -10648 0
-10639 10651 0
-10649 10651 0
-10639 -10649 10652 0
-10650 10652 0
-10639 -10650 0
-10640 -10652 0
-10655 39 40 41 0
-39 10655 0
-40 10655 0
-41 10655 0
-10656 88 89 90 0
-88 10656 0
-89 10656 0
-90 10656 0
-10657 137 138 139 0
-137 10657 0
-138 10657 0
-139 10657 0
-10658 186 187 188 0
-186 10658 0
-187 10658 0
-188 10658 0
-10659 235 236 237 0
-235 10659 0
-236 10659 0
-237 10659 0
-10660 284 285 286 0
-284 10660 0
-285 10660 0
-286 10660 0
-10661 333 334 335 0
-333 10661 0
-334 10661 0
-335 10661 0
-10655 10662 0
-10663 0
-10664 0
-10656 10665 0
-10662 10665 0
-10656 -10662 10666 0
-10663 10666 0
-10656 -10663 10667 0
-10664 10667 0
-10656 -10664 0
-10657 10668 0
-10665 10668 0
-10657 -10665 10669 0
-10666 10669 0
-10657 -10666 10670 0
-10667 10670 0
-10657 -10667 0
-10658 10671 0
-10668 10671 0
-10658 -10668 10672 0
-10669 10672 0
-10658 -10669 10673 0
-10670 10673 0
-10658 -10670 0
-10659 10674 0
-10671 10674 0
-10659 -10671 10675 0
-10672 10675 0
-10659 -10672 10676 0
-10673 10676 0
-10659 -10673 0
-10660 10677 0
-10674 10677 0
-10660 -10674 10678 0
-10675 10678 0
-10660 -10675 10679 0
-10676 10679 0
-10660 -10676 0
-10661 -10679 0
-10683 39 40 41 42 0
-39 10683 0
-40 10683 0
-41 10683 0
-42 10683 0
-10684 88 89 90 91 0
-88 10684 0
-89 10684 0
-90 10684 0
-91 10684 0
-10685 137 138 139 140 0
-137 10685 0
-138 10685 0
-139 10685 0
-140 10685 0
-10686 186 187 188 189 0
-186 10686 0
-187 10686 0
-188 10686 0
-189 10686 0
-10687 235 236 237 238 0
-235 10687 0
-236 10687 0
-237 10687 0
-238 10687 0
-10688 284 285 286 287 0
-284 10688 0
-285 10688 0
-286 10688 0
-287 10688 0
-10689 333 334 335 336 0
-333 10689 0
-334 10689 0
-335 10689 0
-336 10689 0
-10683 10690 0
-10691 0
-10692 0
-10693 0
-10684 10694 0
-10690 10694 0
-10684 -10690 10695 0
-10691 10695 0
-10684 -10691 10696 0
-10692 10696 0
-10684 -10692 10697 0
-10693 10697 0
-10684 -10693 0
-10685 10698 0
-10694 10698 0
-10685 -10694 10699 0
-10695 10699 0
-10685 -10695 10700 0
-10696 10700 0
-10685 -10696 10701 0
-10697 10701 0
-10685 -10697 0
-10686 10702 0
-10698 10702 0
-10686 -10698 10703 0
-10699 10703 0
-10686 -10699 10704 0
-10700 10704 0
-10686 -10700 10705 0
-10701 10705 0
-10686 -10701 0
-10687 10706 0
-10702 10706 0
-10687 -10702 10707 0
-10703 10707 0
-10687 -10703 10708 0
-10704 10708 0
-10687 -10704 10709 0
-10705 10709 0
-10687 -10705 0
-10688 10710 0
-10706 10710 0
-10688 -10706 10711 0
-10707 10711 0
-10688 -10707 10712 0
-10708 10712 0
-10688 -10708 10713 0
-10709 10713 0
-10688 -10709 0
-10689 -10713 0
-10718 40 0
-40 10718 0
-10719 89 0
-89 10719 0
-10720 138 0
-138 10720 0
-10721 187 0
-187 10721 0
-10722 236 0
-236 10722 0
-10723 285 0
-285 10723 0
-10724 334 0
-334 10724 0
-10718 10725 0
-10719 10726 0
-10725 10726 0
-10719 -10725 0
-10720 10727 0
-10726 10727 0
-10720 -10726 0
-10721 10728 0
-10727 10728 0
-10721 -10727 0
-10722 10729 0
-10728 10729 0
-10722 -10728 0
-10723 10730 0
-10729 10730 0
-10723 -10729 0
-10724 -10730 0
-10732 40 41 0
-40 10732 0
-41 10732 0
-10733 89 90 0
-89 10733 0
-90 10733 0
-10734 138 139 0
-138 10734 0
-139 10734 0
-10735 187 188 0
-187 10735 0
-188 10735 0
-10736 236 237 0
-236 10736 0
-237 10736 0
-10737 285 286 0
-285 10737 0
-286 10737 0
-10738 334 335 0
-334 10738 0
-335 10738 0
-10732 10739 0
-10740 0
-10733 10741 0
-10739 10741 0
-10733 -10739 10742 0
-10740 10742 0
-10733 -10740 0
-10734 10743 0
-10741 10743 0
-10734 -10741 10744 0
-10742 10744 0
-10734 -10742 0
-10735 10745 0
-10743 10745 0
-10735 -10743 10746 0
-10744 10746 0
-10735 -10744 0
-10736 10747 0
-10745 10747 0
-10736 -10745 10748 0
-10746 10748 0
-10736 -10746 0
-10737 10749 0
-10747 10749 0
-10737 -10747 10750 0
-10748 10750 0
-10737 -10748 0
-10738 -10750 0
-10753 40 41 42 0
-40 10753 0
-41 10753 0
-42 10753 0
-10754 89 90 91 0
-89 10754 0
-90 10754 0
-91 10754 0
-10755 138 139 140 0
-138 10755 0
-139 10755 0
-140 10755 0
-10756 187 188 189 0
-187 10756 0
-188 10756 0
-189 10756 0
-10757 236 237 238 0
-236 10757 0
-237 10757 0
-238 10757 0
-10758 285 286 287 0
-285 10758 0
-286 10758 0
-287 10758 0
-10759 334 335 336 0
-334 10759 0
-335 10759 0
-336 10759 0
-10753 10760 0
-10761 0
-10762 0
-10754 10763 0
-10760 10763 0
-10754 -10760 10764 0
-10761 10764 0
-10754 -10761 10765 0
-10762 10765 0
-10754 -10762 0
-10755 10766 0
-10763 10766 0
-10755 -10763 10767 0
-10764 10767 0
-10755 -10764 10768 0
-10765 10768 0
-10755 -10765 0
-10756 10769 0
-10766 10769 0
-10756 -10766 10770 0
-10767 10770 0
-10756 -10767 10771 0
-10768 10771 0
-10756 -10768 0
-10757 10772 0
-10769 10772 0
-10757 -10769 10773 0
-10770 10773 0
-10757 -10770 10774 0
-10771 10774 0
-10757 -10771 0
-10758 10775 0
-10772 10775 0
-10758 -10772 10776 0
-10773 10776 0
-10758 -10773 10777 0
-10774 10777 0
-10758 -10774 0
-10759 -10777 0
-10781 41 0
-41 10781 0
-10782 90 0
-90 10782 0
-10783 139 0
-139 10783 0
-10784 188 0
-188 10784 0
-10785 237 0
-237 10785 0
-10786 286 0
-286 10786 0
-10787 335 0
-335 10787 0
-10781 10788 0
-10782 10789 0
-10788 10789 0
-10782 -10788 0
-10783 10790 0
-10789 10790 0
-10783 -10789 0
-10784 10791 0
-10790 10791 0
-10784 -10790 0
-10785 10792 0
-10791 10792 0
-10785 -10791 0
-10786 10793 0
-10792 10793 0
-10786 -10792 0
-10787 -10793 0
-10795 41 42 0
-41 10795 0
-42 10795 0
-10796 90 91 0
-90 10796 0
-91 10796 0
-10797 139 140 0
-139 10797 0
-140 10797 0
-10798 188 189 0
-188 10798 0
-189 10798 0
-10799 237 238 0
-237 10799 0
-238 10799 0
-10800 286 287 0
-286 10800 0
-287 10800 0
-10801 335 336 0
-335 10801 0
-336 10801 0
-10795 10802 0
-10803 0
-10796 10804 0
-10802 10804 0
-10796 -10802 10805 0
-10803 10805 0
-10796 -10803 0
-10797 10806 0
-10804 10806 0
-10797 -10804 10807 0
-10805 10807 0
-10797 -10805 0
-10798 10808 0
-10806 10808 0
-10798 -10806 10809 0
-10807 10809 0
-10798 -10807 0
-10799 10810 0
-10808 10810 0
-10799 -10808 10811 0
-10809 10811 0
-10799 -10809 0
-10800 10812 0
-10810 10812 0
-10800 -10810 10813 0
-10811 10813 0
-10800 -10811 0
-10801 -10813 0
-10816 42 0
-42 10816 0
-10817 91 0
-91 10817 0
-10818 140 0
-140 10818 0
-10819 189 0
-189 10819 0
-10820 238 0
-238 10820 0
-10821 287 0
-287 10821 0
-10822 336 0
-336 10822 0
-10816 10823 0
-10817 10824 0
-10823 10824 0
-10817 -10823 0
-10818 10825 0
-10824 10825 0
-10818 -10824 0
-10819 10826 0
-10825 10826 0
-10819 -10825 0
-10820 10827 0
-10826 10827 0
-10820 -10826 0
-10821 10828 0
-10827 10828 0
-10821 -10827 0
-10822 -10828 0
-36 10830 0
-85 10831 0
-10830 10831 0
-85 -10830 0
-134 10832 0
-10831 10832 0
-134 -10831 0
-183 10833 0
-10832 10833 0
-183 -10832 0
-232 10834 0
-10833 10834 0
-232 -10833 0
-281 10835 0
-10834 10835 0
-281 -10834 0
-330 -10835 0
36 85 134 183 232 281 330 0
-37 10837 0
-86 10838 0
-10837 10838 0
-86 -10837 0
-135 10839 0
-10838 10839 0
-135 -10838 0
-184 10840 0
-10839 10840 0
-184 -10839 0
-233 10841 0
-10840 10841 0
-233 -10840 0
-282 10842 0
-10841 10842 0
-282 -10841 0
-331 -10842 0
37 86 135 184 233 282 331 0
-38 10844 0
-87 10845 0
-10844 10845 0
-87 -10844 0
-136 10846 0
-10845 10846 0
-136 -10845 0
-185 10847 0
-10846 10847 0
-185 -10846 0
-234 10848 0
-10847 10848 0
-234 -10847 0
-283 10849 0
-10848 10849 0
-283 -10848 0
-332 -10849 0
38 87 136 185 234 283 332 0
-39 10851 0
-88 10852 0
-10851 10852 0
-88 -10851 0
-137 10853 0
-10852 10853 0
-137 -10852 0
-186 10854 0
-10853 10854 0
-186 -10853 0
-235 10855 0
-10854 10855 0
-235 -10854 0
-284 10856 0
-10855 10856 0
-284 -10855 0
-333 -10856 0
39 88 137 186 235 284 333 0
-40 10858 0
-89 10859 0
-10858 10859 0
-89 -10858 0
-138 10860 0
-10859 10860 0
-138 -10859 0
-187 10861 0
-10860 10861 0
-187 -10860 0
-236 10862 0
-10861 10862 0
-236 -10861 0
-285 10863 0
-10862 10863 0
-285 -10862 0
-334 -10863 0
40 89 138 187 236 285 334 0
-41 10865 0
-90 10866 0
-10865 10866 0
-90 -10865 0
-139 10867 0
-10866 10867 0
-139 -10866 0
-188 10868 0
-10867 10868 0
-188 -10867 0
-237 10869 0
-10868 10869 0
-237 -10868 0
-286 10870 0
-10869 10870 0
-286 -10869 0
-335 -10870 0
41 90 139 188 237 286 335 0
-42 10872 0
-91 10873 0
-10872 10873 0
-91 -10872 0
-140 10874 0
-10873 10874 0
-140 -10873 0
-189 10875 0
-10874 10875 0
-189 -10874 0
-238 10876 0
-10875 10876 0
-238 -10875 0
-287 10877 0
-10876 10877 0
-287 -10876 0
-336 -10877 0
42 91 140 189 238 287 336 0
-10879 43 0
-43 10879 0
-10880 92 0
-92 10880 0
-10881 141 0
-141 10881 0
-10882 190 0
-190 10882 0
-10883 239 0
-239 10883 0
-10884 288 0
-288 10884 0
-10885 337 0
-337 10885 0
-10879 10886 0
-10880 10887 0
-10886 10887 0
-10880 -10886 0
-10881 10888 0
-10887 10888 0
-10881 -10887 0
-10882 10889 0
-10888 10889 0
-10882 -10888 0
-10883 10890 0
-10889 10890 0
-10883 -10889 0
-10884 10891 0
-10890 10891 0
-10884 -10890 0
-10885 -10891 0
-10893 43 44 0
-43 10893 0
-44 10893 0
-10894 92 93 0
-92 10894 0
-93 10894 0
-10895 141 142 0
-141 10895 0
-142 10895 0
-10896 190 191 0
-190 10896 0
-191 10896 0
-10897 239 240 0
-239 10897 0
-240 10897 0
-10898 288 289 0
-288 10898 0
-289 10898 0
-10899 337 338 0
-337 10899 0
-338 10899 0
-10893 10900 0
-10901 0
-10894 10902 0
-10900 10902 0
-10894 -10900 10903 0
-10901 10903 0
-10894 -10901 0
-10895 10904 0
-10902 10904 0
-10895 -10902 10905 0
-10903 10905 0
-10895 -10903 0
-10896 10906 0
-10904 10906 0
-10896 -10904 10907 0
-10905 10907 0
-10896 -10905 0
-10897 10908 0
-10906 10908 0
-10897 -10906 10909 0
-10907 10909 0
-10897 -10907 0
-10898 10910 0
-10908 10910 0
-10898 -10908 10911 0
-10909 10911 0
-10898 -10909 0
-10899 -10911 0
-10914 43 44 45 0
-43 10914 0
-44 10914 0
-45 10914 0
-10915 92 93 94 0
-92 10915 0
-93 10915 0
-94 10915 0
-10916 141 142 143 0
-141 10916 0
-142 10916 0
-143 10916 0
-10917 190 191 192 0
-190 10917 0
-191 10917 0
-192 10917 0
-10918 239 240 241 0
-239 10918 0
-240 10918 0
-241 10918 0
-10919 288 289 290 0
-288 10919 0
-289 10919 0
-290 10919 0
-10920 337 338 339 0
-337 10920 0
-338 10920 0
-339 10920 0
-10914 10921 0
-10922 0
-10923 0
-10915 10924 0
-10921 10924 0
-10915 -10921 10925 0
-10922 10925 0
-10915 -10922 10926 0
-10923 10926 0
-10915 -10923 0
-10916 10927 0
-10924 10927 0
-10916 -10924 10928 0
-10925 10928 0
-10916 -10925 10929 0
-10926 10929 0
-10916 -10926 0
-10917 10930 0
-10927 10930 0
-10917 -10927 10931 0
-10928 10931 0
-10917 -10928 10932 0
-10929 10932 0
-10917 -10929 0
-10918 10933 0
-10930 10933 0
-10918 -10930 10934 0
-10931 10934 0
-10918 -10931 10935 0
-10932 10935 0
-10918 -10932 0
-10919 10936 0
-10933 10936 0
-10919 -10933 10937 0
-10934 10937 0
-10919 -10934 10938 0
-10935 10938 0
-10919 -10935 0
-10920 -10938 0
-10942 43 44 45 46 0
-43 10942 0
-44 10942 0
-45 10942 0
-46 10942 0
-10943 92 93 94 95 0
-92 10943 0
-93 10943 0
-94 10943 0
-95 10943 0
-10944 141 142 143 144 0
-141 10944 0
-142 10944 0
-143 10944 0
-144 10944 0
-10945 190 191 192 193 0
-190 10945 0
-191 10945 0
-192 10945 0
-193 10945 0
-10946 239 240 241 242 0
-239 10946 0
-240 10946 0
-241 10946 0
-242 10946 0
-10947 288 289 290 291 0
-288 10947 0
-289 10947 0
-290 10947 0
-291 10947 0
-10948 337 338 339 340 0
-337 10948 0
-338 10948 0
-339 10948 0
-340 10948 0
-10942 10949 0
-10950 0
-10951 0
-10952 0
-10943 10953 0
-10949 10953 0
-10943 -10949 10954 0
-10950 10954 0
-10943 -10950 10955 0
-10951 10955 0
-10943 -10951 10956 0
-10952 10956 0
-10943 -10952 0
-10944 10957 0
-10953 10957 0
-10944 -10953 10958 0
-10954 10958 0
-10944 -10954 10959 0
-10955 10959 0
-10944 -10955 10960 0
-10956 10960 0
-10944 -10956 0
-10945 10961 0
-10957 10961 0
-10945 -10957 10962 0
-10958 10962 0
-10945 -10958 10963 0
-10959 10963 0
-10945 -10959 10964 0
-10960 10964 0
-10945 -10960 0
-10946 10965 0
-10961 10965 0
-10946 -10961 10966 0
-10962 10966 0
-10946 -10962 10967 0
-10963 10967 0
-10946 -10963 10968 0
-10964 10968 0
-10946 -10964 0
-10947 10969 0
-10965 10969 0
-10947 -10965 10970 0
-10966 10970 0
-10947 -10966 10971 0
-10967 10971 0
-10947 -10967 10972 0
-10968 10972 0
-10947 -10968 0
-10948 -10972 0
-10977 43 44 45 46 47 0
-43 10977 0
-44 10977 0
-45 10977 0
-46 10977 0
-47 10977 0
-10978 92 93 94 95 96 0
-92 10978 0
-93 10978 0
-94 10978 0
-95 10978 0
-96 10978 0
-10979 141 142 143 144 145 0
-141 10979 0
-142 10979 0
-143 10979 0
-144 10979 0
-145 10979 0
-10980 190 191 192 193 194 0
-190 10980 0
-191 10980 0
-192 10980 0
-193 10980 0
-194 10980 0
-10981 239 240 241 242 243 0
-239 10981 0
-240 10981 0
-241 10981 0
-242 10981 0
-243 10981 0
-10982 288 289 290 291 292 0
-288 10982 0
-289 10982 0
-290 10982 0
-291 10982 0
-292 10982 0
-10983 337 338 339 340 341 0
-337 10983 0
-338 10983 0
-339 10983 0
-340 10983 0
-341 10983 0
-10977 10984 0
-10985 0
-10986 0
-10987 0
-10988 0
-10978 10989 0
-10984 10989 0
-10978 -10984 10990 0
-10985 10990 0
-10978 -10985 10991 0
-10986 10991 0
-10978 -10986 10992 0
-10987 10992 0
-10978 -10987 10993 0
-10988 10993 0
-10978 -10988 0
-10979 10994 0
-10989 10994 0
-10979 -10989 10995 0
-10990 10995 0
-10979 -10990 10996 0
-10991 10996 0
-10979 -10991 10997 0
-10992 10997 0
-10979 -10992 10998 0
-10993 10998 0
-10979 -10993 0
-10980 10999 0
-10994 10999 0
-10980 -10994 11000 0
-10995 11000 0
-10980 -10995 11001 0
-10996 11001 0
-10980 -10996 11002 0
-10997 11002 0
-10980 -10997 11003 0
-10998 11003 0
-10980 -10998 0
-10981 11004 0
-10999 11004 0
-10981 -10999 11005 0
-11000 11005 0
-10981 -11000 11006 0
-11001 11006 0
-10981 -11001 11007 0
-11002 11007 0
-10981 -11002 11008 0
-11003 11008 0
-10981 -11003 0
-10982 11009 0
-11004 11009 0
-10982 -11004 11010 0
-11005 11010 0
-10982 -11005 11011 0
-11006 11011 0
-10982 -11006 11012 0
-11007 11012 0
-10982 -11007 11013 0
-11008 11013 0
-10982 -11008 0
-10983 -11013 0
-11019 43 44 45 46 47 48 0
-43 11019 0
-44 11019 0
-45 11019 0
-46 11019 0
-47 11019 0
-48 11019 0
-11020 92 93 94 95 96 97 0
-92 11020 0
-93 11020 0
-94 11020 0
-95 11020 0
-96 11020 0
-97 11020 0
-11021 141 142 143 144 145 146 0
-141 11021 0
-142 11021 0
-143 11021 0
-144 11021 0
-145 11021 0
-146 11021 0
-11022 190 191 192 193 194 195 0
-190 11022 0
-191 11022 0
-192 11022 0
-193 11022 0
-194 11022 0
-195 11022 0
-11023 239 240 241 242 243 244 0
-239 11023 0
-240 11023 0
-241 11023 0
-242 11023 0
-243 11023 0
-244 11023 0
-11024 288 289 290 291 292 293 0
-288 11024 0
-289 11024 0
-290 11024 0
-291 11024 0
-292 11024 0
-293 11024 0
-11025 337 338 339 340 341 342 0
-337 11025 0
-338 11025 0
-339 11025 0
-340 11025 0
-341 11025 0
-342 11025 0
-11019 11026 0
-11027 0
-11028 0
-11029 0
-11030 0
-11031 0
-11020 11032 0
-11026 11032 0
-11020 -11026 11033 0
-11027 11033 0
-11020 -11027 11034 0
-11028 11034 0
-11020 -11028 11035 0
-11029 11035 0
-11020 -11029 11036 0
-11030 11036 0
-11020 -11030 11037 0
-11031 11037 0
-11020 -11031 0
-11021 11038 0
-11032 11038 0
-11021 -11032 11039 0
-11033 11039 0
-11021 -11033 11040 0
-11034 11040 0
-11021 -11034 11041 0
-11035 11041 0
-11021 -11035 11042 0
-11036 11042 0
-11021 -11036 11043 0
-11037 11043 0
-11021 -11037 0
-11022 11044 0
-11038 11044 0
-11022 -11038 11045 0
-11039 11045 0
-11022 -11039 11046 0
-11040 11046 0
-11022 -11040 11047 0
-11041 11047 0
-11022 -11041 11048 0
-11042 11048 0
-11022 -11042 11049 0
-11043 11049 0
-11022 -11043 0
-11023 11050 0
-11044 11050 0
-11023 -11044 11051 0
-11045 11051 0
-11023 -11045 11052 0
-11046 11052 0
-11023 -11046 11053 0
-11047 11053 0
-11023 -11047 11054 0
-11048 11054 0
-11023 -11048 11055 0
-11049 11055 0
-11023 -11049 0
-11024 11056 0
-11050 11056 0
-11024 -11050 11057 0
-11051 11057 0
-11024 -11051 11058 0
-11052 11058 0
-11024 -11052 11059 0
-11053 11059 0
-11024 -11053 11060 0
-11054 11060 0
-11024 -11054 11061 0
-11055 11061 0
-11024 -11055 0
-11025 -11061 0
-11068 43 44 45 46 47 48 49 0
-43 11068 0
-44 11068 0
-45 11068 0
-46 11068 0
-47 11068 0
-48 11068 0
-49 11068 0
-11069 92 93 94 95 96 97 98 0
-92 11069 0
-93 11069 0
-94 11069 0
-95 11069 0
-96 11069 0
-97 11069 0
-98 11069 0
-11070 141 142 143 144 145 146 147 0
-141 11070 0
-142 11070 0
-143 11070 0
-144 11070 0
-145 11070 0
-146 11070 0
-147 11070 0
-11071 190 191 192 193 194 195 196 0
-190 11071 0
-191 11071 0
-192 11071 0
-193 11071 0
-194 11071 0
-195 11071 0
-196 11071 0
-11072 239 240 241 242 243 244 245 0
-239 11072 0
-240 11072 0
-241 11072 0
-242 11072 0
-243 11072 0
-244 11072 0
-245 11072 0
-11073 288 289 290 291 292 293 294 0
-288 11073 0
-289 11073 0
-290 11073 0
-291 11073 0
-292 11073 0
-293 11073 0
-294 11073 0
-11074 337 338 339 340 341 342 343 0
-337 11074 0
-338 11074 0
-339 11074 0
-340 11074 0
-341 11074 0
-342 11074 0
-343 11074 0
-11075 44 0
-44 11075 0
-11076 93 0
-93 11076 0
-11077 142 0
-142 11077 0
-11078 191 0
-191 11078 0
-11079 240 0
-240 11079 0
-11080 289 0
-289 11080 0
-11081 338 0
-338 11081 0
-11075 11082 0
-11076 11083 0
-11082 11083 0
-11076 -11082 0
-11077 11084 0
-11083 11084 0
-11077 -11083 0
-11078 11085 0
-11084 11085 0
-11078 -11084 0
-11079 11086 0
-11085 11086 0
-11079 -11085 0
-11080 11087 0
-11086 11087 0
-11080 -11086 0
-11081 -11087 0
-11089 44 45 0
-44 11089 0
-45 11089 0
-11090 93 94 0
-93 11090 0
-94 11090 0
-11091 142 143 0
-142 11091 0
-143 11091 0
-11092 191 192 0
-191 11092 0
-192 11092 0
-11093 240 241 0
-240 11093 0
-241 11093 0
-11094 289 290 0
-289 11094 0
-290 11094 0
-11095 338 339 0
-338 11095 0
-339 11095 0
-11089 11096 0
-11097 0
-11090 11098 0
-11096 11098 0
-11090 -11096 11099 0
-11097 11099 0
-11090 -11097 0
-11091 11100 0
-11098 11100 0
-11091 -11098 11101 0
-11099 11101 0
-11091 -11099 0
-11092 11102 0
-11100 11102 0
-11092 -11100 11103 0
-11101 11103 0
-11092 -11101 0
-11093 11104 0
-11102 11104 0
-11093 -11102 11105 0
-11103 11105 0
-11093 -11103 0
-11094 11106 0
-11104 11106 0
-11094 -11104 11107 0
-11105 11107 0
-11094 -11105 0
-11095 -11107 0
-11110 44 45 46 0
-44 11110 0
-45 11110 0
-46 11110 0
-11111 93 94 95 0
-93 11111 0
-94 11111 0
-95 11111 0
-11112 142 143 144 0
-142 11112 0
-143 11112 0
-144 11112 0
-11113 191 192 193 0
-191 11113 0
-192 11113 0
-193 11113 0
-11114 240 241 242 0
-240 11114 0
-241 11114 0
-242 11114 0
-11115 289 290 291 0
-289 11115 0
-290 11115 0
-291 11115 0
-11116 338 339 340 0
-338 11116 0
-339 11116 0
-340 11116 0
-11110 11117 0
-11118 0
-11119 0
-11111 11120 0
-11117 11120 0
-11111 -11117 11121 0
-11118 11121 0
-11111 -11118 11122 0
-11119 11122 0
-11111 -11119 0
-11112 11123 0
-11120 11123 0
-11112 -11120 11124 0
-11121 11124 0
-11112 -11121 11125 0
-11122 11125 0
-11112 -11122 0
-11113 11126 0
-11123 11126 0
-11113 -11123 11127 0
-11124 11127 0
-11113 -11124 11128 0
-11125 11128 0
-11113 -11125 0
-11114 11129 0
-11126 11129 0
-11114 -11126 11130 0
-11127 11130 0
-11114 -11127 11131 0
-11128 11131 0
-11114 -11128 0
-11115 11132 0
-11129 11132 0
-11115 -11129 11133 0
-11130 11133 0
-11115 -11130 11134 0
-11131 11134 0
-11115 -11131 0
-11116 -11134 0
-11138 44 45 46 47 0
-44 11138 0
-45 11138 0
-46 11138 0
-47 11138 0
-11139 93 94 95 96 0
-93 11139 0
-94 11139 0
-95 11139 0
-96 11139 0
-11140 142 143 144 145 0
-142 11140 0
-143 11140 0
-144 11140 0
-145 11140 0
-11141 191 192 193 194 0
-191 11141 0
-192 11141 0
-193 11141 0
-194 11141 0
-11142 240 241 242 243 0
-240 11142 0
-241 11142 0
-242 11142 0
-243 11142 0
-11143 289 290 291 292 0
-289 11143 0
-290 11143 0
-291 11143 0
-292 11143 0
-11144 338 339 340 341 0
-338 11144 0
-339 11144 0
-340 11144 0
-341 11144 0
-11138 11145 0
-11146 0
-11147 0
-11148 0
-11139 11149 0
-11145 11149 0
-11139 -11145 11150 0
-11146 11150 0
-11139 -11146 11151 0
-11147 11151 0
-11139 -11147 11152 0
-11148 11152 0
-11139 -11148 0
-11140 11153 0
-11149 11153 0
-11140 -11149 11154 0
-11150 11154 0
-11140 -11150 11155 0
-11151 11155 0
-11140 -11151 11156 0
-11152 11156 0
-11140 -11152 0
-11141 11157 0
-11153 11157 0
-11141 -11153 11158 0
-11154 11158 0
-11141 -11154 11159 0
-11155 11159 0
-11141 -11155 11160 0
-11156 11160 0
-11141 -11156 0
-11142 11161 0
-11157 11161 0
-11142 -11157 11162 0
-11158 11162 0
-11142 -11158 11163 0
-11159 11163 0
-11142 -11159 11164 0
-11160 11164 0
-11142 -11160 0
-11143 11165 0
-11161 11165 0
-11143 -11161 11166 0
-11162 11166 0
-11143 -11162 11167 0
-11163 11167 0
-11143 -11163 11168 0
-11164 11168 0
-11143 -11164 0
-11144 -11168 0
-11173 44 45 46 47 48 0
-44 11173 0
-45 11173 0
-46 11173 0
-47 11173 0
-48 11173 0
-11174 93 94 95 96 97 0
-93 11174 0
-94 11174 0
-95 11174 0
-96 11174 0
-97 11174 0
-11175 142 143 144 145 146 0
-142 11175 0
-143 11175 0
-144 11175 0
-145 11175 0
-146 11175 0
-11176 191 192 193 194 195 0
-191 11176 0
-192 11176 0
-193 11176 0
-194 11176 0
-195 11176 0
-11177 240 241 242 243 244 0
-240 11177 0
-241 11177 0
-242 11177 0
-243 11177 0
-244 11177 0
-11178 289 290 291 292 293 0
-289 11178 0
-290 11178 0
-291 11178 0
-292 11178 0
-293 11178 0
-11179 338 339 340 341 342 0
-338 11179 0
-339 11179 0
-340 11179 0
-341 11179 0
-342 11179 0
-11173 11180 0
-11181 0
-11182 0
-11183 0
-11184 0
-11174 11185 0
-11180 11185 0
-11174 -11180 11186 0
-11181 11186 0
-11174 -11181 11187 0
-11182 11187 0
-11174 -11182 11188 0
-11183 11188 0
-11174 -11183 11189 0
-11184 11189 0
-11174 -11184 0
-11175 11190 0
-11185 11190 0
-11175 -11185 11191 0
-11186 11191 0
-11175 -11186 11192 0
-11187 11192 0
-11175 -11187 11193 0
-11188 11193 0
-11175 -11188 11194 0
-11189 11194 0
-11175 -11189 0
-11176 11195 0
-11190 11195 0
-11176 -11190 11196 0
-11191 11196 0
-11176 -11191 11197 0
-11192 11197 0
-11176 -11192 11198 0
-11193 11198 0
-11176 -11193 11199 0
-11194 11199 0
-11176 -11194 0
-11177 11200 0
-11195 11200 0
-11177 -11195 11201 0
-11196 11201 0
-11177 -11196 11202 0
-11197 11202 0
-11177 -11197 11203 0
-11198 11203 0
-11177 -11198 11204 0
-11199 11204 0
-11177 -11199 0
-11178 11205 0
-11200 11205 0
-11178 -11200 11206 0
-11201 11206 0
-11178 -11201 11207 0
-11202 11207 0
-11178 -11202 11208 0
-11203 11208 0
-11178 -11203 11209 0
-11204 11209 0
-11178 -11204 0
-11179 -11209 0
-11215 44 45 46 47 48 49 0
-44 11215 0
-45 11215 0
-46 11215 0
-47 11215 0
-48 11215 0
-49 11215 0
-11216 93 94 95 96 97 98 0
-93 11216 0
-94 11216 0
-95 11216 0
-96 11216 0
-97 11216 0
-98 11216 0
-11217 142 143 144 145 146 147 0
-142 11217 0
-143 11217 0
-144 11217 0
-145 11217 0
-146 11217 0
-147 11217 0
-11218 191 192 193 194 195 196 0
-191 11218 0
-192 11218 0
-193 11218 0
-194 11218 0
-195 11218 0
-196 11218 0
-11219 240 241 242 243 244 245 0
-240 11219 0
-241 11219 0
-242 11219 0
-243 11219 0
-244 11219 0
-245 11219 0
-11220 289 290 291 292 293 294 0
-289 11220 0
-290 11220 0
-291 11220 0
-292 11220 0
-293 11220 0
-294 11220 0
-11221 338 339 340 341 342 343 0
-338 11221 0
-339 11221 0
-340 11221 0
-341 11221 0
-342 11221 0
-343 11221 0
-11215 11222 0
-11223 0
-11224 0
-11225 0
-11226 0
-11227 0
-11216 11228 0
-11222 11228 0
-11216 -11222 11229 0
-11223 11229 0
-11216 -11223 11230 0
-11224 11230 0
-11216 -11224 11231 0
-11225 11231 0
-11216 -11225 11232 0
-11226 11232 0
-11216 -11226 11233 0
-11227 11233 0
-11216 -11227 0
-11217 11234 0
-11228 11234 0
-11217 -11228 11235 0
-11229 11235 0
-11217 -11229 11236 0
-11230 11236 0
-11217 -11230 11237 0
-11231 11237 0
-11217 -11231 11238 0
-11232 11238 0
-11217 -11232 11239 0
-11233 11239 0
-11217 -11233 0
-11218 11240 0
-11234 11240 0
-11218 -11234 11241 0
-11235 11241 0
-11218 -11235 11242 0
-11236 11242 0
-11218 -11236 11243 0
-11237 11243 0
-11218 -11237 11244 0
-11238 11244 0
-11218 -11238 11245 0
-11239 11245 0
-11218 -11239 0
-11219 11246 0
-11240 11246 0
-11219 -11240 11247 0
-11241 11247 0
-11219 -11241 11248 0
-11242 11248 0
-11219 -11242 11249 0
-11243 11249 0
-11219 -11243 11250 0
-11244 11250 0
-11219 -11244 11251 0
-11245 11251 0
-11219 -11245 0
-11220 11252 0
-11246 11252 0
-11220 -11246 11253 0
-11247 11253 0
-11220 -11247 11254 0
-11248 11254 0
-11220 -11248 11255 0
-11249 11255 0
-11220 -11249 11256 0
-11250 11256 0
-11220 -11250 11257 0
-11251 11257 0
-11220 -11251 0
-11221 -11257 0
-11264 45 0
-45 11264 0
-11265 94 0
-94 11265 0
-11266 143 0
-143 11266 0
-11267 192 0
-192 11267 0
-11268 241 0
-241 11268 0
-11269 290 0
-290 11269 0
-11270 339 0
-339 11270 0
-11264 11271 0
-11265 11272 0
-11271 11272 0
-11265 -11271 0
-11266 11273 0
-11272 11273 0
-11266 -11272 0
-11267 11274 0
-11273 11274 0
-11267 -11273 0
-11268 11275 0
-11274 11275 0
-11268 -11274 0
-11269 11276 0
-11275 11276 0
-11269 -11275 0
-11270 -11276 0
-11278 45 46 0
-45 11278 0
-46 11278 0
-11279 94 95 0
-94 11279 0
-95 11279 0
-11280 143 144 0
-143 11280 0
-144 11280 0
-11281 192 193 0
-192 11281 0
-193 11281 0
-11282 241 242 0
-241 11282 0
-242 11282 0
-11283 290 291 0
-290 11283 0
-291 11283 0
-11284 339 340 0
-339 11284 0
-340 11284 0
-11278 11285 0
-11286 0
-11279 11287 0
-11285 11287 0
-11279 -11285 11288 0
-11286 11288 0
-11279 -11286 0
-11280 11289 0
-11287 11289 0
-11280 -11287 11290 0
-11288 11290 0
-11280 -11288 0
-11281 11291 0
-11289 11291 0
-11281 -11289 11292 0
-11290 11292 0
-11281 -11290 0
-11282 11293 0
-11291 11293 0
-11282 -11291 11294 0
-11292 11294 0
-11282 -11292 0
-11283 11295 0
-11293 11295 0
-11283 -11293 11296 0
-11294 11296 0
-11283 -11294 0
-11284 -11296 0
-11299 45 46 47 0
-45 11299 0
-46 11299 0
-47 11299 0
-11300 94 95 96 0
-94 11300 0
-95 11300 0
-96 11300 0
-11301 143 144 145 0
-143 11301 0
-144 11301 0
-145 11301 0
-11302 192 193 194 0
-192 11302 0
-193 11302 0
-194 11302 0
-11303 241 242 243 0
-241 11303 0
-242 11303 0
-243 11303 0
-11304 290 291 292 0
-290 11304 0
-291 11304 0
-292 11304 0
-11305 339 340 341 0
-339 11305 0
-340 11305 0
-341 11305 0
-11299 11306 0
-11307 0
-11308 0
-11300 11309 0
-11306 11309 0
-11300 -11306 11310 0
-11307 11310 0
-11300 -11307 11311 0
-11308 11311 0
-11300 -11308 0
-11301 11312 0
-11309 11312 0
-11301 -11309 11313 0
-11310 11313 0
-11301 -11310 11314 0
-11311 11314 0
-11301 -11311 0
-11302 11315 0
-11312 11315 0
-11302 -11312 11316 0
-11313 11316 0
-11302 -11313 11317 0
-11314 11317 0
-11302 -11314 0
-11303 11318 0
-11315 11318 0
-11303 -11315 11319 0
-11316 11319 0
-11303 -11316 11320 0
-11317 11320 0
-11303 -11317 0
-11304 11321 0
-11318 11321 0
-11304 -11318 11322 0
-11319 11322 0
-11304 -11319 11323 0
-11320 11323 0
-11304 -11320 0
-11305 -11323 0
-11327 45 46 47 48 0
-45 11327 0
-46 11327 0
-47 11327 0
-48 11327 0
-11328 94 95 96 97 0
-94 11328 0
-95 11328 0
-96 11328 0
-97 11328 0
-11329 143 144 145 146 0
-143 11329 0
-144 11329 0
-145 11329 0
-146 11329 0
-11330 192 193 194 195 0
-192 11330 0
-193 11330 0
-194 11330 0
-195 11330 0
-11331 241 242 243 244 0
-241 11331 0
-242 11331 0
-243 11331 0
-244 11331 0
-11332 290 291 292 293 0
-290 11332 0
-291 11332 0
-292 11332 0
-293 11332 0
-11333 339 340 341 342 0
-339 11333 0
-340 11333 0
-341 11333 0
-342 11333 0
-11327 11334 0
-11335 0
-11336 0
-11337 0
-11328 11338 0
-11334 11338 0
-11328 -11334 11339 0
-11335 11339 0
-11328 -11335 11340 0
-11336 11340 0
-11328 -11336 11341 0
-11337 11341 0
-11328 -11337 0
-11329 11342 0
-11338 11342 0
-11329 -11338 11343 0
-11339 11343 0
-11329 -11339 11344 0
-11340 11344 0
-11329 -11340 11345 0
-11341 11345 0
-11329 -11341 0
-11330 11346 0
-11342 11346 0
-11330 -11342 11347 0
-11343 11347 0
-11330 -11343 11348 0
-11344 11348 0
-11330 -11344 11349 0
-11345 11349 0
-11330 -11345 0
-11331 11350 0
-11346 11350 0
-11331 -11346 11351 0
-11347 11351 0
-11331 -11347 11352 0
-11348 11352 0
-11331 -11348 11353 0
-11349 11353 0
-11331 -11349 0
-11332 11354 0
-11350 11354 0
-11332 -11350 11355 0
-11351 11355 0
-11332 -11351 11356 0
-11352 11356 0
-11332 -11352 11357 0
-11353 11357 0
-11332 -11353 0
-11333 -11357 0
-11362 45 46 47 48 49 0
-45 11362 0
-46 11362 0
-47 11362 0
-48 11362 0
-49 11362 0
-11363 94 95 96 97 98 0
-94 11363 0
-95 11363 0
-96 11363 0
-97 11363 0
-98 11363 0
-11364 143 144 145 146 147 0
-143 11364 0
-144 11364 0
-145 11364 0
-146 11364 0
-147 11364 0
-11365 192 193 194 195 196 0
-192 11365 0
-193 11365 0
-194 11365 0
-195 11365 0
-196 11365 0
-11366 241 242 243 244 245 0
-241 11366 0
-242 11366 0
-243 11366 0
-244 11366 0
-245 11366 0
-11367 290 291 292 293 294 0
-290 11367 0
-291 11367 0
-292 11367 0
-293 11367 0
-294 11367 0
-11368 339 340 341 342 343 0
-339 11368 0
-340 11368 0
-341 11368 0
-342 11368 0
-343 11368 0
-11362 11369 0
-11370 0
-11371 0
-11372 0
-11373 0
-11363 11374 0
-11369 11374 0
-11363 -11369 11375 0
-11370 11375 0
-11363 -11370 11376 0
-11371 11376 0
-11363 -11371 11377 0
-11372 11377 0
-11363 -11372 11378 0
-11373 11378 0
-11363 -11373 0
-11364 11379 0
-11374 11379 0
-11364 -11374 11380 0
-11375 11380 0
-11364 -11375 11381 0
-11376 11381 0
-11364 -11376 11382 0
-11377 11382 0
-11364 -11377 11383 0
-11378 11383 0
-11364 -11378 0
-11365 11384 0
-11379 11384 0
-11365 -11379 11385 0
-11380 11385 0
-11365 -11380 11386 0
-11381 11386 0
-11365 -11381 11387 0
-11382 11387 0
-11365 -11382 11388 0
-11383 11388 0
-11365 -11383 0
-11366 11389 0
-11384 11389 0
-11366 -11384 11390 0
-11385 11390 0
-11366 -11385 11391 0
-11386 11391 0
-11366 -11386 11392 0
-11387 11392 0
-11366 -11387 11393 0
-11388 11393 0
-11366 -11388 0
-11367 11394 0
-11389 11394 0
-11367 -11389 11395 0
-11390 11395 0
-11367 -11390 11396 0
-11391 11396 0
-11367 -11391 11397 0
-11392 11397 0
-11367 -11392 11398 0
-11393 11398 0
-11367 -11393 0
-11368 -11398 0
-11404 46 0
-46 11404 0
-11405 95 0
-95 11405 0
-11406 144 0
-144 11406 0
-11407 193 0
-193 11407 0
-11408 242 0
-242 11408 0
-11409 291 0
-291 11409 0
-11410 340 0
-340 11410 0
-11404 11411 0
-11405 11412 0
-11411 11412 0
-11405 -11411 0
-11406 11413 0
-11412 11413 0
-11406 -11412 0
-11407 11414 0
-11413 11414 0
-11407 -11413 0
-11408 11415 0
-11414 11415 0
-11408 -11414 0
-11409 11416 0
-11415 11416 0
-11409 -11415 0
-11410 -11416 0
-11418 46 47 0
-46 11418 0
-47 11418 0
-11419 95 96 0
-95 11419 0
-96 11419 0
-11420 144 145 0
-144 11420 0
-145 11420 0
-11421 193 194 0
-193 11421 0
-194 11421 0
-11422 242 243 0
-242 11422 0
-243 11422 0
-11423 291 292 0
-291 11423 0
-292 11423 0
-11424 340 341 0
-340 11424 0
-341 11424 0
-11418 11425 0
-11426 0
-11419 11427 0
-11425 11427 0
-11419 -11425 11428 0
-11426 11428 0
-11419 -11426 0
-11420 11429 0
-11427 11429 0
-11420 -11427 11430 0
-11428 11430 0
-11420 -11428 0
-11421 11431 0
-11429 11431 0
-11421 -11429 11432 0
-11430 11432 0
-11421 -11430 0
-11422 11433 0
-11431 11433 0
-11422 -11431 11434 0
-11432 11434 0
-11422 -11432 0
-11423 11435 0
-11433 11435 0
-11423 -11433 11436 0
-11434 11436 0
-11423 -11434 0
-11424 -11436 0
-11439 46 47 48 0
-46 11439 0
-47 11439 0
-48 11439 0
-11440 95 96 97 0
-95 11440 0
-96 11440 0
-97 11440 0
-11441 144 145 146 0
-144 11441 0
-145 11441 0
-146 11441 0
-11442 193 194 195 0
-193 11442 0
-194 11442 0
-195 11442 0
-11443 242 243 244 0
-242 11443 0
-243 11443 0
-244 11443 0
-11444 291 292 293 0
-291 11444 0
-292 11444 0
-293 11444 0
-11445 340 341 342 0
-340 11445 0
-341 11445 0
-342 11445 0
-11439 11446 0
-11447 0
-11448 0
-11440 11449 0
-11446 11449 0
-11440 -11446 11450 0
-11447 11450 0
-11440 -11447 11451 0
-11448 11451 0
-11440 -11448 0
-11441 11452 0
-11449 11452 0
-11441 -11449 11453 0
-11450 11453 0
-11441 -11450 11454 0
-11451 11454 0
-11441 -11451 0
-11442 11455 0
-11452 11455 0
-11442 -11452 11456 0
-11453 11456 0
-11442 -11453 11457 0
-11454 11457 0
-11442 -11454 0
-11443 11458 0
-11455 11458 0
-11443 -11455 11459 0
-11456 11459 0
-11443 -11456 11460 0
-11457 11460 0
-11443 -11457 0
-11444 11461 0
-11458 11461 0
-11444 -11458 11462 0
-11459 11462 0
-11444 -11459 11463 0
-11460 11463 0
-11444 -11460 0
-11445 -11463 0
-11467 46 47 48 49 0
-46 11467 0
-47 11467 0
-48 11467 0
-49 11467 0
-11468 95 96 97 98 0
-95 11468 0
-96 11468 0
-97 11468 0
-98 11468 0
-11469 144 145 146 147 0
-144 11469 0
-145 11469 0
-146 11469 0
-147 11469 0
-11470 193 194 195 196 0
-193 11470 0
-194 11470 0
-195 11470 0
-196 11470 0
-11471 242 243 244 245 0
-242 11471 0
-243 11471 0
-244 11471 0
-245 11471 0
-11472 291 292 293 294 0
-291 11472 0
-292 11472 0
-293 11472 0
-294 11472 0
-11473 340 341 342 343 0
-340 11473 0
-341 11473 0
-342 11473 0
-343 11473 0
-11467 11474 0
-11475 0
-11476 0
-11477 0
-11468 11478 0
-11474 11478 0
-11468 -11474 11479 0
-11475 11479 0
-11468 -11475 11480 0
-11476 11480 0
-11468 -11476 11481 0
-11477 11481 0
-11468 -11477 0
-11469 11482 0
-11478 11482 0
-11469 -11478 11483 0
-11479 11483 0
-11469 -11479 11484 0
-11480 11484 0
-11469 -11480 11485 0
-11481 11485 0
-11469 -11481 0
-11470 11486 0
-11482 11486 0
-11470 -11482 11487 0
-11483 11487 0
-11470 -11483 11488 0
-11484 11488 0
-11470 -11484 11489 0
-11485 11489 0
-11470 -11485 0
-11471 11490 0
-11486 11490 0
-11471 -11486 11491 0
-11487 11491 0
-11471 -11487 11492 0
-11488 11492 0
-11471 -11488 11493 0
-11489 11493 0
-11471 -11489 0
-11472 11494 0
-11490 11494 0
-11472 -11490 11495 0
-11491 11495 0
-11472 -11491 11496 0
-11492 11496 0
-11472 -11492 11497 0
-11493 11497 0
-11472 -11493 0
-11473 -11497 0
-11502 47 0
-47 11502 0
-11503 96 0
-96 11503 0
-11504 145 0
-145 11504 0
-11505 194 0
-194 11505 0
-11506 243 0
-243 11506 0
-11507 292 0
-292 11507 0
-11508 341 0
-341 11508 0
-11502 11509 0
-11503 11510 0
-11509 11510 0
-11503 -11509 0
-11504 11511 0
-11510 11511 0
-11504 -11510 0
-11505 11512 0
-11511 11512 0
-11505 -11511 0
-11506 11513 0
-11512 11513 0
-11506 -11512 0
-11507 11514 0
-11513 11514 0
-11507 -11513 0
-11508 -11514 0
-11516 47 48 0
-47 11516 0
-48 11516 0
-11517 96 97 0
-96 11517 0
-97 11517 0
-11518 145 146 0
-145 11518 0
-146 11518 0
-11519 194 195 0
-194 11519 0
-195 11519 0
-11520 243 244 0
-243 11520 0
-244 11520 0
-11521 292 293 0
-292 11521 0
-293 11521 0
-11522 341 342 0
-341 11522 0
-342 11522 0
-11516 11523 0
-11524 0
-11517 11525 0
-11523 11525 0
-11517 -11523 11526 0
-11524 11526 0
-11517 -11524 0
-11518 11527 0
-11525 11527 0
-11518 -11525 11528 0
-11526 11528 0
-11518 -11526 0
-11519 11529 0
-11527 11529 0
-11519 -11527 11530 0
-11528 11530 0
-11519 -11528 0
-11520 11531 0
-11529 11531 0
-11520 -11529 11532 0
-11530 11532 0
-11520 -11530 0
-11521 11533 0
-11531 11533 0
-11521 -11531 11534 0
-11532 11534 0
-11521 -11532 0
-11522 -11534 0
-11537 47 48 49 0
-47 11537 0
-48 11537 0
-49 11537 0
-11538 96 97 98 0
-96 11538 0
-97 11538 0
-98 11538 0
-11539 145 146 147 0
-145 11539 0
-146 11539 0
-147 11539 0
-11540 194 195 196 0
-194 11540 0
-195 11540 0
-196 11540 0
-11541 243 244 245 0
-243 11541 0
-244 11541 0
-245 11541 0
-11542 292 293 294 0
-292 11542 0
-293 11542 0
-294 11542 0
-11543 341 342 343 0
-341 11543 0
-342 11543 0
-343 11543 0
-11537 11544 0
-11545 0
-11546 0
-11538 11547 0
-11544 11547 0
-11538 -11544 11548 0
-11545 11548 0
-11538 -11545 11549 0
-11546 11549 0
-11538 -11546 0
-11539 11550 0
-11547 11550 0
-11539 -11547 11551 0
-11548 11551 0
-11539 -11548 11552 0
-11549 11552 0
-11539 -11549 0
-11540 11553 0
-11550 11553 0
-11540 -11550 11554 0
-11551 11554 0
-11540 -11551 11555 0
-11552 11555 0
-11540 -11552 0
-11541 11556 0
-11553 11556 0
-11541 -11553 11557 0
-11554 11557 0
-11541 -11554 11558 0
-11555 11558 0
-11541 -11555 0
-11542 11559 0
-11556 11559 0
-11542 -11556 11560 0
-11557 11560 0
-11542 -11557 11561 0
-11558 11561 0
-11542 -11558 0
-11543 -11561 0
-11565 48 0
-48 11565 0
-11566 97 0
-97 11566 0
-11567 146 0
-146 11567 0
-11568 195 0
-195 11568 0
-11569 244 0
-244 11569 0
-11570 293 0
-293 11570 0
-11571 342 0
-342 11571 0
-11565 11572 0
-11566 11573 0
-11572 11573 0
-11566 -11572 0
-11567 11574 0
-11573 11574 0
-11567 -11573 0
-11568 11575 0
-11574 11575 0
-11568 -11574 0
-11569 11576 0
-11575 11576 0
-11569 -11575 0
-11570 11577 0
-11576 11577 0
-11570 -11576 0
-11571 -11577 0
-11579 48 49 0
-48 11579 0
-49 11579 0
-11580 97 98 0
-97 11580 0
-98 11580 0
-11581 146 147 0
-146 11581 0
-147 11581 0
-11582 195 196 0
-195 11582 0
-196 11582 0
-11583 244 245 0
-244 11583 0
-245 11583 0
-11584 293 294 0
-293 11584 0
-294 11584 0
-11585 342 343 0
-342 11585 0
-343 11585 0
-11579 11586 0
-11587 0
-11580 11588 0
-11586 11588 0
-11580 -11586 11589 0
-11587 11589 0
-11580 -11587 0
-11581 11590 0
-11588 11590 0
-11581 -11588 11591 0
-11589 11591 0
-11581 -11589 0
-11582 11592 0
-11590 11592 0
-11582 -11590 11593 0
-11591 11593 0
-11582 -11591 0
-11583 11594 0
-11592 11594 0
-11583 -11592 11595 0
-11593 11595 0
-11583 -11593 0
-11584 11596 0
-11594 11596 0
-11584 -11594 11597 0
-11595 11597 0
-11584 -11595 0
-11585 -11597 0
-11600 49 0
-49 11600 0
-11601 98 0
-98 11601 0
-11602 147 0
-147 11602 0
-11603 196 0
-196 11603 0
-11604 245 0
-245 11604 0
-11605 294 0
-294 11605 0
-11606 343 0
-343 11606 0
-11600 11607 0
-11601 11608 0
-11607 11608 0
-11601 -11607 0
-11602 11609 0
-11608 11609 0
-11602 -11608 0
-11603 11610 0
-11609 11610 0
-11603 -11609 0
-11604 11611 0
-11610 11611 0
-11604 -11610 0
-11605 11612 0
-11611 11612 0
-11605 -11611 0
-11606 -11612 0
-43 11614 0
-92 11615 0
-11614 11615 0
-92 -11614 0
-141 11616 0
-11615 11616 0
-141 -11615 0
-190 11617 0
-11616 11617 0
-190 -11616 0
-239 11618 0
-11617 11618 0
-239 -11617 0
-288 11619 0
-11618 11619 0
-288 -11618 0
-337 -11619 0
43 92 141 190 239 288 337 0
-44 11621 0
-93 11622 0
-11621 11622 0
-93 -11621 0
-142 11623 0
-11622 11623 0
-142 -11622 0
-191 11624 0
-11623 11624 0
-191 -11623 0
-240 11625 0
-11624 11625 0
-240 -11624 0
-289 11626 0
-11625 11626 0
-289 -11625 0
-338 -11626 0
44 93 142 191 240 289 338 0
-45 11628 0
-94 11629 0
-11628 11629 0
-94 -11628 0
-143 11630 0
-11629 11630 0
-143 -11629 0
-192 11631 0
-11630 11631 0
-192 -11630 0
-241 11632 0
-11631 11632 0
-241 -11631 0
-290 11633 0
-11632 11633 0
-290 -11632 0
-339 -11633 0
45 94 143 192 241 290 339 0
-46 11635 0
-95 11636 0
-11635 11636 0
-95 -11635 0
-144 11637 0
-11636 11637 0
-144 -11636 0
-193 11638 0
-11637 11638 0
-193 -11637 0
-242 11639 0
-11638 11639 0
-242 -11638 0
-291 11640 0
-11639 11640 0
-291 -11639 0
-340 -11640 0
46 95 144 193 242 291 340 0
-47 11642 0
-96 11643 0
-11642 11643 0
-96 -11642 0
-145 11644 0
-11643 11644 0
-145 -11643 0
-194 11645 0
-11644 11645 0
-194 -11644 0
-243 11646 0
-11645 11646 0
-243 -11645 0
-292 11647 0
-11646 11647 0
-292 -11646 0
-341 -11647 0
47 96 145 194 243 292 341 0
-48 11649 0
-97 11650 0
-11649 11650 0
-97 -11649 0
-146 11651 0
-11650 11651 0
-146 -11650 0
-195 11652 0
-11651 11652 0
-195 -11651 0
-244 11653 0
-11652 11653 0
-244 -11652 0
-293 11654 0
-11653 11654 0
-293 -11653 0
-342 -11654 0
48 97 146 195 244 293 342 0
-49 11656 0
-98 11657 0
-11656 11657 0
-98 -11656 0
-147 11658 0
-11657 11658 0
-147 -11657 0
-196 11659 0
-11658 11659 0
-196 -11658 0
-245 11660 0
-11659 11660 0
-245 -11659 0
-294 11661 0
-11660 11661 0
-294 -11660 0
-343 -11661 0
49 98 147 196 245 294 343 0
-11663 36 0
-36 11663 0
-11664 92 0
-92 11664 0
-11663 11665 0
-11664 -11665 0
-11667 36 37 0
-36 11667 0
-37 11667 0
-11668 92 93 0
-92 11668 0
-93 11668 0
-11669 37 0
-37 11669 0
-11670 93 0
-93 11670 0
-11669 11671 0
-11670 -11671 0
-11673 37 38 0
-37 11673 0
-38 11673 0
-11674 93 94 0
-93 11674 0
-94 11674 0
-11675 38 0
-38 11675 0
-11676 94 0
-94 11676 0
-11675 11677 0
-11676 -11677 0
-11679 38 39 0
-38 11679 0
-39 11679 0
-11680 94 95 0
-94 11680 0
-95 11680 0
-11681 39 0
-39 11681 0
-11682 95 0
-95 11682 0
-11681 11683 0
-11682 -11683 0
-11685 39 40 0
-39 11685 0
-40 11685 0
-11686 95 96 0
-95 11686 0
-96 11686 0
-11687 40 0
-40 11687 0
-11688 96 0
-96 11688 0
-11687 11689 0
-11688 -11689 0
-11691 40 41 0
-40 11691 0
-41 11691 0
-11692 96 97 0
-96 11692 0
-97 11692 0
-11693 41 0
-41 11693 0
-11694 97 0
-97 11694 0
-11693 11695 0
-11694 -11695 0
-11697 41 42 0
-41 11697 0
-42 11697 0
-11698 97 98 0
-97 11698 0
-98 11698 0
-11699 42 0
-42 11699 0
-11700 98 0
-98 11700 0
-11699 11701 0
-11700 -11701 0
-11703 11710 0
-11711 0
-11712 0
-11713 0
-11714 0
-11704 11715 0
-11710 11715 0
-11704 -11710 11716 0
-11711 11716 0
-11704 -11711 11717 0
-11712 11717 0
-11704 -11712 11718 0
-11713 11718 0
-11704 -11713 11719 0
-11714 11719 0
-11704 -11714 0
-11705 11720 0
-11715 11720 0
-11705 -11715 11721 0
-11716 11721 0
-11705 -11716 11722 0
-11717 11722 0
-11705 -11717 11723 0
-11718 11723 0
-11705 -11718 11724 0
-11719 11724 0
-11705 -11719 0
-11706 11725 0
-11720 11725 0
-11706 -11720 11726 0
-11721 11726 0
-11706 -11721 11727 0
-11722 11727 0
-11706 -11722 11728 0
-11723 11728 0
-11706 -11723 11729 0
-11724 11729 0
-11706 -11724 0
-11707 11730 0
-11725 11730 0
-11707 -11725 11731 0
-11726 11731 0
-11707 -11726 11732 0
-11727 11732 0
-11707 -11727 11733 0
-11728 11733 0
-11707 -11728 11734 0
-11729 11734 0
-11707 -11729 0
-11708 11735 0
-11730 11735 0
-11708 -11730 11736 0
-11731 11736 0
-11708 -11731 11737 0
-11732 11737 0
-11708 -11732 11738 0
-11733 11738 0
-11708 -11733 11739 0
-11734 11739 0
-11708 -11734 0
-11709 -11739 0
11703 11745 0
-11746 0
11704 11747 0
-11745 11747 0
11704 -11745 11748 0
-11746 11748 0
11704 -11746 0
11705 11749 0
-11747 11749 0
11705 -11747 11750 0
-11748 11750 0
11705 -11748 0
11706 11751 0
-11749 11751 0
11706 -11749 11752 0
-11750 11752 0
11706 -11750 0
11707 11753 0
-11751 11753 0
11707 -11751 11754 0
-11752 11754 0
11707 -11752 0
11708 11755 0
-11753 11755 0
11708 -11753 11756 0
-11754 11756 0
11708 -11754 0
11709 -11756 0
-36 11759 0
-92 11760 0
-11759 11760 0
-92 -11759 0
-11703 -11760 0
36 92 11703 0
-37 11762 0
-93 11763 0
-11762 11763 0
-93 -11762 0
-11704 -11763 0
37 93 11704 0
-38 11765 0
-94 11766 0
-11765 11766 0
-94 -11765 0
-11705 -11766 0
38 94 11705 0
-39 11768 0
-95 11769 0
-11768 11769 0
-95 -11768 0
-11706 -11769 0
39 95 11706 0
-40 11771 0
-96 11772 0
-11771 11772 0
-96 -11771 0
-11707 -11772 0
40 96 11707 0
-41 11774 0
-97 11775 0
-11774 11775 0
-97 -11774 0
-11708 -11775 0
41 97 11708 0
-42 11777 0
-98 11778 0
-11777 11778 0
-98 -11777 0
-11709 -11778 0
42 98 11709 0
-11780 29 0
-29 11780 0
-11781 85 0
-85 11781 0
-11782 141 0
-141 11782 0
-11780 11783 0
-11781 11784 0
-11783 11784 0
-11781 -11783 0
-11782 -11784 0
-11786 29 30 0
-29 11786 0
-30 11786 0
-11787 85 86 0
-85 11787 0
-86 11787 0
-11788 141 142 0
-141 11788 0
-142 11788 0
-11786 11789 0
-11790 0
-11787 11791 0
-11789 11791 0
-11787 -11789 11792 0
-11790 11792 0
-11787 -11790 0
-11788 -11792 0
-11795 29 30 31 0
-29 11795 0
-30 11795 0
-31 11795 0
-11796 85 86 87 0
-85 11796 0
-86 11796 0
-87 11796 0
-11797 141 142 143 0
-141 11797 0
-142 11797 0
-143 11797 0
-11798 30 0
-30 11798 0
-11799 86 0
-86 11799 0
-11800 142 0
-142 11800 0
-11798 11801 0
-11799 11802 0
-11801 11802 0
-11799 -11801 0
-11800 -11802 0
-11804 30 31 0
-30 11804 0
-31 11804 0
-11805 86 87 0
-86 11805 0
-87 11805 0
-11806 142 143 0
-142 11806 0
-143 11806 0
-11804 11807 0
-11808 0
-11805 11809 0
-11807 11809 0
-11805 -11807 11810 0
-11808 11810 0
-11805 -11808 0
-11806 -11810 0
-11813 30 31 32 0
-30 11813 0
-31 11813 0
-32 11813 0
-11814 86 87 88 0
-86 11814 0
-87 11814 0
-88 11814 0
-11815 142 143 144 0
-142 11815 0
-143 11815 0
-144 11815 0
-11816 31 0
-31 11816 0
-11817 87 0
-87 11817 0
-11818 143 0
-143 11818 0
-11816 11819 0
-11817 11820 0
-11819 11820 0
-11817 -11819 0
-11818 -11820 0
-11822 31 32 0
-31 11822 0
-32 11822 0
-11823 87 88 0
-87 11823 0
-88 11823 0
-11824 143 144 0
-143 11824 0
-144 11824 0
-11822 11825 0
-11826 0
-11823 11827 0
-11825 11827 0
-11823 -11825 11828 0
-11826 11828 0
-11823 -11826 0
-11824 -11828 0
-11831 31 32 33 0
-31 11831 0
-32 11831 0
-33 11831 0
-11832 87 88 89 0
-87 11832 0
-88 11832 0
-89 11832 0
-11833 143 144 145 0
-143 11833 0
-144 11833 0
-145 11833 0
-11834 32 0
-32 11834 0
-11835 88 0
-88 11835 0
-11836 144 0
-144 11836 0
-11834 11837 0
-11835 11838 0
-11837 11838 0
-11835 -11837 0
-11836 -11838 0
-11840 32 33 0
-32 11840 0
-33 11840 0
-11841 88 89 0
-88 11841 0
-89 11841 0
-11842 144 145 0
-144 11842 0
-145 11842 0
-11840 11843 0
-11844 0
-11841 11845 0
-11843 11845 0
-11841 -11843 11846 0
-11844 11846 0
-11841 -11844 0
-11842 -11846 0
-11849 32 33 34 0
-32 11849 0
-33 11849 0
-34 11849 0
-11850 88 89 90 0
-88 11850 0
-89 11850 0
-90 11850 0
-11851 144 145 146 0
-144 11851 0
-145 11851 0
-146 11851 0
-11852 33 0
-33 11852 0
-11853 89 0
-89 11853 0
-11854 145 0
-145 11854 0
-11852 11855 0
-11853 11856 0
-11855 11856 0
-11853 -11855 0
-11854 -11856 0
-11858 33 34 0
-33 11858 0
-34 11858 0
-11859 89 90 0
-89 11859 0
-90 11859 0
-11860 145 146 0
-145 11860 0
-146 11860 0
-11858 11861 0
-11862 0
-11859 11863 0
-11861 11863 0
-11859 -11861 11864 0
-11862 11864 0
-11859 -11862 0
-11860 -11864 0
-11867 33 34 35 0
-33 11867 0
-34 11867 0
-35 11867 0
-11868 89 90 91 0
-89 11868 0
-90 11868 0
-91 11868 0
-11869 145 146 147 0
-145 11869 0
-146 11869 0
-147 11869 0
-11870 34 0
-34 11870 0
-11871 90 0
-90 11871 0
-11872 146 0
-146 11872 0
-11870 11873 0
-11871 11874 0
-11873 11874 0
-11871 -11873 0
-11872 -11874 0
-11876 34 35 0
-34 11876 0
-35 11876 0
-11877 90 91 0
-90 11877 0
-91 11877 0
-11878 146 147 0
-146 11878 0
-147 11878 0
-11876 11879 0
-11880 0
-11877 11881 0
-11879 11881 0
-11877 -11879 11882 0
-11880 11882 0
-11877 -11880 0
-11878 -11882 0
-11885 35 0
-35 11885 0
-11886 91 0
-91 11886 0
-11887 147 0
-147 11887 0
-11885 11888 0
-11886 11889 0
-11888 11889 0
-11886 -11888 0
-11887 -11889 0
-11891 11898 0
-11899 0
-11900 0
-11901 0
-11892 11902 0
-11898 11902 0
-11892 -11898 11903 0
-11899 11903 0
-11892 -11899 11904 0
-11900 11904 0
-11892 -11900 11905 0
-11901 11905 0
-11892 -11901 0
-11893 11906 0
-11902 11906 0
-11893 -11902 11907 0
-11903 11907 0
-11893 -11903 11908 0
-11904 11908 0
-11893 -11904 11909 0
-11905 11909 0
-11893 -11905 0
-11894 11910 0
-11906 11910 0
-11894 -11906 11911 0
-11907 11911 0
-11894 -11907 11912 0
-11908 11912 0
-11894 -11908 11913 0
-11909 11913 0
-11894 -11909 0
-11895 11914 0
-11910 11914 0
-11895 -11910 11915 0
-11911 11915 0
-11895 -11911 11916 0
-11912 11916 0
-11895 -11912 11917 0
-11913 11917 0
-11895 -11913 0
-11896 11918 0
-11914 11918 0
-11896 -11914 11919 0
-11915 11919 0
-11896 -11915 11920 0
-11916 11920 0
-11896 -11916 11921 0
-11917 11921 0
-11896 -11917 0
-11897 -11921 0
11891 11926 0
-11927 0
-11928 0
11892 11929 0
-11926 11929 0
11892 -11926 11930 0
-11927 11930 0
11892 -11927 11931 0
-11928 11931 0
11892 -11928 0
11893 11932 0
-11929 11932 0
11893 -11929 11933 0
-11930 11933 0
11893 -11930 11934 0
-11931 11934 0
11893 -11931 0
11894 11935 0
-11932 11935 0
11894 -11932 11936 0
-11933 11936 0
11894 -11933 11937 0
-11934 11937 0
11894 -11934 0
11895 11938 0
-11935 11938 0
11895 -11935 11939 0
-11936 11939 0
11895 -11936 11940 0
-11937 11940 0
11895 -11937 0
11896 11941 0
-11938 11941 0
11896 -11938 11942 0
-11939 11942 0
11896 -11939 11943 0
-11940 11943 0
11896 -11940 0
11897 -11943 0
-29 11947 0
-85 11948 0
-11947 11948 0
-85 -11947 0
-141 11949 0
-11948 11949 0
-141 -11948 0
-11891 -11949 0
29 85 141 11891 0
-30 11951 0
-86 11952 0
-11951 11952 0
-86 -11951 0
-142 11953 0
-11952 11953 0
-142 -11952 0
-11892 -11953 0
30 86 142 11892 0
-31 11955 0
-87 11956 0
-11955 11956 0
-87 -11955 0
-143 11957 0
-11956 11957 0
-143 -11956 0
-11893 -11957 0
31 87 143 11893 0
-32 11959 0
-88 11960 0
-11959 11960 0
-88 -11959 0
-144 11961 0
-11960 11961 0
-144 -11960 0
-11894 -11961 0
32 88 144 11894 0
-33 11963 0
-89 11964 0
-11963 11964 0
-89 -11963 0
-145 11965 0
-11964 11965 0
-145 -11964 0
-11895 -11965 0
33 89 145 11895 0
-34 11967 0
-90 11968 0
-11967 11968 0
-90 -11967 0
-146 11969 0
-11968 11969 0
-146 -11968 0
-11896 -11969 0
34 90 146 11896 0
-35 11971 0
-91 11972 0
-11971 11972 0
-91 -11971 0
-147 11973 0
-11972 11973 0
-147 -11972 0
-11897 -11973 0
35 91 147 11897 0
-11975 22 0
-22 11975 0
-11976 78 0
-78 11976 0
-11977 134 0
-134 11977 0
-11978 190 0
-190 11978 0
-11975 11979 0
-11976 11980 0
-11979 11980 0
-11976 -11979 0
-11977 11981 0
-11980 11981 0
-11977 -11980 0
-11978 -11981 0
-11983 22 23 0
-22 11983 0
-23 11983 0
-11984 78 79 0
-78 11984 0
-79 11984 0
-11985 134 135 0
-134 11985 0
-135 11985 0
-11986 190 191 0
-190 11986 0
-191 11986 0
-11983 11987 0
-11988 0
-11984 11989 0
-11987 11989 0
-11984 -11987 11990 0
-11988 11990 0
-11984 -11988 0
-11985 11991 0
-11989 11991 0
-11985 -11989 11992 0
-11990 11992 0
-11985 -11990 0
-11986 -11992 0
-11995 22 23 24 0
-22 11995 0
-23 11995 0
-24 11995 0
-11996 78 79 80 0
-78 11996 0
-79 11996 0
-80 11996 0
-11997 134 135 136 0
-134 11997 0
-135 11997 0
-136 11997 0
-11998 190 191 192 0
-190 11998 0
-191 11998 0
-192 11998 0
-11995 11999 0
-12000 0
-12001 0
-11996 12002 0
-11999 12002 0
-11996 -11999 12003 0
-12000 12003 0
-11996 -12000 12004 0
-12001 12004 0
-11996 -12001 0
-11997 12005 0
-12002 12005 0
-11997 -12002 12006 0
-12003 12006 0
-11997 -12003 12007 0
-12004 12007 0
-11997 -12004 0
-11998 -12007 0
-12011 22 23 24 25 0
-22 12011 0
-23 12011 0
-24 12011 0
-25 12011 0
-12012 78 79 80 81 0
-78 12012 0
-79 12012 0
-80 12012 0
-81 12012 0
-12013 134 135 136 137 0
-134 12013 0
-135 12013 0
-136 12013 0
-137 12013 0
-12014 190 191 192 193 0
-190 12014 0
-191 12014 0
-192 12014 0
-193 12014 0
-12015 23 0
-23 12015 0
-12016 79 0
-79 12016 0
-12017 135 0
-135 12017 0
-12018 191 0
-191 12018 0
-12015 12019 0
-12016 12020 0
-12019 12020 0
-12016 -12019 0
-12017 12021 0
-12020 12021 0
-12017 -12020 0
-12018 -12021 0
-12023 23 24 0
-23 12023 0
-24 12023 0
-12024 79 80 0
-79 12024 0
-80 12024 0
-12025 135 136 0
-135 12025 0
-136 12025 0
-12026 191 192 0
-191 12026 0
-192 12026 0
-12023 12027 0
-12028 0
-12024 12029 0
-12027 12029 0
-12024 -12027 12030 0
-12028 12030 0
-12024 -12028 0
-12025 12031 0
-12029 12031 0
-12025 -12029 12032 0
-12030 12032 0
-12025 -12030 0
-12026 -12032 0
-12035 23 24 25 0
-23 12035 0
-24 12035 0
-25 12035 0
-12036 79 80 81 0
-79 12036 0
-80 12036 0
-81 12036 0
-12037 135 136 137 0
-135 12037 0
-136 12037 0
-137 12037 0
-12038 191 192 193 0
-191 12038 0
-192 12038 0
-193 12038 0
-12035 12039 0
-12040 0
-12041 0
-12036 12042 0
-12039 12042 0
-12036 -12039 12043 0
-12040 12043 0
-12036 -12040 12044 0
-12041 12044 0
-12036 -12041 0
-12037 12045 0
-12042 12045 0
-12037 -12042 12046 0
-12043 12046 0
-12037 -12043 12047 0
-12044 12047 0
-12037 -12044 0
-12038 -12047 0
-12051 23 24 25 26 0
-23 12051 0
-24 12051 0
-25 12051 0
-26 12051 0
-12052 79 80 81 82 0
-79 12052 0
-80 12052 0
-81 12052 0
-82 12052 0
-12053 135 136 137 138 0
-135 12053 0
-136 12053 0
-137 12053 0
-138 12053 0
-12054 191 192 193 194 0
-191 12054 0
-192 12054 0
-193 12054 0
-194 12054 0
-12055 24 0
-24 12055 0
-12056 80 0
-80 12056 0
-12057 136 0
-136 12057 0
-12058 192 0
-192 12058 0
-12055 12059 0
-12056 12060 0
-12059 12060 0
-12056 -12059 0
-12057 12061 0
-12060 12061 0
-12057 -12060 0
-12058 -12061 0
-12063 24 25 0
-24 12063 0
-25 12063 0
-12064 80 81 0
-80 12064 0
-81 12064 0
-12065 136 137 0
-136 12065 0
-137 12065 0
-12066 192 193 0
-192 12066 0
-193 12066 0
-12063 12067 0
-12068 0
-12064 12069 0
-12067 12069 0
-12064 -12067 12070 0
-12068 12070 0
-12064 -12068 0
-12065 12071 0
-12069 12071 0
-12065 -12069 12072 0
-12070 12072 0
-12065 -12070 0
-12066 -12072 0
-12075 24 25 26 0
-24 12075 0
-25 12075 0
-26 12075 0
-12076 80 81 82 0
-80 12076 0
-81 12076 0
-82 12076 0
-12077 136 137 138 0
-136 12077 0
-137 12077 0
-138 12077 0
-12078 192 193 194 0
-192 12078 0
-193 12078 0
-194 12078 0
-12075 12079 0
-12080 0
-12081 0
-12076 12082 0
-12079 12082 0
-12076 -12079 12083 0
-12080 12083 0
-12076 -12080 12084 0
-12081 12084 0
-12076 -12081 0
-12077 12085 0
-12082 12085 0
-12077 -12082 12086 0
-12083 12086 0
-12077 -12083 12087 0
-12084 12087 0
-12077 -12084 0
-12078 -12087 0
-12091 24 25 26 27 0
-24 12091 0
-25 12091 0
-26 12091 0
-27 12091 0
-12092 80 81 82 83 0
-80 12092 0
-81 12092 0
-82 12092 0
-83 12092 0
-12093 136 137 138 139 0
-136 12093 0
-137 12093 0
-138 12093 0
-139 12093 0
-12094 192 193 194 195 0
-192 12094 0
-193 12094 0
-194 12094 0
-195 12094 0
-12095 25 0
-25 12095 0
-12096 81 0
-81 12096 0
-12097 137 0
-137 12097 0
-12098 193 0
-193 12098 0
-12095 12099 0
-12096 12100 0
-12099 12100 0
-12096 -12099 0
-12097 12101 0
-12100 12101 0
-12097 -12100 0
-12098 -12101 0
-12103 25 26 0
-25 12103 0
-26 12103 0
-12104 81 82 0
-81 12104 0
-82 12104 0
-12105 137 138 0
-137 12105 0
-138 12105 0
-12106 193 194 0
-193 12106 0
-194 12106 0
-12103 12107 0
-12108 0
-12104 12109 0
-12107 12109 0
-12104 -12107 12110 0
-12108 12110 0
-12104 -12108 0
-12105 12111 0
-12109 12111 0
-12105 -12109 12112 0
-12110 12112 0
-12105 -12110 0
-12106 -12112 0
-12115 25 26 27 0
-25 12115 0
-26 12115 0
-27 12115 0
-12116 81 82 83 0
-81 12116 0
-82 12116 0
-83 12116 0
-12117 137 138 139 0
-137 12117 0
-138 12117 0
-139 12117 0
-12118 193 194 195 0
-193 12118 0
-194 12118 0
-195 12118 0
-12115 12119 0
-12120 0
-12121 0
-12116 12122 0
-12119 12122 0
-12116 -12119 12123 0
-12120 12123 0
-12116 -12120 12124 0
-12121 12124 0
-12116 -12121 0
-12117 12125 0
-12122 12125 0
-12117 -12122 12126 0
-12123 12126 0
-12117 -12123 12127 0
-12124 12127 0
-12117 -12124 0
-12118 -12127 0
-12131 25 26 27 28 0
-25 12131 0
-26 12131 0
-27 12131 0
-28 12131 0
-12132 81 82 83 84 0
-81 12132 0
-82 12132 0
-83 12132 0
-84 12132 0
-12133 137 138 139 140 0
-137 12133 0
-138 12133 0
-139 12133 0
-140 12133 0
-12134 193 194 195 196 0
-193 12134 0
-194 12134 0
-195 12134 0
-196 12134 0
-12135 26 0
-26 12135 0
-12136 82 0
-82 12136 0
-12137 138 0
-138 12137 0
-12138 194 0
-194 12138 0
-12135 12139 0
-12136 12140 0
-12139 12140 0
-12136 -12139 0
-12137 12141 0
-12140 12141 0
-12137 -12140 0
-12138 -12141 0
-12143 26 27 0
-26 12143 0
-27 12143 0
-12144 82 83 0
-82 12144 0
-83 12144 0
-12145 138 139 0
-138 12145 0
-139 12145 0
-12146 194 195 0
-194 12146 0
-195 12146 0
-12143 12147 0
-12148 0
-12144 12149 0
-12147 12149 0
-12144 -12147 12150 0
-12148 12150 0
-12144 -12148 0
-12145 12151 0
-12149 12151 0
-12145 -12149 12152 0
-12150 12152 0
-12145 -12150 0
-12146 -12152 0
-12155 26 27 28 0
-26 12155 0
-27 12155 0
-28 12155 0
-12156 82 83 84 0
-82 12156 0
-83 12156 0
-84 12156 0
-12157 138 139 140 0
-138 12157 0
-139 12157 0
-140 12157 0
-12158 194 195 196 0
-194 12158 0
-195 12158 0
-196 12158 0
-12155 12159 0
-12160 0
-12161 0
-12156 12162 0
-12159 12162 0
-12156 -12159 12163 0
-12160 12163 0
-12156 -12160 12164 0
-12161 12164 0
-12156 -12161 0
-12157 12165 0
-12162 12165 0
-12157 -12162 12166 0
-12163 12166 0
-12157 -12163 12167 0
-12164 12167 0
-12157 -12164 0
-12158 -12167 0
-12171 27 0
-27 12171 0
-12172 83 0
-83 12172 0
-12173 139 0
-139 12173 0
-12174 195 0
-195 12174 0
-12171 12175 0
-12172 12176 0
-12175 12176 0
-12172 -12175 0
-12173 12177 0
-12176 12177 0
-12173 -12176 0
-12174 -12177 0
-12179 27 28 0
-27 12179 0
-28 12179 0
-12180 83 84 0
-83 12180 0
-84 12180 0
-12181 139 140 0
-139 12181 0
-140 12181 0
-12182 195 196 0
-195 12182 0
-196 12182 0
-12179 12183 0
-12184 0
-12180 12185 0
-12183 12185 0
-12180 -12183 12186 0
-12184 12186 0
-12180 -12184 0
-12181 12187 0
-12185 12187 0
-12181 -12185 12188 0
-12186 12188 0
-12181 -12186 0
-12182 -12188 0
-12191 28 0
-28 12191 0
-12192 84 0
-84 12192 0
-12193 140 0
-140 12193 0
-12194 196 0
-196 12194 0
-12191 12195 0
-12192 12196 0
-12195 12196 0
-12192 -12195 0
-12193 12197 0
-12196 12197 0
-12193 -12196 0
-12194 -12197 0
-12199 12206 0
-12207 0
-12208 0
-12200 12209 0
-12206 12209 0
-12200 -12206 12210 0
-12207 12210 0
-12200 -12207 12211 0
-12208 12211 0
-12200 -12208 0
-12201 12212 0
-12209 12212 0
-12201 -12209 12213 0
-12210 12213 0
-12201 -12210 12214 0
-12211 12214 0
-12201 -12211 0
-12202 12215 0
-12212 12215 0
-12202 -12212 12216 0
-12213 12216 0
-12202 -12213 12217 0
-12214 12217 0
-12202 -12214 0
-12203 12218 0
-12215 12218 0
-12203 -12215 12219 0
-12216 12219 0
-12203 -12216 12220 0
-12217 12220 0
-12203 -12217 0
-12204 12221 0
-12218 12221 0
-12204 -12218 12222 0
-12219 12222 0
-12204 -12219 12223 0
-12220 12223 0
-12204 -12220 0
-12205 -12223 0
12199 12227 0
-12228 0
-12229 0
-12230 0
12200 12231 0
-12227 12231 0
12200 -12227 12232 0
-12228 12232 0
12200 -12228 12233 0
-12229 12233 0
12200 -12229 12234 0
-12230 12234 0
12200 -12230 0
12201 12235 0
-12231 12235 0
12201 -12231 12236 0
-12232 12236 0
12201 -12232 12237 0
-12233 12237 0
12201 -12233 12238 0
-12234 12238 0
12201 -12234 0
12202 12239 0
-12235 12239 0
12202 -12235 12240 0
-12236 12240 0
12202 -12236 12241 0
-12237 12241 0
12202 -12237 12242 0
-12238 12242 0
12202 -12238 0
12203 12243 0
-12239 12243 0
12203 -12239 12244 0
-12240 12244 0
12203 -12240 12245 0
-12241 12245 0
12203 -12241 12246 0
-12242 12246 0
12203 -12242 0
12204 12247 0
-12243 12247 0
12204 -12243 12248 0
-12244 12248 0
12204 -12244 12249 0
-12245 12249 0
12204 -12245 12250 0
-12246 12250 0
12204 -12246 0
12205 -12250 0
-22 12255 0
-78 12256 0
-12255 12256 0
-78 -12255 0
-134 12257 0
-12256 12257 0
-134 -12256 0
-190 12258 0
-12257 12258 0
-190 -12257 0
-12199 -12258 0
22 78 134 190 12199 0
-23 12260 0
-79 12261 0
-12260 12261 0
-79 -12260 0
-135 12262 0
-12261 12262 0
-135 -12261 0
-191 12263 0
-12262 12263 0
-191 -12262 0
-12200 -12263 0
23 79 135 191 12200 0
-24 12265 0
-80 12266 0
-12265 12266 0
-80 -12265 0
-136 12267 0
-12266 12267 0
-136 -12266 0
-192 12268 0
-12267 12268 0
-192 -12267 0
-12201 -12268 0
24 80 136 192 12201 0
-25 12270 0
-81 12271 0
-12270 12271 0
-81 -12270 0
-137 12272 0
-12271 12272 0
-137 -12271 0
-193 12273 0
-12272 12273 0
-193 -12272 0
-12202 -12273 0
25 81 137 193 12202 0
-26 12275 0
-82 12276 0
-12275 12276 0
-82 -12275 0
-138 12277 0
-12276 12277 0
-138 -12276 0
-194 12278 0
-12277 12278 0
-194 -12277 0
-12203 -12278 0
26 82 138 194 12203 0
-27 12280 0
-83 12281 0
-12280 12281 0
-83 -12280 0
-139 12282 0
-12281 12282 0
-139 -12281 0
-195 12283 0
-12282 12283 0
-195 -12282 0
-12204 -12283 0
27 83 139 195 12204 0
-28 12285 0
-84 12286 0
-12285 12286 0
-84 -12285 0
-140 12287 0
-12286 12287 0
-140 -12286 0
-196 12288 0
-12287 12288 0
-196 -12287 0
-12205 -12288 0
28 84 140 196 12205 0
-12290 15 0
-15 12290 0
-12291 71 0
-71 12291 0
-12292 127 0
-127 12292 0
-12293 183 0
-183 12293 0
-12294 239 0
-239 12294 0
-12290 12295 0
-12291 12296 0
-12295 12296 0
-12291 -12295 0
-12292 12297 0
-12296 12297 0
-12292 -12296 0
-12293 12298 0
-12297 12298 0
-12293 -12297 0
-12294 -12298 0
-12300 15 16 0
-15 12300 0
-16 12300 0
-12301 71 72 0
-71 12301 0
-72 12301 0
-12302 127 128 0
-127 12302 0
-128 12302 0
-12303 183 184 0
-183 12303 0
-184 12303 0
-12304 239 240 0
-239 12304 0
-240 12304 0
-12300 12305 0
-12306 0
-12301 12307 0
-12305 12307 0
-12301 -12305 12308 0
-12306 12308 0
-12301 -12306 0
-12302 12309 0
-12307 12309 0
-12302 -12307 12310 0
-12308 12310 0
-12302 -12308 0
-12303 12311 0
-12309 12311 0
-12303 -12309 12312 0
-12310 12312 0
-12303 -12310 0
-12304 -12312 0
-12315 15 16 17 0
-15 12315 0
-16 12315 0
-17 12315 0
-12316 71 72 73 0
-71 12316 0
-72 12316 0
-73 12316 0
-12317 127 128 129 0
-127 12317 0
-128 12317 0
-129 12317 0
-12318 183 184 185 0
-183 12318 0
-184 12318 0
-185 12318 0
-12319 239 240 241 0
-239 12319 0
-240 12319 0
-241 12319 0
-12315 12320 0
-12321 0
-12322 0
-12316 12323 0
-12320 12323 0
-12316 -12320 12324 0
-12321 12324 0
-12316 -12321 12325 0
-12322 12325 0
-12316 -12322 0
-12317 12326 0
-12323 12326 0
-12317 -12323 12327 0
-12324 12327 0
-12317 -12324 12328 0
-12325 12328 0
-12317 -12325 0
-12318 12329 0
-12326 12329 0
-12318 -12326 12330 0
-12327 12330 0
-12318 -12327 12331 0
-12328 12331 0
-12318 -12328 0
-12319 -12331 0
-12335 15 16 17 18 0
-15 12335 0
-16 12335 0
-17 12335 0
-18 12335 0
-12336 71 72 73 74 0
-71 12336 0
-72 12336 0
-73 12336 0
-74 12336 0
-12337 127 128 129 130 0
-127 12337 0
-128 12337 0
-129 12337 0
-130 12337 0
-12338 183 184 185 186 0
-183 12338 0
-184 12338 0
-185 12338 0
-186 12338 0
-12339 239 240 241 242 0
-239 12339 0
-240 12339 0
-241 12339 0
-242 12339 0
-12335 12340 0
-12341 0
-12342 0
-12343 0
-12336 12344 0
-12340 12344 0
-12336 -12340 12345 0
-12341 12345 0
-12336 -12341 12346 0
-12342 12346 0
-12336 -12342 12347 0
-12343 12347 0
-12336 -12343 0
-12337 12348 0
-12344 12348 0
-12337 -12344 12349 0
-12345 12349 0
-12337 -12345 12350 0
-12346 12350 0
-12337 -12346 12351 0
-12347 12351 0
-12337 -12347 0
-12338 12352 0
-12348 12352 0
-12338 -12348 12353 0
-12349 12353 0
-12338 -12349 12354 0
-12350 12354 0
-12338 -12350 12355 0
-12351 12355 0
-12338 -12351 0
-12339 -12355 0
-12360 15 16 17 18 19 0
-15 12360 0
-16 12360 0
-17 12360 0
-18 12360 0
-19 12360 0
-12361 71 72 73 74 75 0
-71 12361 0
-72 12361 0
-73 12361 0
-74 12361 0
-75 12361 0
-12362 127 128 129 130 131 0
-127 12362 0
-128 12362 0
-129 12362 0
-130 12362 0
-131 12362 0
-12363 183 184 185 186 187 0
-183 12363 0
-184 12363 0
-185 12363 0
-186 12363 0
-187 12363 0
-12364 239 240 241 242 243 0
-239 12364 0
-240 12364 0
-241 12364 0
-242 12364 0
-243 12364 0
-12365 16 0
-16 12365 0
-12366 72 0
-72 12366 0
-12367 128 0
-128 12367 0
-12368 184 0
-184 12368 0
-12369 240 0
-240 12369 0
-12365 12370 0
-12366 12371 0
-12370 12371 0
-12366 -12370 0
-12367 12372 0
-12371 12372 0
-12367 -12371 0
-12368 12373 0
-12372 12373 0
-12368 -12372 0
-12369 -12373 0
-12375 16 17 0
-16 12375 0
-17 12375 0
-12376 72 73 0
-72 12376 0
-73 12376 0
-12377 128 129 0
-128 12377 0
-129 12377 0
-12378 184 185 0
-184 12378 0
-185 12378 0
-12379 240 241 0
-240 12379 0
-241 12379 0
-12375 12380 0
-12381 0
-12376 12382 0
-12380 12382 0
-12376 -12380 12383 0
-12381 12383 0
-12376 -12381 0
-12377 12384 0
-12382 12384 0
-12377 -12382 12385 0
-12383 12385 0
-12377 -12383 0
-12378 12386 0
-12384 12386 0
-12378 -12384 12387 0
-12385 12387 0
-12378 -12385 0
-12379 -12387 0
-12390 16 17 18 0
-16 12390 0
-17 12390 0
-18 12390 0
-12391 72 73 74 0
-72 12391 0
-73 12391 0
-74 12391 0
-12392 128 129 130 0
-128 12392 0
-129 12392 0
-130 12392 0
-12393 184 185 186 0
-184 12393 0
-185 12393 0
-186 12393 0
-12394 240 241 242 0
-240 12394 0
-241 12394 0
-242 12394 0
-12390 12395 0
-12396 0
-12397 0
-12391 12398 0
-12395 12398 0
-12391 -12395 12399 0
-12396 12399 0
-12391 -12396 12400 0
-12397 12400 0
-12391 -12397 0
-12392 12401 0
-12398 12401 0
-12392 -12398 12402 0
-12399 12402 0
-12392 -12399 12403 0
-12400 12403 0
-12392 -12400 0
-12393 12404 0
-12401 12404 0
-12393 -12401 12405 0
-12402 12405 0
-12393 -12402 12406 0
-12403 12406 0
-12393 -12403 0
-12394 -12406 0
-12410 16 17 18 19 0
-16 12410 0
-17 12410 0
-18 12410 0
-19 12410 0
-12411 72 73 74 75 0
-72 12411 0
-73 12411 0
-74 12411 0
-75 12411 0
-12412 128 129 130 131 0
-128 12412 0
-129 12412 0
-130 12412 0
-131 12412 0
-12413 184 185 186 187 0
-184 12413 0
-185 12413 0
-186 12413 0
-187 12413 0
-12414 240 241 242 243 0
-240 12414 0
-241 12414 0
-242 12414 0
-243 12414 0
-12410 12415 0
-12416 0
-12417 0
-12418 0
-12411 12419 0
-12415 12419 0
-12411 -12415 12420 0
-12416 12420 0
-12411 -12416 12421 0
-12417 12421 0
-12411 -12417 12422 0
-12418 12422 0
-12411 -12418 0
-12412 12423 0
-12419 12423 0
-12412 -12419 12424 0
-12420 12424 0
-12412 -12420 12425 0
-12421 12425 0
-12412 -12421 12426 0
-12422 12426 0
-12412 -12422 0
-12413 12427 0
-12423 12427 0
-12413 -12423 12428 0
-12424 12428 0
-12413 -12424 12429 0
-12425 12429 0
-12413 -12425 12430 0
-12426 12430 0
-12413 -12426 0
-12414 -12430 0
-12435 16 17 18 19 20 0
-16 12435 0
-17 12435 0
-18 12435 0
-19 12435 0
-20 12435 0
-12436 72 73 74 75 76 0
-72 12436 0
-73 12436 0
-74 12436 0
-75 12436 0
-76 12436 0
-12437 128 129 130 131 132 0
-128 12437 0
-129 12437 0
-130 12437 0
-131 12437 0
-132 12437 0
-12438 184 185 186 187 188 0
-184 12438 0
-185 12438 0
-186 12438 0
-187 12438 0
-188 12438 0
-12439 240 241 242 243 244 0
-240 12439 0
-241 12439 0
-242 12439 0
-243 12439 0
-244 12439 0
-12440 17 0
-17 12440 0
-12441 73 0
-73 12441 0
-12442 129 0
-129 12442 0
-12443 185 0
-185 12443 0
-12444 241 0
-241 12444 0
-12440 12445 0
-12441 12446 0
-12445 12446 0
-12441 -12445 0
-12442 12447 0
-12446 12447 0
-12442 -12446 0
-12443 12448 0
-12447 12448 0
-12443 -12447 0
-12444 -12448 0
-12450 17 18 0
-17 12450 0
-18 12450 0
-12451 73 74 0
-73 12451 0
-74 12451 0
-12452 129 130 0
-129 12452 0
-130 12452 0
-12453 185 186 0
-185 12453 0
-186 12453 0
-12454 241 242 0
-241 12454 0
-242 12454 0
-12450 12455 0
-12456 0
-12451 12457 0
-12455 12457 0
-12451 -12455 12458 0
-12456 12458 0
-12451 -12456 0
-12452 12459 0
-12457 12459 0
-12452 -12457 12460 0
-12458 12460 0
-12452 -12458 0
-12453 12461 0
-12459 12461 0
-12453 -12459 12462 0
-12460 12462 0
-12453 -12460 0
-12454 -12462 0
-12465 17 18 19 0
-17 12465 0
-18 12465 0
-19 12465 0
-12466 73 74 75 0
-73 12466 0
-74 12466 0
-75 12466 0
-12467 129 130 131 0
-129 12467 0
-130 12467 0
-131 12467 0
-12468 185 186 187 0
-185 12468 0
-186 12468 0
-187 12468 0
-12469 241 242 243 0
-241 12469 0
-242 12469 0
-243 12469 0
-12465 12470 0
-12471 0
-12472 0
-12466 12473 0
-12470 12473 0
-12466 -12470 12474 0
-12471 12474 0
-12466 -12471 12475 0
-12472 12475 0
-12466 -12472 0
-12467 12476 0
-12473 12476 0
-12467 -12473 12477 0
-12474 12477 0
-12467 -12474 12478 0
-12475 12478 0
-12467 -12475 0
-12468 12479 0
-12476 12479 0
-12468 -12476 12480 0
-12477 12480 0
-12468 -12477 12481 0
-12478 12481 0
-12468 -12478 0
-12469 -12481 0
-12485 17 18 19 20 0
-17 12485 0
-18 12485 0
-19 12485 0
-20 12485 0
-12486 73 74 75 76 0
-73 12486 0
-74 12486 0
-75 12486 0
-76 12486 0
-12487 129 130 131 132 0
-129 12487 0
-130 12487 0
-131 12487 0
-132 12487 0
-12488 185 186 187 188 0
-185 12488 0
-186 12488 0
-187 12488 0
-188 12488 0
-12489 241 242 243 244 0
-241 12489 0
-242 12489 0
-243 12489 0
-244 12489 0
-12485 12490 0
-12491 0
-12492 0
-12493 0
-12486 12494 0
-12490 12494 0
-12486 -12490 12495 0
-12491 12495 0
-12486 -12491 12496 0
-12492 12496 0
-12486 -12492 12497 0
-12493 12497 0
-12486 -12493 0
-12487 12498 0
-12494 12498 0
-12487 -12494 12499 0
-12495 12499 0
-12487 -12495 12500 0
-12496 12500 0
-12487 -12496 12501 0
-12497 12501 0
-12487 -12497 0
-12488 12502 0
-12498 12502 0
-12488 -12498 12503 0
-12499 12503 0
-12488 -12499 12504 0
-12500 12504 0
-12488 -12500 12505 0
-12501 12505 0
-12488 -12501 0
-12489 -12505 0
-12510 17 18 19 20 21 0
-17 12510 0
-18 12510 0
-19 12510 0
-20 12510 0
-21 12510 0
-12511 73 74 75 76 77 0
-73 12511 0
-74 12511 0
-75 12511 0
-76 12511 0
-77 12511 0
-12512 129 130 131 132 133 0
-129 12512 0
-130 12512 0
-131 12512 0
-132 12512 0
-133 12512 0
-12513 185 186 187 188 189 0
-185 12513 0
-186 12513 0
-187 12513 0
-188 12513 0
-189 12513 0
-12514 241 242 243 244 245 0
-241 12514 0
-242 12514 0
-243 12514 0
-244 12514 0
-245 12514 0
-12515 18 0
-18 12515 0
-12516 74 0
-74 12516 0
-12517 130 0
-130 12517 0
-12518 186 0
-186 12518 0
-12519 242 0
-242 12519 0
-12515 12520 0
-12516 12521 0
-12520 12521 0
-12516 -12520 0
-12517 12522 0
-12521 12522 0
-12517 -12521 0
-12518 12523 0
-12522 12523 0
-12518 -12522 0
-12519 -12523 0
-12525 18 19 0
-18 12525 0
-19 12525 0
-12526 74 75 0
-74 12526 0
-75 12526 0
-12527 130 131 0
-130 12527 0
-131 12527 0
-12528 186 187 0
-186 12528 0
-187 12528 0
-12529 242 243 0
-242 12529 0
-243 12529 0
-12525 12530 0
-12531 0
-12526 12532 0
-12530 12532 0
-12526 -12530 12533 0
-12531 12533 0
-12526 -12531 0
-12527 12534 0
-12532 12534 0
-12527 -12532 12535 0
-12533 12535 0
-12527 -12533 0
-12528 12536 0
-12534 12536 0
-12528 -12534 12537 0
-12535 12537 0
-12528 -12535 0
-12529 -12537 0
-12540 18 19 20 0
-18 12540 0
-19 12540 0
-20 12540 0
-12541 74 75 76 0
-74 12541 0
-75 12541 0
-76 12541 0
-12542 130 131 132 0
-130 12542 0
-131 12542 0
-132 12542 0
-12543 186 187 188 0
-186 12543 0
-187 12543 0
-188 12543 0
-12544 242 243 244 0
-242 12544 0
-243 12544 0
-244 12544 0
-12540 12545 0
-12546 0
-12547 0
-12541 12548 0
-12545 12548 0
-12541 -12545 12549 0
-12546 12549 0
-12541 -12546 12550 0
-12547 12550 0
-12541 -12547 0
-12542 12551 0
-12548 12551 0
-12542 -12548 12552 0
-12549 12552 0
-12542 -12549 12553 0
-12550 12553 0
-12542 -12550 0
-12543 12554 0
-12551 12554 0
-12543 -12551 12555 0
-12552 12555 0
-12543 -12552 12556 0
-12553 12556 0
-12543 -12553 0
-12544 -12556 0
-12560 18 19 20 21 0
-18 12560 0
-19 12560 0
-20 12560 0
-21 12560 0
-12561 74 75 76 77 0
-74 12561 0
-75 12561 0
-76 12561 0
-77 12561 0
-12562 130 131 132 133 0
-130 12562 0
-131 12562 0
-132 12562 0
-133 12562 0
-12563 186 187 188 189 0
-186 12563 0
-187 12563 0
-188 12563 0
-189 12563 0
-12564 242 243 244 245 0
-242 12564 0
-243 12564 0
-244 12564 0
-245 12564 0
-12560 12565 0
-12566 0
-12567 0
-12568 0
-12561 12569 0
-12565 12569 0
-12561 -12565 12570 0
-12566 12570 0
-12561 -12566 12571 0
-12567 12571 0
-12561 -12567 12572 0
-12568 12572 0
-12561 -12568 0
-12562 12573 0
-12569 12573 0
-12562 -12569 12574 0
-12570 12574 0
-12562 -12570 12575 0
-12571 12575 0
-12562 -12571 12576 0
-12572 12576 0
-12562 -12572 0
-12563 12577 0
-12573 12577 0
-12563 -12573 12578 0
-12574 12578 0
-12563 -12574 12579 0
-12575 12579 0
-12563 -12575 12580 0
-12576 12580 0
-12563 -12576 0
-12564 -12580 0
-12585 19 0
-19 12585 0
-12586 75 0
-75 12586 0
-12587 131 0
-131 12587 0
-12588 187 0
-187 12588 0
-12589 243 0
-243 12589 0
-12585 12590 0
-12586 12591 0
-12590 12591 0
-12586 -12590 0
-12587 12592 0
-12591 12592 0
-12587 -12591 0
-12588 12593 0
-12592 12593 0
-12588 -12592 0
-12589 -12593 0
-12595 19 20 0
-19 12595 0
-20 12595 0
-12596 75 76 0
-75 12596 0
-76 12596 0
-12597 131 132 0
-131 12597 0
-132 12597 0
-12598 187 188 0
-187 12598 0
-188 12598 0
-12599 243 244 0
-243 12599 0
-244 12599 0
-12595 12600 0
-12601 0
-12596 12602 0
-12600 12602 0
-12596 -12600 12603 0
-12601 12603 0
-12596 -12601 0
-12597 12604 0
-12602 12604 0
-12597 -12602 12605 0
-12603 12605 0
-12597 -12603 0
-12598 12606 0
-12604 12606 0
-12598 -12604 12607 0
-12605 12607 0
-12598 -12605 0
-12599 -12607 0
-12610 19 20 21 0
-19 12610 0
-20 12610 0
-21 12610 0
-12611 75 76 77 0
-75 12611 0
-76 12611 0
-77 12611 0
-12612 131 132 133 0
-131 12612 0
-132 12612 0
-133 12612 0
-12613 187 188 189 0
-187 12613 0
-188 12613 0
-189 12613 0
-12614 243 244 245 0
-243 12614 0
-244 12614 0
-245 12614 0
-12610 12615 0
-12616 0
-12617 0
-12611 12618 0
-12615 12618 0
-12611 -12615 12619 0
-12616 12619 0
-12611 -12616 12620 0
-12617 12620 0
-12611 -12617 0
-12612 12621 0
-12618 12621 0
-12612 -12618 12622 0
-12619 12622 0
-12612 -12619 12623 0
-12620 12623 0
-12612 -12620 0
-12613 12624 0
-12621 12624 0
-12613 -12621 12625 0
-12622 12625 0
-12613 -12622 12626 0
-12623 12626 0
-12613 -12623 0
-12614 -12626 0
-12630 20 0
-20 12630 0
-12631 76 0
-76 12631 0
-12632 132 0
-132 12632 0
-12633 188 0
-188 12633 0
-12634 244 0
-244 12634 0
-12630 12635 0
-12631 12636 0
-12635 12636 0
-12631 -12635 0
-12632 12637 0
-12636 12637 0
-12632 -12636 0
-12633 12638 0
-12637 12638 0
-12633 -12637 0
-12634 -12638 0
-12640 20 21 0
-20 12640 0
-21 12640 0
-12641 76 77 0
-76 12641 0
-77 12641 0
-12642 132 133 0
-132 12642 0
-133 12642 0
-12643 188 189 0
-188 12643 0
-189 12643 0
-12644 244 245 0
-244 12644 0
-245 12644 0
-12640 12645 0
-12646 0
-12641 12647 0
-12645 12647 0
-12641 -12645 12648 0
-12646 12648 0
-12641 -12646 0
-12642 12649 0
-12647 12649 0
-12642 -12647 12650 0
-12648 12650 0
-12642 -12648 0
-12643 12651 0
-12649 12651 0
-12643 -12649 12652 0
-12650 12652 0
-12643 -12650 0
-12644 -12652 0
-12655 21 0
-21 12655 0
-12656 77 0
-77 12656 0
-12657 133 0
-133 12657 0
-12658 189 0
-189 12658 0
-12659 245 0
-245 12659 0
-12655 12660 0
-12656 12661 0
-12660 12661 0
-12656 -12660 0
-12657 12662 0
-12661 12662 0
-12657 -12661 0
-12658 12663 0
-12662 12663 0
-12658 -12662 0
-12659 -12663 0
-12665 12672 0
-12673 0
-12666 12674 0
-12672 12674 0
-12666 -12672 12675 0
-12673 12675 0
-12666 -12673 0
-12667 12676 0
-12674 12676 0
-12667 -12674 12677 0
-12675 12677 0
-12667 -12675 0
-12668 12678 0
-12676 12678 0
-12668 -12676 12679 0
-12677 12679 0
-12668 -12677 0
-12669 12680 0
-12678 12680 0
-12669 -12678 12681 0
-12679 12681 0
-12669 -12679 0
-12670 12682 0
-12680 12682 0
-12670 -12680 12683 0
-12681 12683 0
-12670 -12681 0
-12671 -12683 0
12665 12686 0
-12687 0
-12688 0
-12689 0
-12690 0
12666 12691 0
-12686 12691 0
12666 -12686 12692 0
-12687 12692 0
12666 -12687 12693 0
-12688 12693 0
12666 -12688 12694 0
-12689 12694 0
12666 -12689 12695 0
-12690 12695 0
12666 -12690 0
12667 12696 0
-12691 12696 0
12667 -12691 12697 0
-12692 12697 0
12667 -12692 12698 0
-12693 12698 0
12667 -12693 12699 0
-12694 12699 0
12667 -12694 12700 0
-12695 12700 0
12667 -12695 0
12668 12701 0
-12696 12701 0
12668 -12696 12702 0
-12697 12702 0
12668 -12697 12703 0
-12698 12703 0
12668 -12698 12704 0
-12699 12704 0
12668 -12699 12705 0
-12700 12705 0
12668 -12700 0
12669 12706 0
-12701 12706 0
12669 -12701 12707 0
-12702 12707 0
12669 -12702 12708 0
-12703 12708 0
12669 -12703 12709 0
-12704 12709 0
12669 -12704 12710 0
-12705 12710 0
12669 -12705 0
12670 12711 0
-12706 12711 0
12670 -12706 12712 0
-12707 12712 0
12670 -12707 12713 0
-12708 12713 0
12670 -12708 12714 0
-12709 12714 0
12670 -12709 12715 0
-12710 12715 0
12670 -12710 0
12671 -12715 0
-15 12721 0
-71 12722 0
-12721 12722 0
-71 -12721 0
-127 12723 0
-12722 12723 0
-127 -12722 0
-183 12724 0
-12723 12724 0
-183 -12723 0
-239 12725 0
-12724 12725 0
-239 -12724 0
-12665 -12725 0
15 71 127 183 239 12665 0
-16 12727 0
-72 12728 0
-12727 12728 0
-72 -12727 0
-128 12729 0
-12728 12729 0
-128 -12728 0
-184 12730 0
-12729 12730 0
-184 -12729 0
-240 12731 0
-12730 12731 0
-240 -12730 0
-12666 -12731 0
16 72 128 184 240 12666 0
-17 12733 0
-73 12734 0
-12733 12734 0
-73 -12733 0
-129 12735 0
-12734 12735 0
-129 -12734 0
-185 12736 0
-12735 12736 0
-185 -12735 0
-241 12737 0
-12736 12737 0
-241 -12736 0
-12667 -12737 0
17 73 129 185 241 12667 0
-18 12739 0
-74 12740 0
-12739 12740 0
-74 -12739 0
-130 12741 0
-12740 12741 0
-130 -12740 0
-186 12742 0
-12741 12742 0
-186 -12741 0
-242 12743 0
-12742 12743 0
-242 -12742 0
-12668 -12743 0
18 74 130 186 242 12668 0
-19 12745 0
-75 12746 0
-12745 12746 0
-75 -12745 0
-131 12747 0
-12746 12747 0
-131 -12746 0
-187 12748 0
-12747 12748 0
-187 -12747 0
-243 12749 0
-12748 12749 0
-243 -12748 0
-12669 -12749 0
19 75 131 187 243 12669 0
-20 12751 0
-76 12752 0
-12751 12752 0
-76 -12751 0
-132 12753 0
-12752 12753 0
-132 -12752 0
-188 12754 0
-12753 12754 0
-188 -12753 0
-244 12755 0
-12754 12755 0
-244 -12754 0
-12670 -12755 0
20 76 132 188 244 12670 0
-21 12757 0
-77 12758 0
-12757 12758 0
-77 -12757 0
-133 12759 0
-12758 12759 0
-133 -12758 0
-189 12760 0
-12759 12760 0
-189 -12759 0
-245 12761 0
-12760 12761 0
-245 -12760 0
-12671 -12761 0
21 77 133 189 245 12671 0
-12763 8 0
-8 12763 0
-12764 64 0
-64 12764 0
-12765 120 0
-120 12765 0
-12766 176 0
-176 12766 0
-12767 232 0
-232 12767 0
-12768 288 0
-288 12768 0
-12763 12769 0
-12764 12770 0
-12769 12770 0
-12764 -12769 0
-12765 12771 0
-12770 12771 0
-12765 -12770 0
-12766 12772 0
-12771 12772 0
-12766 -12771 0
-12767 12773 0
-12772 12773 0
-12767 -12772 0
-12768 -12773 0
-12775 8 9 0
-8 12775 0
-9 12775 0
-12776 64 65 0
-64 12776 0
-65 12776 0
-12777 120 121 0
-120 12777 0
-121 12777 0
-12778 176 177 0
-176 12778 0
-177 12778 0
-12779 232 233 0
-232 12779 0
-233 12779 0
-12780 288 289 0
-288 12780 0
-289 12780 0
-12775 12781 0
-12782 0
-12776 12783 0
-12781 12783 0
-12776 -12781 12784 0
-12782 12784 0
-12776 -12782 0
-12777 12785 0
-12783 12785 0
-12777 -12783 12786 0
-12784 12786 0
-12777 -12784 0
-12778 12787 0
-12785 12787 0
-12778 -12785 12788 0
-12786 12788 0
-12778 -12786 0
-12779 12789 0
-12787 12789 0
-12779 -12787 12790 0
-12788 12790 0
-12779 -12788 0
-12780 -12790 0
-12793 8 9 10 0
-8 12793 0
-9 12793 0
-10 12793 0
-12794 64 65 66 0
-64 12794 0
-65 12794 0
-66 12794 0
-12795 120 121 122 0
-120 12795 0
-121 12795 0
-122 12795 0
-12796 176 177 178 0
-176 12796 0
-177 12796 0
-178 12796 0
-12797 232 233 234 0
-232 12797 0
-233 12797 0
-234 12797 0
-12798 288 289 290 0
-288 12798 0
-289 12798 0
-290 12798 0
-12793 12799 0
-12800 0
-12801 0
-12794 12802 0
-12799 12802 0
-12794 -12799 12803 0
-12800 12803 0
-12794 -12800 12804 0
-12801 12804 0
-12794 -12801 0
-12795 12805 0
-12802 12805 0
-12795 -12802 12806 0
-12803 12806 0
-12795 -12803 12807 0
-12804 12807 0
-12795 -12804 0
-12796 12808 0
-12805 12808 0
-12796 -12805 12809 0
-12806 12809 0
-12796 -12806 12810 0
-12807 12810 0
-12796 -12807 0
-12797 12811 0
-12808 12811 0
-12797 -12808 12812 0
-12809 12812 0
-12797 -12809 12813 0
-12810 12813 0
-12797 -12810 0
-12798 -12813 0
-12817 8 9 10 11 0
-8 12817 0
-9 12817 0
-10 12817 0
-11 12817 0
-12818 64 65 66 67 0
-64 12818 0
-65 12818 0
-66 12818 0
-67 12818 0
-12819 120 121 122 123 0
-120 12819 0
-121 12819 0
-122 12819 0
-123 12819 0
-12820 176 177 178 179 0
-176 12820 0
-177 12820 0
-178 12820 0
-179 12820 0
-12821 232 233 234 235 0
-232 12821 0
-233 12821 0
-234 12821 0
-235 12821 0
-12822 288 289 290 291 0
-288 12822 0
-289 12822 0
-290 12822 0
-291 12822 0
-12817 12823 0
-12824 0
-12825 0
-12826 0
-12818 12827 0
-12823 12827 0
-12818 -12823 12828 0
-12824 12828 0
-12818 -12824 12829 0
-12825 12829 0
-12818 -12825 12830 0
-12826 12830 0
-12818 -12826 0
-12819 12831 0
-12827 12831 0
-12819 -12827 12832 0
-12828 12832 0
-12819 -12828 12833 0
-12829 12833 0
-12819 -12829 12834 0
-12830 12834 0
-12819 -12830 0
-12820 12835 0
-12831 12835 0
-12820 -12831 12836 0
-12832 12836 0
-12820 -12832 12837 0
-12833 12837 0
-12820 -12833 12838 0
-12834 12838 0
-12820 -12834 0
-12821 12839 0
-12835 12839 0
-12821 -12835 12840 0
-12836 12840 0
-12821 -12836 12841 0
-12837 12841 0
-12821 -12837 12842 0
-12838 12842 0
-12821 -12838 0
-12822 -12842 0
-12847 8 9 10 11 12 0
-8 12847 0
-9 12847 0
-10 12847 0
-11 12847 0
-12 12847 0
-12848 64 65 66 67 68 0
-64 12848 0
-65 12848 0
-66 12848 0
-67 12848 0
-68 12848 0
-12849 120 121 122 123 124 0
-120 12849 0
-121 12849 0
-122 12849 0
-123 12849 0
-124 12849 0
-12850 176 177 178 179 180 0
-176 12850 0
-177 12850 0
-178 12850 0
-179 12850 0
-180 12850 0
-12851 232 233 234 235 236 0
-232 12851 0
-233 12851 0
-234 12851 0
-235 12851 0
-236 12851 0
-12852 288 289 290 291 292 0
-288 12852 0
-289 12852 0
-290 12852 0
-291 12852 0
-292 12852 0
-12847 12853 0
-12854 0
-12855 0
-12856 0
-12857 0
-12848 12858 0
-12853 12858 0
-12848 -12853 12859 0
-12854 12859 0
-12848 -12854 12860 0
-12855 12860 0
-12848 -12855 12861 0
-12856 12861 0
-12848 -12856 12862 0
-12857 12862 0
-12848 -12857 0
-12849 12863 0
-12858 12863 0
-12849 -12858 12864 0
-12859 12864 0
-12849 -12859 12865 0
-12860 12865 0
-12849 -12860 12866 0
-12861 12866 0
-12849 -12861 12867 0
-12862 12867 0
-12849 -12862 0
-12850 12868 0
-12863 12868 0
-12850 -12863 12869 0
-12864 12869 0
-12850 -12864 12870 0
-12865 12870 0
-12850 -12865 12871 0
-12866 12871 0
-12850 -12866 12872 0
-12867 12872 0
-12850 -12867 0
-12851 12873 0
-12868 12873 0
-12851 -12868 12874 0
-12869 12874 0
-12851 -12869 12875 0
-12870 12875 0
-12851 -12870 12876 0
-12871 12876 0
-12851 -12871 12877 0
-12872 12877 0
-12851 -12872 0
-12852 -12877 0
-12883 8 9 10 11 12 13 0
-8 12883 0
-9 12883 0
-10 12883 0
-11 12883 0
-12 12883 0
-13 12883 0
-12884 64 65 66 67 68 69 0
-64 12884 0
-65 12884 0
-66 12884 0
-67 12884 0
-68 12884 0
-69 12884 0
-12885 120 121 122 123 124 125 0
-120 12885 0
-121 12885 0
-122 12885 0
-123 12885 0
-124 12885 0
-125 12885 0
-12886 176 177 178 179 180 181 0
-176 12886 0
-177 12886 0
-178 12886 0
-179 12886 0
-180 12886 0
-181 12886 0
-12887 232 233 234 235 236 237 0
-232 12887 0
-233 12887 0
-234 12887 0
-235 12887 0
-236 12887 0
-237 12887 0
-12888 288 289 290 291 292 293 0
-288 12888 0
-289 12888 0
-290 12888 0
-291 12888 0
-292 12888 0
-293 12888 0
-12889 9 0
-9 12889 0
-12890 65 0
-65 12890 0
-12891 121 0
-121 12891 0
-12892 177 0
-177 12892 0
-12893 233 0
-233 12893 0
-12894 289 0
-289 12894 0
-12889 12895 0
-12890 12896 0
-12895 12896 0
-12890 -12895 0
-12891 12897 0
-12896 12897 0
-12891 -12896 0
-12892 12898 0
-12897 12898 0
-12892 -12897 0
-12893 12899 0
-12898 12899 0
-12893 -12898 0
-12894 -12899 0
-12901 9 10 0
-9 12901 0
-10 12901 0
-12902 65 66 0
-65 12902 0
-66 12902 0
-12903 121 122 0
-121 12903 0
-122 12903 0
-12904 177 178 0
-177 12904 0
-178 12904 0
-12905 233 234 0
-233 12905 0
-234 12905 0
-12906 289 290 0
-289 12906 0
-290 12906 0
-12901 12907 0
-12908 0
-12902 12909 0
-12907 12909 0
-12902 -12907 12910 0
-12908 12910 0
-12902 -12908 0
-12903 12911 0
-12909 12911 0
-12903 -12909 12912 0
-12910 12912 0
-12903 -12910 0
-12904 12913 0
-12911 12913 0
-12904 -12911 12914 0
-12912 12914 0
-12904 -12912 0
-12905 12915 0
-12913 12915 0
-12905 -12913 12916 0
-12914 12916 0
-12905 -12914 0
-12906 -12916 0
-12919 9 10 11 0
-9 12919 0
-10 12919 0
-11 12919 0
-12920 65 66 67 0
-65 12920 0
-66 12920 0
-67 12920 0
-12921 121 122 123 0
-121 12921 0
-122 12921 0
-123 12921 0
-12922 177 178 179 0
-177 12922 0
-178 12922 0
-179 12922 0
-12923 233 234 235 0
-233 12923 0
-234 12923 0
-235 12923 0
-12924 289 290 291 0
-289 12924 0
-290 12924 0
-291 12924 0
-12919 12925 0
-12926 0
-12927 0
-12920 12928 0
-12925 12928 0
-12920 -12925 12929 0
-12926 12929 0
-12920 -12926 12930 0
-12927 12930 0
-12920 -12927 0
-12921 12931 0
-12928 12931 0
-12921 -12928 12932 0
-12929 12932 0
-12921 -12929 12933 0
-12930 12933 0
-12921 -12930 0
-12922 12934 0
-12931 12934 0
-12922 -12931 12935 0
-12932 12935 0
-12922 -12932 12936 0
-12933 12936 0
-12922 -12933 0
-12923 12937 0
-12934 12937 0
-12923 -12934 12938 0
-12935 12938 0
-12923 -12935 12939 0
-12936 12939 0
-12923 -12936 0
-12924 -12939 0
-12943 9 10 11 12 0
-9 12943 0
-10 12943 0
-11 12943 0
-12 12943 0
-12944 65 66 67 68 0
-65 12944 0
-66 12944 0
-67 12944 0
-68 12944 0
-12945 121 122 123 124 0
-121 12945 0
-122 12945 0
-123 12945 0
-124 12945 0
-12946 177 178 179 180 0
-177 12946 0
-178 12946 0
-179 12946 0
-180 12946 0
-12947 233 234 235 236 0
-233 12947 0
-234 12947 0
-235 12947 0
-236 12947 0
-12948 289 290 291 292 0
-289 12948 0
-290 12948 0
-291 12948 0
-292 12948 0
-12943 12949 0
-12950 0
-12951 0
-12952 0
-12944 12953 0
-12949 12953 0
-12944 -12949 12954 0
-12950 12954 0
-12944 -12950 12955 0
-12951 12955 0
-12944 -12951 12956 0
-12952 12956 0
-12944 -12952 0
-12945 12957 0
-12953 12957 0
-12945 -12953 12958 0
-12954 12958 0
-12945 -12954 12959 0
-12955 12959 0
-12945 -12955 12960 0
-12956 12960 0
-12945 -12956 0
-12946 12961 0
-12957 12961 0
-12946 -12957 12962 0
-12958 12962 0
-12946 -12958 12963 0
-12959 12963 0
-12946 -12959 12964 0
-12960 12964 0
-12946 -12960 0
-12947 12965 0
-12961 12965 0
-12947 -12961 12966 0
-12962 12966 0
-12947 -12962 12967 0
-12963 12967 0
-12947 -12963 12968 0
-12964 12968 0
-12947 -12964 0
-12948 -12968 0
-12973 9 10 11 12 13 0
-9 12973 0
-10 12973 0
-11 12973 0
-12 12973 0
-13 12973 0
-12974 65 66 67 68 69 0
-65 12974 0
-66 12974 0
-67 12974 0
-68 12974 0
-69 12974 0
-12975 121 122 123 124 125 0
-121 12975 0
-122 12975 0
-123 12975 0
-124 12975 0
-125 12975 0
-12976 177 178 179 180 181 0
-177 12976 0
-178 12976 0
-179 12976 0
-180 12976 0
-181 12976 0
-12977 233 234 235 236 237 0
-233 12977 0
-234 12977 0
-235 12977 0
-236 12977 0
-237 12977 0
-12978 289 290 291 292 293 0
-289 12978 0
-290 12978 0
-291 12978 0
-292 12978 0
-293 12978 0
-12973 12979 0
-12980 0
-12981 0
-12982 0
-12983 0
-12974 12984 0
-12979 12984 0
-12974 -12979 12985 0
-12980 12985 0
-12974 -12980 12986 0
-12981 12986 0
-12974 -12981 12987 0
-12982 12987 0
-12974 -12982 12988 0
-12983 12988 0
-12974 -12983 0
-12975 12989 0
-12984 12989 0
-12975 -12984 12990 0
-12985 12990 0
-12975 -12985 12991 0
-12986 12991 0
-12975 -12986 12992 0
-12987 12992 0
-12975 -12987 12993 0
-12988 12993 0
-12975 -12988 0
-12976 12994 0
-12989 12994 0
-12976 -12989 12995 0
-12990 12995 0
-12976 -12990 12996 0
-12991 12996 0
-12976 -12991 12997 0
-12992 12997 0
-12976 -12992 12998 0
-12993 12998 0
-12976 -12993 0
-12977 12999 0
-12994 12999 0
-12977 -12994 13000 0
-12995 13000 0
-12977 -12995 13001 0
-12996 13001 0
-12977 -12996 13002 0
-12997 13002 0
-12977 -12997 13003 0
-12998 13003 0
-12977 -12998 0
-12978 -13003 0
-13009 9 10 11 12 13 14 0
-9 13009 0
-10 13009 0
-11 13009 0
-12 13009 0
-13 13009 0
-14 13009 0
-13010 65 66 67 68 69 70 0
-65 13010 0
-66 13010 0
-67 13010 0
-68 13010 0
-69 13010 0
-70 13010 0
-13011 121 122 123 124 125 126 0
-121 13011 0
-122 13011 0
-123 13011 0
-124 13011 0
-125 13011 0
-126 13011 0
-13012 177 178 179 180 181 182 0
-177 13012 0
-178 13012 0
-179 13012 0
-180 13012 0
-181 13012 0
-182 13012 0
-13013 233 234 235 236 237 238 0
-233 13013 0
-234 13013 0
-235 13013 0
-236 13013 0
-237 13013 0
-238 13013 0
-13014 289 290 291 292 293 294 0
-289 13014 0
-290 13014 0
-291 13014 0
-292 13014 0
-293 13014 0
-294 13014 0
-13015 10 0
-10 13015 0
-13016 66 0
-66 13016 0
-13017 122 0
-122 13017 0
-13018 178 0
-178 13018 0
-13019 234 0
-234 13019 0
-13020 290 0
-290 13020 0
-13015 13021 0
-13016 13022 0
-13021 13022 0
-13016 -13021 0
-13017 13023 0
-13022 13023 0
-13017 -13022 0
-13018 13024 0
-13023 13024 0
-13018 -13023 0
-13019 13025 0
-13024 13025 0
-13019 -13024 0
-13020 -13025 0
-13027 10 11 0
-10 13027 0
-11 13027 0
-13028 66 67 0
-66 13028 0
-67 13028 0
-13029 122 123 0
-122 13029 0
-123 13029 0
-13030 178 179 0
-178 13030 0
-179 13030 0
-13031 234 235 0
-234 13031 0
-235 13031 0
-13032 290 291 0
-290 13032 0
-291 13032 0
-13027 13033 0
-13034 0
-13028 13035 0
-13033 13035 0
-13028 -13033 13036 0
-13034 13036 0
-13028 -13034 0
-13029 13037 0
-13035 13037 0
-13029 -13035 13038 0
-13036 13038 0
-13029 -13036 0
-13030 13039 0
-13037 13039 0
-13030 -13037 13040 0
-13038 13040 0
-13030 -13038 0
-13031 13041 0
-13039 13041 0
-13031 -13039 13042 0
-13040 13042 0
-13031 -13040 0
-13032 -13042 0
-13045 10 11 12 0
-10 13045 0
-11 13045 0
-12 13045 0
-13046 66 67 68 0
-66 13046 0
-67 13046 0
-68 13046 0
-13047 122 123 124 0
-122 13047 0
-123 13047 0
-124 13047 0
-13048 178 179 180 0
-178 13048 0
-179 13048 0
-180 13048 0
-13049 234 235 236 0
-234 13049 0
-235 13049 0
-236 13049 0
-13050 290 291 292 0
-290 13050 0
-291 13050 0
-292 13050 0
-13045 13051 0
-13052 0
-13053 0
-13046 13054 0
-13051 13054 0
-13046 -13051 13055 0
-13052 13055 0
-13046 -13052 13056 0
-13053 13056 0
-13046 -13053 0
-13047 13057 0
-13054 13057 0
-13047 -13054 13058 0
-13055 13058 0
-13047 -13055 13059 0
-13056 13059 0
-13047 -13056 0
-13048 13060 0
-13057 13060 0
-13048 -13057 13061 0
-13058 13061 0
-13048 -13058 13062 0
-13059 13062 0
-13048 -13059 0
-13049 13063 0
-13060 13063 0
-13049 -13060 13064 0
-13061 13064 0
-13049 -13061 13065 0
-13062 13065 0
-13049 -13062 0
-13050 -13065 0
-13069 10 11 12 13 0
-10 13069 0
-11 13069 0
-12 13069 0
-13 13069 0
-13070 66 67 68 69 0
-66 13070 0
-67 13070 0
-68 13070 0
-69 13070 0
-13071 122 123 124 125 0
-122 13071 0
-123 13071 0
-124 13071 0
-125 13071 0
-13072 178 179 180 181 0
-178 13072 0
-179 13072 0
-180 13072 0
-181 13072 0
-13073 234 235 236 237 0
-234 13073 0
-235 13073 0
-236 13073 0
-237 13073 0
-13074 290 291 292 293 0
-290 13074 0
-291 13074 0
-292 13074 0
-293 13074 0
-13069 13075 0
-13076 0
-13077 0
-13078 0
-13070 13079 0
-13075 13079 0
-13070 -13075 13080 0
-13076 13080 0
-13070 -13076 13081 0
-13077 13081 0
-13070 -13077 13082 0
-13078 13082 0
-13070 -13078 0
-13071 13083 0
-13079 13083 0
-13071 -13079 13084 0
-13080 13084 0
-13071 -13080 13085 0
-13081 13085 0
-13071 -13081 13086 0
-13082 13086 0
-13071 -13082 0
-13072 13087 0
-13083 13087 0
-13072 -13083 13088 0
-13084 13088 0
-13072 -13084 13089 0
-13085 13089 0
-13072 -13085 13090 0
-13086 13090 0
-13072 -13086 0
-13073 13091 0
-13087 13091 0
-13073 -13087 13092 0
-13088 13092 0
-13073 -13088 13093 0
-13089 13093 0
-13073 -13089 13094 0
-13090 13094 0
-13073 -13090 0
-13074 -13094 0
-13099 10 11 12 13 14 0
-10 13099 0
-11 13099 0
-12 13099 0
-13 13099 0
-14 13099 0
-13100 66 67 68 69 70 0
-66 13100 0
-67 13100 0
-68 13100 0
-69 13100 0
-70 13100 0
-13101 122 123 124 125 126 0
-122 13101 0
-123 13101 0
-124 13101 0
-125 13101 0
-126 13101 0
-13102 178 179 180 181 182 0
-178 13102 0
-179 13102 0
-180 13102 0
-181 13102 0
-182 13102 0
-13103 234 235 236 237 238 0
-234 13103 0
-235 13103 0
-236 13103 0
-237 13103 0
-238 13103 0
-13104 290 291 292 293 294 0
-290 13104 0
-291 13104 0
-292 13104 0
-293 13104 0
-294 13104 0
-13099 13105 0
-13106 0
-13107 0
-13108 0
-13109 0
-13100 13110 0
-13105 13110 0
-13100 -13105 13111 0
-13106 13111 0
-13100 -13106 13112 0
-13107 13112 0
-13100 -13107 13113 0
-13108 13113 0
-13100 -13108 13114 0
-13109 13114 0
-13100 -13109 0
-13101 13115 0
-13110 13115 0
-13101 -13110 13116 0
-13111 13116 0
-13101 -13111 13117 0
-13112 13117 0
-13101 -13112 13118 0
-13113 13118 0
-13101 -13113 13119 0
-13114 13119 0
-13101 -13114 0
-13102 13120 0
-13115 13120 0
-13102 -13115 13121 0
-13116 13121 0
-13102 -13116 13122 0
-13117 13122 0
-13102 -13117 13123 0
-13118 13123 0
-13102 -13118 13124 0
-13119 13124 0
-13102 -13119 0
-13103 13125 0
-13120 13125 0
-13103 -13120 13126 0
-13121 13126 0
-13103 -13121 13127 0
-13122 13127 0
-13103 -13122 13128 0
-13123 13128 0
-13103 -13123 13129 0
-13124 13129 0
-13103 -13124 0
-13104 -13129 0
-13135 11 0
-11 13135 0
-13136 67 0
-67 13136 0
-13137 123 0
-123 13137 0
-13138 179 0
-179 13138 0
-13139 235 0
-235 13139 0
-13140 291 0
-291 13140 0
-13135 13141 0
-13136 13142 0
-13141 13142 0
-13136 -13141 0
-13137 13143 0
-13142 13143 0
-13137 -13142 0
-13138 13144 0
-13143 13144 0
-13138 -13143 0
-13139 13145 0
-13144 13145 0
-13139 -13144 0
-13140 -13145 0
-13147 11 12 0
-11 13147 0
-12 13147 0
-13148 67 68 0
-67 13148 0
-68 13148 0
-13149 123 124 0
-123 13149 0
-124 13149 0
-13150 179 180 0
-179 13150 0
-180 13150 0
-13151 235 236 0
-235 13151 0
-236 13151 0
-13152 291 292 0
-291 13152 0
-292 13152 0
-13147 13153 0
-13154 0
-13148 13155 0
-13153 13155 0
-13148 -13153 13156 0
-13154 13156 0
-13148 -13154 0
-13149 13157 0
-13155 13157 0
-13149 -13155 13158 0
-13156 13158 0
-13149 -13156 0
-13150 13159 0
-13157 13159 0
-13150 -13157 13160 0
-13158 13160 0
-13150 -13158 0
-13151 13161 0
-13159 13161 0
-13151 -13159 13162 0
-13160 13162 0
-13151 -13160 0
-13152 -13162 0
-13165 11 12 13 0
-11 13165 0
-12 13165 0
-13 13165 0
-13166 67 68 69 0
-67 13166 0
-68 13166 0
-69 13166 0
-13167 123 124 125 0
-123 13167 0
-124 13167 0
-125 13167 0
-13168 179 180 181 0
-179 13168 0
-180 13168 0
-181 13168 0
-13169 235 236 237 0
-235 13169 0
-236 13169 0
-237 13169 0
-13170 291 292 293 0
-291 13170 0
-292 13170 0
-293 13170 0
-13165 13171 0
-13172 0
-13173 0
-13166 13174 0
-13171 13174 0
-13166 -13171 13175 0
-13172 13175 0
-13166 -13172 13176 0
-13173 13176 0
-13166 -13173 0
-13167 13177 0
-13174 13177 0
-13167 -13174 13178 0
-13175 13178 0
-13167 -13175 13179 0
-13176 13179 0
-13167 -13176 0
-13168 13180 0
-13177 13180 0
-13168 -13177 13181 0
-13178 13181 0
-13168 -13178 13182 0
-13179 13182 0
-13168 -13179 0
-13169 13183 0
-13180 13183 0
-13169 -13180 13184 0
-13181 13184 0
-13169 -13181 13185 0
-13182 13185 0
-13169 -13182 0
-13170 -13185 0
-13189 11 12 13 14 0
-11 13189 0
-12 13189 0
-13 13189 0
-14 13189 0
-13190 67 68 69 70 0
-67 13190 0
-68 13190 0
-69 13190 0
-70 13190 0
-13191 123 124 125 126 0
-123 13191 0
-124 13191 0
-125 13191 0
-126 13191 0
-13192 179 180 181 182 0
-179 13192 0
-180 13192 0
-181 13192 0
-182 13192 0
-13193 235 236 237 238 0
-235 13193 0
-236 13193 0
-237 13193 0
-238 13193 0
-13194 291 292 293 294 0
-291 13194 0
-292 13194 0
-293 13194 0
-294 13194 0
-13189 13195 0
-13196 0
-13197 0
-13198 0
-13190 13199 0
-13195 13199 0
-13190 -13195 13200 0
-13196 13200 0
-13190 -13196 13201 0
-13197 13201 0
-13190 -13197 13202 0
-13198 13202 0
-13190 -13198 0
-13191 13203 0
-13199 13203 0
-13191 -13199 13204 0
-13200 13204 0
-13191 -13200 13205 0
-13201 13205 0
-13191 -13201 13206 0
-13202 13206 0
-13191 -13202 0
-13192 13207 0
-13203 13207 0
-13192 -13203 13208 0
-13204 13208 0
-13192 -13204 13209 0
-13205 13209 0
-13192 -13205 13210 0
-13206 13210 0
-13192 -13206 0
-13193 13211 0
-13207 13211 0
-13193 -13207 13212 0
-13208 13212 0
-13193 -13208 13213 0
-13209 13213 0
-13193 -13209 13214 0
-13210 13214 0
-13193 -13210 0
-13194 -13214 0
-13219 12 0
-12 13219 0
-13220 68 0
-68 13220 0
-13221 124 0
-124 13221 0
-13222 180 0
-180 13222 0
-13223 236 0
-236 13223 0
-13224 292 0
-292 13224 0
-13219 13225 0
-13220 13226 0
-13225 13226 0
-13220 -13225 0
-13221 13227 0
-13226 13227 0
-13221 -13226 0
-13222 13228 0
-13227 13228 0
-13222 -13227 0
-13223 13229 0
-13228 13229 0
-13223 -13228 0
-13224 -13229 0
-13231 12 13 0
-12 13231 0
-13 13231 0
-13232 68 69 0
-68 13232 0
-69 13232 0
-13233 124 125 0
-124 13233 0
-125 13233 0
-13234 180 181 0
-180 13234 0
-181 13234 0
-13235 236 237 0
-236 13235 0
-237 13235 0
-13236 292 293 0
-292 13236 0
-293 13236 0
-13231 13237 0
-13238 0
-13232 13239 0
-13237 13239 0
-13232 -13237 13240 0
-13238 13240 0
-13232 -13238 0
-13233 13241 0
-13239 13241 0
-13233 -13239 13242 0
-13240 13242 0
-13233 -13240 0
-13234 13243 0
-13241 13243 0
-13234 -13241 13244 0
-13242 13244 0
-13234 -13242 0
-13235 13245 0
-13243 13245 0
-13235 -13243 13246 0
-13244 13246 0
-13235 -13244 0
-13236 -13246 0
-13249 12 13 14 0
-12 13249 0
-13 13249 0
-14 13249 0
-13250 68 69 70 0
-68 13250 0
-69 13250 0
-70 13250 0
-13251 124 125 126 0
-124 13251 0
-125 13251 0
-126 13251 0
-13252 180 181 182 0
-180 13252 0
-181 13252 0
-182 13252 0
-13253 236 237 238 0
-236 13253 0
-237 13253 0
-238 13253 0
-13254 292 293 294 0
-292 13254 0
-293 13254 0
-294 13254 0
-13249 13255 0
-13256 0
-13257 0
-13250 13258 0
-13255 13258 0
-13250 -13255 13259 0
-13256 13259 0
-13250 -13256 13260 0
-13257 13260 0
-13250 -13257 0
-13251 13261 0
-13258 13261 0
-13251 -13258 13262 0
-13259 13262 0
-13251 -13259 13263 0
-13260 13263 0
-13251 -13260 0
-13252 13264 0
-13261 13264 0
-13252 -13261 13265 0
-13262 13265 0
-13252 -13262 13266 0
-13263 13266 0
-13252 -13263 0
-13253 13267 0
-13264 13267 0
-13253 -13264 13268 0
-13265 13268 0
-13253 -13265 13269 0
-13266 13269 0
-13253 -13266 0
-13254 -13269 0
-13273 13 0
-13 13273 0
-13274 69 0
-69 13274 0
-13275 125 0
-125 13275 0
-13276 181 0
-181 13276 0
-13277 237 0
-237 13277 0
-13278 293 0
-293 13278 0
-13273 13279 0
-13274 13280 0
-13279 13280 0
-13274 -13279 0
-13275 13281 0
-13280 13281 0
-13275 -13280 0
-13276 13282 0
-13281 13282 0
-13276 -13281 0
-13277 13283 0
-13282 13283 0
-13277 -13282 0
-13278 -13283 0
-13285 13 14 0
-13 13285 0
-14 13285 0
-13286 69 70 0
-69 13286 0
-70 13286 0
-13287 125 126 0
-125 13287 0
-126 13287 0
-13288 181 182 0
-181 13288 0
-182 13288 0
-13289 237 238 0
-237 13289 0
-238 13289 0
-13290 293 294 0
-293 13290 0
-294 13290 0
-13285 13291 0
-13292 0
-13286 13293 0
-13291 13293 0
-13286 -13291 13294 0
-13292 13294 0
-13286 -13292 0
-13287 13295 0
-13293 13295 0
-13287 -13293 13296 0
-13294 13296 0
-13287 -13294 0
-13288 13297 0
-13295 13297 0
-13288 -13295 13298 0
-13296 13298 0
-13288 -13296 0
-13289 13299 0
-13297 13299 0
-13289 -13297 13300 0
-13298 13300 0
-13289 -13298 0
-13290 -13300 0
-13303 14 0
-14 13303 0
-13304 70 0
-70 13304 0
-13305 126 0
-126 13305 0
-13306 182 0
-182 13306 0
-13307 238 0
-238 13307 0
-13308 294 0
-294 13308 0
-13303 13309 0
-13304 13310 0
-13309 13310 0
-13304 -13309 0
-13305 13311 0
-13310 13311 0
-13305 -13310 0
-13306 13312 0
-13311 13312 0
-13306 -13311 0
-13307 13313 0
-13312 13313 0
-13307 -13312 0
-13308 -13313 0
-13315 13322 0
-13316 13323 0
-13322 13323 0
-13316 -13322 0
-13317 13324 0
-13323 13324 0
-13317 -13323 0
-13318 13325 0
-13324 13325 0
-13318 -13324 0
-13319 13326 0
-13325 13326 0
-13319 -13325 0
-13320 13327 0
-13326 13327 0
-13320 -13326 0
-13321 -13327 0
13315 13329 0
-13330 0
-13331 0
-13332 0
-13333 0
-13334 0
13316 13335 0
-13329 13335 0
13316 -13329 13336 0
-13330 13336 0
13316 -13330 13337 0
-13331 13337 0
13316 -13331 13338 0
-13332 13338 0
13316 -13332 13339 0
-13333 13339 0
13316 -13333 13340 0
-13334 13340 0
13316 -13334 0
13317 13341 0
-13335 13341 0
13317 -13335 13342 0
-13336 13342 0
13317 -13336 13343 0
-13337 13343 0
13317 -13337 13344 0
-13338 13344 0
13317 -13338 13345 0
-13339 13345 0
13317 -13339 13346 0
-13340 13346 0
13317 -13340 0
13318 13347 0
-13341 13347 0
13318 -13341 13348 0
-13342 13348 0
13318 -13342 13349 0
-13343 13349 0
13318 -13343 13350 0
-13344 13350 0
13318 -13344 13351 0
-13345 13351 0
13318 -13345 13352 0
-13346 13352 0
13318 -13346 0
13319 13353 0
-13347 13353 0
13319 -13347 13354 0
-13348 13354 0
13319 -13348 13355 0
-13349 13355 0
13319 -13349 13356 0
-13350 13356 0
13319 -13350 13357 0
-13351 13357 0
13319 -13351 13358 0
-13352 13358 0
13319 -13352 0
13320 13359 0
-13353 13359 0
13320 -13353 13360 0
-13354 13360 0
13320 -13354 13361 0
-13355 13361 0
13320 -13355 13362 0
-13356 13362 0
13320 -13356 13363 0
-13357 13363 0
13320 -13357 13364 0
-13358 13364 0
13320 -13358 0
13321 -13364 0
-8 13371 0
-64 13372 0
-13371 13372 0
-64 -13371 0
-120 13373 0
-13372 13373 0
-120 -13372 0
-176 13374 0
-13373 13374 0
-176 -13373 0
-232 13375 0
-13374 13375 0
-232 -13374 0
-288 13376 0
-13375 13376 0
-288 -13375 0
-13315 -13376 0
8 64 120 176 232 288 13315 0
-9 13378 0
-65 13379 0
-13378 13379 0
-65 -13378 0
-121 13380 0
-13379 13380 0
-121 -13379 0
-177 13381 0
-13380 13381 0
-177 -13380 0
-233 13382 0
-13381 13382 0
-233 -13381 0
-289 13383 0
-13382 13383 0
-289 -13382 0
-13316 -13383 0
9 65 121 177 233 289 13316 0
-10 13385 0
-66 13386 0
-13385 13386 0
-66 -13385 0
-122 13387 0
-13386 13387 0
-122 -13386 0
-178 13388 0
-13387 13388 0
-178 -13387 0
-234 13389 0
-13388 13389 0
-234 -13388 0
-290 13390 0
-13389 13390 0
-290 -13389 0
-13317 -13390 0
10 66 122 178 234 290 13317 0
-11 13392 0
-67 13393 0
-13392 13393 0
-67 -13392 0
-123 13394 0
-13393 13394 0
-123 -13393 0
-179 13395 0
-13394 13395 0
-179 -13394 0
-235 13396 0
-13395 13396 0
-235 -13395 0
-291 13397 0
-13396 13397 0
-291 -13396 0
-13318 -13397 0
11 67 123 179 235 291 13318 0
-12 13399 0
-68 13400 0
-13399 13400 0
-68 -13399 0
-124 13401 0
-13400 13401 0
-124 -13400 0
-180 13402 0
-13401 13402 0
-180 -13401 0
-236 13403 0
-13402 13403 0
-236 -13402 0
-292 13404 0
-13403 13404 0
-292 -13403 0
-13319 -13404 0
12 68 124 180 236 292 13319 0
-13 13406 0
-69 13407 0
-13406 13407 0
-69 -13406 0
-125 13408 0
-13407 13408 0
-125 -13407 0
-181 13409 0
-13408 13409 0
-181 -13408 0
-237 13410 0
-13409 13410 0
-237 -13409 0
-293 13411 0
-13410 13411 0
-293 -13410 0
-13320 -13411 0
13 69 125 181 237 293 13320 0
-14 13413 0
-70 13414 0
-13413 13414 0
-70 -13413 0
-126 13415 0
-13414 13415 0
-126 -13414 0
-182 13416 0
-13415 13416 0
-182 -13415 0
-238 13417 0
-13416 13417 0
-238 -13416 0
-294 13418 0
-13417 13418 0
-294 -13417 0
-13321 -13418 0
14 70 126 182 238 294 13321 0
-13420 1 0
-1 13420 0
-13421 57 0
-57 13421 0
-13422 113 0
-113 13422 0
-13423 169 0
-169 13423 0
-13424 225 0
-225 13424 0
-13425 281 0
-281 13425 0
-13426 337 0
-337 13426 0
-13420 13427 0
-13421 13428 0
-13427 13428 0
-13421 -13427 0
-13422 13429 0
-13428 13429 0
-13422 -13428 0
-13423 13430 0
-13429 13430 0
-13423 -13429 0
-13424 13431 0
-13430 13431 0
-13424 -13430 0
-13425 13432 0
-13431 13432 0
-13425 -13431 0
-13426 -13432 0
-13434 1 2 0
-1 13434 0
-2 13434 0
-13435 57 58 0
-57 13435 0
-58 13435 0
-13436 113 114 0
-113 13436 0
-114 13436 0
-13437 169 170 0
-169 13437 0
-170 13437 0
-13438 225 226 0
-225 13438 0
-226 13438 0
-13439 281 282 0
-281 13439 0
-282 13439 0
-13440 337 338 0
-337 13440 0
-338 13440 0
-13434 13441 0
-13442 0
-13435 13443 0
-13441 13443 0
-13435 -13441 13444 0
-13442 13444 0
-13435 -13442 0
-13436 13445 0
-13443 13445 0
-13436 -13443 13446 0
-13444 13446 0
-13436 -13444 0
-13437 13447 0
-13445 13447 0
-13437 -13445 13448 0
-13446 13448 0
-13437 -13446 0
-13438 13449 0
-13447 13449 0
-13438 -13447 13450 0
-13448 13450 0
-13438 -13448 0
-13439 13451 0
-13449 13451 0
-13439 -13449 13452 0
-13450 13452 0
-13439 -13450 0
-13440 -13452 0
-13455 1 2 3 0
-1 13455 0
-2 13455 0
-3 13455 0
-13456 57 58 59 0
-57 13456 0
-58 13456 0
-59 13456 0
-13457 113 114 115 0
-113 13457 0
-114 13457 0
-115 13457 0
-13458 169 170 171 0
-169 13458 0
-170 13458 0
-171 13458 0
-13459 225 226 227 0
-225 13459 0
-226 13459 0
-227 13459 0
-13460 281 282 283 0
-281 13460 0
-282 13460 0
-283 13460 0
-13461 337 338 339 0
-337 13461 0
-338 13461 0
-339 13461 0
-13455 13462 0
-13463 0
-13464 0
-13456 13465 0
-13462 13465 0
-13456 -13462 13466 0
-13463 13466 0
-13456 -13463 13467 0
-13464 13467 0
-13456 -13464 0
-13457 13468 0
-13465 13468 0
-13457 -13465 13469 0
-13466 13469 0
-13457 -13466 13470 0
-13467 13470 0
-13457 -13467 0
-13458 13471 0
-13468 13471 0
-13458 -13468 13472 0
-13469 13472 0
-13458 -13469 13473 0
-13470 13473 0
-13458 -13470 0
-13459 13474 0
-13471 13474 0
-13459 -13471 13475 0
-13472 13475 0
-13459 -13472 13476 0
-13473 13476 0
-13459 -13473 0
-13460 13477 0
-13474 13477 0
-13460 -13474 13478 0
-13475 13478 0
-13460 -13475 13479 0
-13476 13479 0
-13460 -13476 0
-13461 -13479 0
-13483 1 2 3 4 0
-1 13483 0
-2 13483 0
-3 13483 0
-4 13483 0
-13484 57 58 59 60 0
-57 13484 0
-58 13484 0
-59 13484 0
-60 13484 0
-13485 113 114 115 116 0
-113 13485 0
-114 13485 0
-115 13485 0
-116 13485 0
-13486 169 170 171 172 0
-169 13486 0
-170 13486 0
-171 13486 0
-172 13486 0
-13487 225 226 227 228 0
-225 13487 0
-226 13487 0
-227 13487 0
-228 13487 0
-13488 281 282 283 284 0
-281 13488 0
-282 13488 0
-283 13488 0
-284 13488 0
-13489 337 338 339 340 0
-337 13489 0
-338 13489 0
-339 13489 0
-340 13489 0
-13483 13490 0
-13491 0
-13492 0
-13493 0
-13484 13494 0
-13490 13494 0
-13484 -13490 13495 0
-13491 13495 0
-13484 -13491 13496 0
-13492 13496 0
-13484 -13492 13497 0
-13493 13497 0
-13484 -13493 0
-13485 13498 0
-13494 13498 0
-13485 -13494 13499 0
-13495 13499 0
-13485 -13495 13500 0
-13496 13500 0
-13485 -13496 13501 0
-13497 13501 0
-13485 -13497 0
-13486 13502 0
-13498 13502 0
-13486 -13498 13503 0
-13499 13503 0
-13486 -13499 13504 0
-13500 13504 0
-13486 -13500 13505 0
-13501 13505 0
-13486 -13501 0
-13487 13506 0
-13502 13506 0
-13487 -13502 13507 0
-13503 13507 0
-13487 -13503 13508 0
-13504 13508 0
-13487 -13504 13509 0
-13505 13509 0
-13487 -13505 0
-13488 13510 0
-13506 13510 0
-13488 -13506 13511 0
-13507 13511 0
-13488 -13507 13512 0
-13508 13512 0
-13488 -13508 13513 0
-13509 13513 0
-13488 -13509 0
-13489 -13513 0
-13518 1 2 3 4 5 0
-1 13518 0
-2 13518 0
-3 13518 0
-4 13518 0
-5 13518 0
-13519 57 58 59 60 61 0
-57 13519 0
-58 13519 0
-59 13519 0
-60 13519 0
-61 13519 0
-13520 113 114 115 116 117 0
-113 13520 0
-114 13520 0
-115 13520 0
-116 13520 0
-117 13520 0
-13521 169 170 171 172 173 0
-169 13521 0
-170 13521 0
-171 13521 0
-172 13521 0
-173 13521 0
-13522 225 226 227 228 229 0
-225 13522 0
-226 13522 0
-227 13522 0
-228 13522 0
-229 13522 0
-13523 281 282 283 284 285 0
-281 13523 0
-282 13523 0
-283 13523 0
-284 13523 0
-285 13523 0
-13524 337 338 339 340 341 0
-337 13524 0
-338 13524 0
-339 13524 0
-340 13524 0
-341 13524 0
-13518 13525 0
-13526 0
-13527 0
-13528 0
-13529 0
-13519 13530 0
-13525 13530 0
-13519 -13525 13531 0
-13526 13531 0
-13519 -13526 13532 0
-13527 13532 0
-13519 -13527 13533 0
-13528 13533 0
-13519 -13528 13534 0
-13529 13534 0
-13519 -13529 0
-13520 13535 0
-13530 13535 0
-13520 -13530 13536 0
-13531 13536 0
-13520 -13531 13537 0
-13532 13537 0
-13520 -13532 13538 0
-13533 13538 0
-13520 -13533 13539 0
-13534 13539 0
-13520 -13534 0
-13521 13540 0
-13535 13540 0
-13521 -13535 13541 0
-13536 13541 0
-13521 -13536 13542 0
-13537 13542 0
-13521 -13537 13543 0
-13538 13543 0
-13521 -13538 13544 0
-13539 13544 0
-13521 -13539 0
-13522 13545 0
-13540 13545 0
-13522 -13540 13546 0
-13541 13546 0
-13522 -13541 13547 0
-13542 13547 0
-13522 -13542 13548 0
-13543 13548 0
-13522 -13543 13549 0
-13544 13549 0
-13522 -13544 0
-13523 13550 0
-13545 13550 0
-13523 -13545 13551 0
-13546 13551 0
-13523 -13546 13552 0
-13547 13552 0
-13523 -13547 13553 0
-13548 13553 0
-13523 -13548 13554 0
-13549 13554 0
-13523 -13549 0
-13524 -13554 0
-13560 1 2 3 4 5 6 0
-1 13560 0
-2 13560 0
-3 13560 0
-4 13560 0
-5 13560 0
-6 13560 0
-13561 57 58 59 60 61 62 0
-57 13561 0
-58 13561 0
-59 13561 0
-60 13561 0
-61 13561 0
-62 13561 0
-13562 113 114 115 116 117 118 0
-113 13562 0
-114 13562 0
-115 13562 0
-116 13562 0
-117 13562 0
-118 13562 0
-13563 169 170 171 172 173 174 0
-169 13563 0
-170 13563 0
-171 13563 0
-172 13563 0
-173 13563 0
-174 13563 0
-13564 225 226 227 228 229 230 0
-225 13564 0
-226 13564 0
-227 13564 0
-228 13564 0
-229 13564 0
-230 13564 0
-13565 281 282 283 284 285 286 0
-281 13565 0
-282 13565 0
-283 13565 0
-284 13565 0
-285 13565 0
-286 13565 0
-13566 337 338 339 340 341 342 0
-337 13566 0
-338 13566 0
-339 13566 0
-340 13566 0
-341 13566 0
-342 13566 0
-13560 13567 0
-13568 0
-13569 0
-13570 0
-13571 0
-13572 0
-13561 13573 0
-13567 13573 0
-13561 -13567 13574 0
-13568 13574 0
-13561 -13568 13575 0
-13569 13575 0
-13561 -13569 13576 0
-13570 13576 0
-13561 -13570 13577 0
-13571 13577 0
-13561 -13571 13578 0
-13572 13578 0
-13561 -13572 0
-13562 13579 0
-13573 13579 0
-13562 -13573 13580 0
-13574 13580 0
-13562 -13574 13581 0
-13575 13581 0
-13562 -13575 13582 0
-13576 13582 0
-13562 -13576 13583 0
-13577 13583 0
-13562 -13577 13584 0
-13578 13584 0
-13562 -13578 0
-13563 13585 0
-13579 13585 0
-13563 -13579 13586 0
-13580 13586 0
-13563 -13580 13587 0
-13581 13587 0
-13563 -13581 13588 0
-13582 13588 0
-13563 -13582 13589 0
-13583 13589 0
-13563 -13583 13590 0
-13584 13590 0
-13563 -13584 0
-13564 13591 0
-13585 13591 0
-13564 -13585 13592 0
-13586 13592 0
-13564 -13586 13593 0
-13587 13593 0
-13564 -13587 13594 0
-13588 13594 0
-13564 -13588 13595 0
-13589 13595 0
-13564 -13589 13596 0
-13590 13596 0
-13564 -13590 0
-13565 13597 0
-13591 13597 0
-13565 -13591 13598 0
-13592 13598 0
-13565 -13592 13599 0
-13593 13599 0
-13565 -13593 13600 0
-13594 13600 0
-13565 -13594 13601 0
-13595 13601 0
-13565 -13595 13602 0
-13596 13602 0
-13565 -13596 0
-13566 -13602 0
-13609 1 2 3 4 5 6 7 0
-1 13609 0
-2 13609 0
-3 13609 0
-4 13609 0
-5 13609 0
-6 13609 0
-7 13609 0
-13610 57 58 59 60 61 62 63 0
-57 13610 0
-58 13610 0
-59 13610 0
-60 13610 0
-61 13610 0
-62 13610 0
-63 13610 0
-13611 113 114 115 116 117 118 119 0
-113 13611 0
-114 13611 0
-115 13611 0
-116 13611 0
-117 13611 0
-118 13611 0
-119 13611 0
-13612 169 170 171 172 173 174 175 0
-169 13612 0
-170 13612 0
-171 13612 0
-172 13612 0
-173 13612 0
-174 13612 0
-175 13612 0
-13613 225 226 227 228 229 230 231 0
-225 13613 0
-226 13613 0
-227 13613 0
-228 13613 0
-229 13613 0
-230 13613 0
-231 13613 0
-13614 281 282 283 284 285 286 287 0
-281 13614 0
-282 13614 0
-283 13614 0
-284 13614 0
-285 13614 0
-286 13614 0
-287 13614 0
-13615 337 338 339 340 341 342 343 0
-337 13615 0
-338 13615 0
-339 13615 0
-340 13615 0
-341 13615 0
-342 13615 0
-343 13615 0
-13616 2 0
-2 13616 0
-13617 58 0
-58 13617 0
-13618 114 0
-114 13618 0
-13619 170 0
-170 13619 0
-13620 226 0
-226 13620 0
-13621 282 0
-282 13621 0
-13622 338 0
-338 13622 0
-13616 13623 0
-13617 13624 0
-13623 13624 0
-13617 -13623 0
-13618 13625 0
-13624 13625 0
-13618 -13624 0
-13619 13626 0
-13625 13626 0
-13619 -13625 0
-13620 13627 0
-13626 13627 0
-13620 -13626 0
-13621 13628 0
-13627 13628 0
-13621 -13627 0
-13622 -13628 0
-13630 2 3 0
-2 13630 0
-3 13630 0
-13631 58 59 0
-58 13631 0
-59 13631 0
-13632 114 115 0
-114 13632 0
-115 13632 0
-13633 170 171 0
-170 13633 0
-171 13633 0
-13634 226 227 0
-226 13634 0
-227 13634 0
-13635 282 283 0
-282 13635 0
-283 13635 0
-13636 338 339 0
-338 13636 0
-339 13636 0
-13630 13637 0
-13638 0
-13631 13639 0
-13637 13639 0
-13631 -13637 13640 0
-13638 13640 0
-13631 -13638 0
-13632 13641 0
-13639 13641 0
-13632 -13639 13642 0
-13640 13642 0
-13632 -13640 0
-13633 13643 0
-13641 13643 0
-13633 -13641 13644 0
-13642 13644 0
-13633 -13642 0
-13634 13645 0
-13643 13645 0
-13634 -13643 13646 0
-13644 13646 0
-13634 -13644 0
-13635 13647 0
-13645 13647 0
-13635 -13645 13648 0
-13646 13648 0
-13635 -13646 0
-13636 -13648 0
-13651 2 3 4 0
-2 13651 0
-3 13651 0
-4 13651 0
-13652 58 59 60 0
-58 13652 0
-59 13652 0
-60 13652 0
-13653 114 115 116 0
-114 13653 0
-115 13653 0
-116 13653 0
-13654 170 171 172 0
-170 13654 0
-171 13654 0
-172 13654 0
-13655 226 227 228 0
-226 13655 0
-227 13655 0
-228 13655 0
-13656 282 283 284 0
-282 13656 0
-283 13656 0
-284 13656 0
-13657 338 339 340 0
-338 13657 0
-339 13657 0
-340 13657 0
-13651 13658 0
-13659 0
-13660 0
-13652 13661 0
-13658 13661 0
-13652 -13658 13662 0
-13659 13662 0
-13652 -13659 13663 0
-13660 13663 0
-13652 -13660 0
-13653 13664 0
-13661 13664 0
-13653 -13661 13665 0
-13662 13665 0
-13653 -13662 13666 0
-13663 13666 0
-13653 -13663 0
-13654 13667 0
-13664 13667 0
-13654 -13664 13668 0
-13665 13668 0
-13654 -13665 13669 0
-13666 13669 0
-13654 -13666 0
-13655 13670 0
-13667 13670 0
-13655 -13667 13671 0
-13668 13671 0
-13655 -13668 13672 0
-13669 13672 0
-13655 -13669 0
-13656 13673 0
-13670 13673 0
-13656 -13670 13674 0
-13671 13674 0
-13656 -13671 13675 0
-13672 13675 0
-13656 -13672 0
-13657 -13675 0
-13679 2 3 4 5 0
-2 13679 0
-3 13679 0
-4 13679 0
-5 13679 0
-13680 58 59 60 61 0
-58 13680 0
-59 13680 0
-60 13680 0
-61 13680 0
-13681 114 115 116 117 0
-114 13681 0
-115 13681 0
-116 13681 0
-117 13681 0
-13682 170 171 172 173 0
-170 13682 0
-171 13682 0
-172 13682 0
-173 13682 0
-13683 226 227 228 229 0
-226 13683 0
-227 13683 0
-228 13683 0
-229 13683 0
-13684 282 283 284 285 0
-282 13684 0
-283 13684 0
-284 13684 0
-285 13684 0
-13685 338 339 340 341 0
-338 13685 0
-339 13685 0
-340 13685 0
-341 13685 0
-13679 13686 0
-13687 0
-13688 0
-13689 0
-13680 13690 0
-13686 13690 0
-13680 -13686 13691 0
-13687 13691 0
-13680 -13687 13692 0
-13688 13692 0
-13680 -13688 13693 0
-13689 13693 0
-13680 -13689 0
-13681 13694 0
-13690 13694 0
-13681 -13690 13695 0
-13691 13695 0
-13681 -13691 13696 0
-13692 13696 0
-13681 -13692 13697 0
-13693 13697 0
-13681 -13693 0
-13682 13698 0
-13694 13698 0
-13682 -13694 13699 0
-13695 13699 0
-13682 -13695 13700 0
-13696 13700 0
-13682 -13696 13701 0
-13697 13701 0
-13682 -13697 0
-13683 13702 0
-13698 13702 0
-13683 -13698 13703 0
-13699 13703 0
-13683 -13699 13704 0
-13700 13704 0
-13683 -13700 13705 0
-13701 13705 0
-13683 -13701 0
-13684 13706 0
-13702 13706 0
-13684 -13702 13707 0
-13703 13707 0
-13684 -13703 13708 0
-13704 13708 0
-13684 -13704 13709 0
-13705 13709 0
-13684 -13705 0
-13685 -13709 0
-13714 2 3 4 5 6 0
-2 13714 0
-3 13714 0
-4 13714 0
-5 13714 0
-6 13714 0
-13715 58 59 60 61 62 0
-58 13715 0
-59 13715 0
-60 13715 0
-61 13715 0
-62 13715 0
-13716 114 115 116 117 118 0
-114 13716 0
-115 13716 0
-116 13716 0
-117 13716 0
-118 13716 0
-13717 170 171 172 173 174 0
-170 13717 0
-171 13717 0
-172 13717 0
-173 13717 0
-174 13717 0
-13718 226 227 228 229 230 0
-226 13718 0
-227 13718 0
-228 13718 0
-229 13718 0
-230 13718 0
-13719 282 283 284 285 286 0
-282 13719 0
-283 13719 0
-284 13719 0
-285 13719 0
-286 13719 0
-13720 338 339 340 341 342 0
-338 13720 0
-339 13720 0
-340 13720 0
-341 13720 0
-342 13720 0
-13714 13721 0
-13722 0
-13723 0
-13724 0
-13725 0
-13715 13726 0
-13721 13726 0
-13715 -13721 13727 0
-13722 13727 0
-13715 -13722 13728 0
-13723 13728 0
-13715 -13723 13729 0
-13724 13729 0
-13715 -13724 13730 0
-13725 13730 0
-13715 -13725 0
-13716 13731 0
-13726 13731 0
-13716 -13726 13732 0
-13727 13732 0
-13716 -13727 13733 0
-13728 13733 0
-13716 -13728 13734 0
-13729 13734 0
-13716 -13729 13735 0
-13730 13735 0
-13716 -13730 0
-13717 13736 0
-13731 13736 0
-13717 -13731 13737 0
-13732 13737 0
-13717 -13732 13738 0
-13733 13738 0
-13717 -13733 13739 0
-13734 13739 0
-13717 -13734 13740 0
-13735 13740 0
-13717 -13735 0
-13718 13741 0
-13736 13741 0
-13718 -13736 13742 0
-13737 13742 0
-13718 -13737 13743 0
-13738 13743 0
-13718 -13738 13744 0
-13739 13744 0
-13718 -13739 13745 0
-13740 13745 0
-13718 -13740 0
-13719 13746 0
-13741 13746 0
-13719 -13741 13747 0
-13742 13747 0
-13719 -13742 13748 0
-13743 13748 0
-13719 -13743 13749 0
-13744 13749 0
-13719 -13744 13750 0
-13745 13750 0
-13719 -13745 0
-13720 -13750 0
-13756 2 3 4 5 6 7 0
-2 13756 0
-3 13756 0
-4 13756 0
-5 13756 0
-6 13756 0
-7 13756 0
-13757 58 59 60 61 62 63 0
-58 13757 0
-59 13757 0
-60 13757 0
-61 13757 0
-62 13757 0
-63 13757 0
-13758 114 115 116 117 118 119 0
-114 13758 0
-115 13758 0
-116 13758 0
-117 13758 0
-118 13758 0
-119 13758 0
-13759 170 171 172 173 174 175 0
-170 13759 0
-171 13759 0
-172 13759 0
-173 13759 0
-174 13759 0
-175 13759 0
-13760 226 227 228 229 230 231 0
-226 13760 0
-227 13760 0
-228 13760 0
-229 13760 0
-230 13760 0
-231 13760 0
-13761 282 283 284 285 286 287 0
-282 13761 0
-283 13761 0
-284 13761 0
-285 13761 0
-286 13761 0
-287 13761 0
-13762 338 339 340 341 342 343 0
-338 13762 0
-339 13762 0
-340 13762 0
-341 13762 0
-342 13762 0
-343 13762 0
-13756 13763 0
-13764 0
-13765 0
-13766 0
-13767 0
-13768 0
-13757 13769 0
-13763 13769 0
-13757 -13763 13770 0
-13764 13770 0
-13757 -13764 13771 0
-13765 13771 0
-13757 -13765 13772 0
-13766 13772 0
-13757 -13766 13773 0
-13767 13773 0
-13757 -13767 13774 0
-13768 13774 0
-13757 -13768 0
-13758 13775 0
-13769 13775 0
-13758 -13769 13776 0
-13770 13776 0
-13758 -13770 13777 0
-13771 13777 0
-13758 -13771 13778 0
-13772 13778 0
-13758 -13772 13779 0
-13773 13779 0
-13758 -13773 13780 0
-13774 13780 0
-13758 -13774 0
-13759 13781 0
-13775 13781 0
-13759 -13775 13782 0
-13776 13782 0
-13759 -13776 13783 0
-13777 13783 0
-13759 -13777 13784 0
-13778 13784 0
-13759 -13778 13785 0
-13779 13785 0
-13759 -13779 13786 0
-13780 13786 0
-13759 -13780 0
-13760 13787 0
-13781 13787 0
-13760 -13781 13788 0
-13782 13788 0
-13760 -13782 13789 0
-13783 13789 0
-13760 -13783 13790 0
-13784 13790 0
-13760 -13784 13791 0
-13785 13791 0
-13760 -13785 13792 0
-13786 13792 0
-13760 -13786 0
-13761 13793 0
-13787 13793 0
-13761 -13787 13794 0
-13788 13794 0
-13761 -13788 13795 0
-13789 13795 0
-13761 -13789 13796 0
-13790 13796 0
-13761 -13790 13797 0
-13791 13797 0
-13761 -13791 13798 0
-13792 13798 0
-13761 -13792 0
-13762 -13798 0
-13805 3 0
-3 13805 0
-13806 59 0
-59 13806 0
-13807 115 0
-115 13807 0
-13808 171 0
-171 13808 0
-13809 227 0
-227 13809 0
-13810 283 0
-283 13810 0
-13811 339 0
-339 13811 0
-13805 13812 0
-13806 13813 0
-13812 13813 0
-13806 -13812 0
-13807 13814 0
-13813 13814 0
-13807 -13813 0
-13808 13815 0
-13814 13815 0
-13808 -13814 0
-13809 13816 0
-13815 13816 0
-13809 -13815 0
-13810 13817 0
-13816 13817 0
-13810 -13816 0
-13811 -13817 0
-13819 3 4 0
-3 13819 0
-4 13819 0
-13820 59 60 0
-59 13820 0
-60 13820 0
-13821 115 116 0
-115 13821 0
-116 13821 0
-13822 171 172 0
-171 13822 0
-172 13822 0
-13823 227 228 0
-227 13823 0
-228 13823 0
-13824 283 284 0
-283 13824 0
-284 13824 0
-13825 339 340 0
-339 13825 0
-340 13825 0
-13819 13826 0
-13827 0
-13820 13828 0
-13826 13828 0
-13820 -13826 13829 0
-13827 13829 0
-13820 -13827 0
-13821 13830 0
-13828 13830 0
-13821 -13828 13831 0
-13829 13831 0
-13821 -13829 0
-13822 13832 0
-13830 13832 0
-13822 -13830 13833 0
-13831 13833 0
-13822 -13831 0
-13823 13834 0
-13832 13834 0
-13823 -13832 13835 0
-13833 13835 0
-13823 -13833 0
-13824 13836 0
-13834 13836 0
-13824 -13834 13837 0
-13835 13837 0
-13824 -13835 0
-13825 -13837 0
-13840 3 4 5 0
-3 13840 0
-4 13840 0
-5 13840 0
-13841 59 60 61 0
-59 13841 0
-60 13841 0
-61 13841 0
-13842 115 116 117 0
-115 13842 0
-116 13842 0
-117 13842 0
-13843 171 172 173 0
-171 13843 0
-172 13843 0
-173 13843 0
-13844 227 228 229 0
-227 13844 0
-228 13844 0
-229 13844 0
-13845 283 284 285 0
-283 13845 0
-284 13845 0
-285 13845 0
-13846 339 340 341 0
-339 13846 0
-340 13846 0
-341 13846 0
-13840 13847 0
-13848 0
-13849 0
-13841 13850 0
-13847 13850 0
-13841 -13847 13851 0
-13848 13851 0
-13841 -13848 13852 0
-13849 13852 0
-13841 -13849 0
-13842 13853 0
-13850 13853 0
-13842 -13850 13854 0
-13851 13854 0
-13842 -13851 13855 0
-13852 13855 0
-13842 -13852 0
-13843 13856 0
-13853 13856 0
-13843 -13853 13857 0
-13854 13857 0
-13843 -13854 13858 0
-13855 13858 0
-13843 -13855 0
-13844 13859 0
-13856 13859 0
-13844 -13856 13860 0
-13857 13860 0
-13844 -13857 13861 0
-13858 13861 0
-13844 -13858 0
-13845 13862 0
-13859 13862 0
-13845 -13859 13863 0
-13860 13863 0
-13845 -13860 13864 0
-13861 13864 0
-13845 -13861 0
-13846 -13864 0
-13868 3 4 5 6 0
-3 13868 0
-4 13868 0
-5 13868 0
-6 13868 0
-13869 59 60 61 62 0
-59 13869 0
-60 13869 0
-61 13869 0
-62 13869 0
-13870 115 116 117 118 0
-115 13870 0
-116 13870 0
-117 13870 0
-118 13870 0
-13871 171 172 173 174 0
-171 13871 0
-172 13871 0
-173 13871 0
-174 13871 0
-13872 227 228 229 230 0
-227 13872 0
-228 13872 0
-229 13872 0
-230 13872 0
-13873 283 284 285 286 0
-283 13873 0
-284 13873 0
-285 13873 0
-286 13873 0
-13874 339 340 341 342 0
-339 13874 0
-340 13874 0
-341 13874 0
-342 13874 0
-13868 13875 0
-13876 0
-13877 0
-13878 0
-13869 13879 0
-13875 13879 0
-13869 -13875 13880 0
-13876 13880 0
-13869 -13876 13881 0
-13877 13881 0
-13869 -13877 13882 0
-13878 13882 0
-13869 -13878 0
-13870 13883 0
-13879 13883 0
-13870 -13879 13884 0
-13880 13884 0
-13870 -13880 13885 0
-13881 13885 0
-13870 -13881 13886 0
-13882 13886 0
-13870 -13882 0
-13871 13887 0
-13883 13887 0
-13871 -13883 13888 0
-13884 13888 0
-13871 -13884 13889 0
-13885 13889 0
-13871 -13885 13890 0
-13886 13890 0
-13871 -13886 0
-13872 13891 0
-13887 13891 0
-13872 -13887 13892 0
-13888 13892 0
-13872 -13888 13893 0
-13889 13893 0
-13872 -13889 13894 0
-13890 13894 0
-13872 -13890 0
-13873 13895 0
-13891 13895 0
-13873 -13891 13896 0
-13892 13896 0
-13873 -13892 13897 0
-13893 13897 0
-13873 -13893 13898 0
-13894 13898 0
-13873 -13894 0
-13874 -13898 0
-13903 3 4 5 6 7 0
-3 13903 0
-4 13903 0
-5 13903 0
-6 13903 0
-7 13903 0
-13904 59 60 61 62 63 0
-59 13904 0
-60 13904 0
-61 13904 0
-62 13904 0
-63 13904 0
-13905 115 116 117 118 119 0
-115 13905 0
-116 13905 0
-117 13905 0
-118 13905 0
-119 13905 0
-13906 171 172 173 174 175 0
-171 13906 0
-172 13906 0
-173 13906 0
-174 13906 0
-175 13906 0
-13907 227 228 229 230 231 0
-227 13907 0
-228 13907 0
-229 13907 0
-230 13907 0
-231 13907 0
-13908 283 284 285 286 287 0
-283 13908 0
-284 13908 0
-285 13908 0
-286 13908 0
-287 13908 0
-13909 339 340 341 342 343 0
-339 13909 0
-340 13909 0
-341 13909 0
-342 13909 0
-343 13909 0
-13903 13910 0
-13911 0
-13912 0
-13913 0
-13914 0
-13904 13915 0
-13910 13915 0
-13904 -13910 13916 0
-13911 13916 0
-13904 -13911 13917 0
-13912 13917 0
-13904 -13912 13918 0
-13913 13918 0
-13904 -13913 13919 0
-13914 13919 0
-13904 -13914 0
-13905 13920 0
-13915 13920 0
-13905 -13915 13921 0
-13916 13921 0
-13905 -13916 13922 0
-13917 13922 0
-13905 -13917 13923 0
-13918 13923 0
-13905 -13918 13924 0
-13919 13924 0
-13905 -13919 0
-13906 13925 0
-13920 13925 0
-13906 -13920 13926 0
-13921 13926 0
-13906 -13921 13927 0
-13922 13927 0
-13906 -13922 13928 0
-13923 13928 0
-13906 -13923 13929 0
-13924 13929 0
-13906 -13924 0
-13907 13930 0
-13925 13930 0
-13907 -13925 13931 0
-13926 13931 0
-13907 -13926 13932 0
-13927 13932 0
-13907 -13927 13933 0
-13928 13933 0
-13907 -13928 13934 0
-13929 13934 0
-13907 -13929 0
-13908 13935 0
-13930 13935 0
-13908 -13930 13936 0
-13931 13936 0
-13908 -13931 13937 0
-13932 13937 0
-13908 -13932 13938 0
-13933 13938 0
-13908 -13933 13939 0
-13934 13939 0
-13908 -13934 0
-13909 -13939 0
-13945 4 0
-4 13945 0
-13946 60 0
-60 13946 0
-13947 116 0
-116 13947 0
-13948 172 0
-172 13948 0
-13949 228 0
-228 13949 0
-13950 284 0
-284 13950 0
-13951 340 0
-340 13951 0
-13945 13952 0
-13946 13953 0
-13952 13953 0
-13946 -13952 0
-13947 13954 0
-13953 13954 0
-13947 -13953 0
-13948 13955 0
-13954 13955 0
-13948 -13954 0
-13949 13956 0
-13955 13956 0
-13949 -13955 0
-13950 13957 0
-13956 13957 0
-13950 -13956 0
-13951 -13957 0
-13959 4 5 0
-4 13959 0
-5 13959 0
-13960 60 61 0
-60 13960 0
-61 13960 0
-13961 116 117 0
-116 13961 0
-117 13961 0
-13962 172 173 0
-172 13962 0
-173 13962 0
-13963 228 229 0
-228 13963 0
-229 13963 0
-13964 284 285 0
-284 13964 0
-285 13964 0
-13965 340 341 0
-340 13965 0
-341 13965 0
-13959 13966 0
-13967 0
-13960 13968 0
-13966 13968 0
-13960 -13966 13969 0
-13967 13969 0
-13960 -13967 0
-13961 13970 0
-13968 13970 0
-13961 -13968 13971 0
-13969 13971 0
-13961 -13969 0
-13962 13972 0
-13970 13972 0
-13962 -13970 13973 0
-13971 13973 0
-13962 -13971 0
-13963 13974 0
-13972 13974 0
-13963 -13972 13975 0
-13973 13975 0
-13963 -13973 0
-13964 13976 0
-13974 13976 0
-13964 -13974 13977 0
-13975 13977 0
-13964 -13975 0
-13965 -13977 0
-13980 4 5 6 0
-4 13980 0
-5 13980 0
-6 13980 0
-13981 60 61 62 0
-60 13981 0
-61 13981 0
-62 13981 0
-13982 116 117 118 0
-116 13982 0
-117 13982 0
-118 13982 0
-13983 172 173 174 0
-172 13983 0
-173 13983 0
-174 13983 0
-13984 228 229 230 0
-228 13984 0
-229 13984 0
-230 13984 0
-13985 284 285 286 0
-284 13985 0
-285 13985 0
-286 13985 0
-13986 340 341 342 0
-340 13986 0
-341 13986 0
-342 13986 0
-13980 13987 0
-13988 0
-13989 0
-13981 13990 0
-13987 13990 0
-13981 -13987 13991 0
-13988 13991 0
-13981 -13988 13992 0
-13989 13992 0
-13981 -13989 0
-13982 13993 0
-13990 13993 0
-13982 -13990 13994 0
-13991 13994 0
-13982 -13991 13995 0
-13992 13995 0
-13982 -13992 0
-13983 13996 0
-13993 13996 0
-13983 -13993 13997 0
-13994 13997 0
-13983 -13994 13998 0
-13995 13998 0
-13983 -13995 0
-13984 13999 0
-13996 13999 0
-13984 -13996 14000 0
-13997 14000 0
-13984 -13997 14001 0
-13998 14001 0
-13984 -13998 0
-13985 14002 0
-13999 14002 0
-13985 -13999 14003 0
-14000 14003 0
-13985 -14000 14004 0
-14001 14004 0
-13985 -14001 0
-13986 -14004 0
-14008 4 5 6 7 0
-4 14008 0
-5 14008 0
-6 14008 0
-7 14008 0
-14009 60 61 62 63 0
-60 14009 0
-61 14009 0
-62 14009 0
-63 14009 0
-14010 116 117 118 119 0
-116 14010 0
-117 14010 0
-118 14010 0
-119 14010 0
-14011 172 173 174 175 0
-172 14011 0
-173 14011 0
-174 14011 0
-175 14011 0
-14012 228 229 230 231 0
-228 14012 0
-229 14012 0
-230 14012 0
-231 14012 0
-14013 284 285 286 287 0
-284 14013 0
-285 14013 0
-286 14013 0
-287 14013 0
-14014 340 341 342 343 0
-340 14014 0
-341 14014 0
-342 14014 0
-343 14014 0
-14008 14015 0
-14016 0
-14017 0
-14018 0
-14009 14019 0
-14015 14019 0
-14009 -14015 14020 0
-14016 14020 0
-14009 -14016 14021 0
-14017 14021 0
-14009 -14017 14022 0
-14018 14022 0
-14009 -14018 0
-14010 14023 0
-14019 14023 0
-14010 -14019 14024 0
-14020 14024 0
-14010 -14020 14025 0
-14021 14025 0
-14010 -14021 14026 0
-14022 14026 0
-14010 -14022 0
-14011 14027 0
-14023 14027 0
-14011 -14023 14028 0
-14024 14028 0
-14011 -14024 14029 0
-14025 14029 0
-14011 -14025 14030 0
-14026 14030 0
-14011 -14026 0
-14012 14031 0
-14027 14031 0
-14012 -14027 14032 0
-14028 14032 0
-14012 -14028 14033 0
-14029 14033 0
-14012 -14029 14034 0
-14030 14034 0
-14012 -14030 0
-14013 14035 0
-14031 14035 0
-14013 -14031 14036 0
-14032 14036 0
-14013 -14032 14037 0
-14033 14037 0
-14013 -14033 14038 0
-14034 14038 0
-14013 -14034 0
-14014 -14038 0
-14043 5 0
-5 14043 0
-14044 61 0
-61 14044 0
-14045 117 0
-117 14045 0
-14046 173 0
-173 14046 0
-14047 229 0
-229 14047 0
-14048 285 0
-285 14048 0
-14049 341 0
-341 14049 0
-14043 14050 0
-14044 14051 0
-14050 14051 0
-14044 -14050 0
-14045 14052 0
-14051 14052 0
-14045 -14051 0
-14046 14053 0
-14052 14053 0
-14046 -14052 0
-14047 14054 0
-14053 14054 0
-14047 -14053 0
-14048 14055 0
-14054 14055 0
-14048 -14054 0
-14049 -14055 0
-14057 5 6 0
-5 14057 0
-6 14057 0
-14058 61 62 0
-61 14058 0
-62 14058 0
-14059 117 118 0
-117 14059 0
-118 14059 0
-14060 173 174 0
-173 14060 0
-174 14060 0
-14061 229 230 0
-229 14061 0
-230 14061 0
-14062 285 286 0
-285 14062 0
-286 14062 0
-14063 341 342 0
-341 14063 0
-342 14063 0
-14057 14064 0
-14065 0
-14058 14066 0
-14064 14066 0
-14058 -14064 14067 0
-14065 14067 0
-14058 -14065 0
-14059 14068 0
-14066 14068 0
-14059 -14066 14069 0
-14067 14069 0
-14059 -14067 0
-14060 14070 0
-14068 14070 0
-14060 -14068 14071 0
-14069 14071 0
-14060 -14069 0
-14061 14072 0
-14070 14072 0
-14061 -14070 14073 0
-14071 14073 0
-14061 -14071 0
-14062 14074 0
-14072 14074 0
-14062 -14072 14075 0
-14073 14075 0
-14062 -14073 0
-14063 -14075 0
-14078 5 6 7 0
-5 14078 0
-6 14078 0
-7 14078 0
-14079 61 62 63 0
-61 14079 0
-62 14079 0
-63 14079 0
-14080 117 118 119 0
-117 14080 0
-118 14080 0
-119 14080 0
-14081 173 174 175 0
-173 14081 0
-174 14081 0
-175 14081 0
-14082 229 230 231 0
-229 14082 0
-230 14082 0
-231 14082 0
-14083 285 286 287 0
-285 14083 0
-286 14083 0
-287 14083 0
-14084 341 342 343 0
-341 14084 0
-342 14084 0
-343 14084 0
-14078 14085 0
-14086 0
-14087 0
-14079 14088 0
-14085 14088 0
-14079 -14085 14089 0
-14086 14089 0
-14079 -14086 14090 0
-14087 14090 0
-14079 -14087 0
-14080 14091 0
-14088 14091 0
-14080 -14088 14092 0
-14089 14092 0
-14080 -14089 14093 0
-14090 14093 0
-14080 -14090 0
-14081 14094 0
-14091 14094 0
-14081 -14091 14095 0
-14092 14095 0
-14081 -14092 14096 0
-14093 14096 0
-14081 -14093 0
-14082 14097 0
-14094 14097 0
-14082 -14094 14098 0
-14095 14098 0
-14082 -14095 14099 0
-14096 14099 0
-14082 -14096 0
-14083 14100 0
-14097 14100 0
-14083 -14097 14101 0
-14098 14101 0
-14083 -14098 14102 0
-14099 14102 0
-14083 -14099 0
-14084 -14102 0
-14106 6 0
-6 14106 0
-14107 62 0
-62 14107 0
-14108 118 0
-118 14108 0
-14109 174 0
-174 14109 0
-14110 230 0
-230 14110 0
-14111 286 0
-286 14111 0
-14112 342 0
-342 14112 0
-14106 14113 0
-14107 14114 0
-14113 14114 0
-14107 -14113 0
-14108 14115 0
-14114 14115 0
-14108 -14114 0
-14109 14116 0
-14115 14116 0
-14109 -14115 0
-14110 14117 0
-14116 14117 0
-14110 -14116 0
-14111 14118 0
-14117 14118 0
-14111 -14117 0
-14112 -14118 0
-14120 6 7 0
-6 14120 0
-7 14120 0
-14121 62 63 0
-62 14121 0
-63 14121 0
-14122 118 119 0
-118 14122 0
-119 14122 0
-14123 174 175 0
-174 14123 0
-175 14123 0
-14124 230 231 0
-230 14124 0
-231 14124 0
-14125 286 287 0
-286 14125 0
-287 14125 0
-14126 342 343 0
-342 14126 0
-343 14126 0
-14120 14127 0
-14128 0
-14121 14129 0
-14127 14129 0
-14121 -14127 14130 0
-14128 14130 0
-14121 -14128 0
-14122 14131 0
-14129 14131 0
-14122 -14129 14132 0
-14130 14132 0
-14122 -14130 0
-14123 14133 0
-14131 14133 0
-14123 -14131 14134 0
-14132 14134 0
-14123 -14132 0
-14124 14135 0
-14133 14135 0
-14124 -14133 14136 0
-14134 14136 0
-14124 -14134 0
-14125 14137 0
-14135 14137 0
-14125 -14135 14138 0
-14136 14138 0
-14125 -14136 0
-14126 -14138 0
-14141 7 0
-7 14141 0
-14142 63 0
-63 14142 0
-14143 119 0
-119 14143 0
-14144 175 0
-175 14144 0
-14145 231 0
-231 14145 0
-14146 287 0
-287 14146 0
-14147 343 0
-343 14147 0
-14141 14148 0
-14142 14149 0
-14148 14149 0
-14142 -14148 0
-14143 14150 0
-14149 14150 0
-14143 -14149 0
-14144 14151 0
-14150 14151 0
-14144 -14150 0
-14145 14152 0
-14151 14152 0
-14145 -14151 0
-14146 14153 0
-14152 14153 0
-14146 -14152 0
-14147 -14153 0
-1 14155 0
-57 14156 0
-14155 14156 0
-57 -14155 0
-113 14157 0
-14156 14157 0
-113 -14156 0
-169 14158 0
-14157 14158 0
-169 -14157 0
-225 14159 0
-14158 14159 0
-225 -14158 0
-281 14160 0
-14159 14160 0
-281 -14159 0
-337 -14160 0
1 57 113 169 225 281 337 0
-2 14162 0
-58 14163 0
-14162 14163 0
-58 -14162 0
-114 14164 0
-14163 14164 0
-114 -14163 0
-170 14165 0
-14164 14165 0
-170 -14164 0
-226 14166 0
-14165 14166 0
-226 -14165 0
-282 14167 0
-14166 14167 0
-282 -14166 0
-338 -14167 0
2 58 114 170 226 282 338 0
-3 14169 0
-59 14170 0
-14169 14170 0
-59 -14169 0
-115 14171 0
-14170 14171 0
-115 -14170 0
-171 14172 0
-14171 14172 0
-171 -14171 0
-227 14173 0
-14172 14173 0
-227 -14172 0
-283 14174 0
-14173 14174 0
-283 -14173 0
-339 -14174 0
3 59 115 171 227 283 339 0
-4 14176 0
-60 14177 0
-14176 14177 0
-60 -14176 0
-116 14178 0
-14177 14178 0
-116 -14177 0
-172 14179 0
-14178 14179 0
-172 -14178 0
-228 14180 0
-14179 14180 0
-228 -14179 0
-284 14181 0
-14180 14181 0
-284 -14180 0
-340 -14181 0
4 60 116 172 228 284 340 0
-5 14183 0
-61 14184 0
-14183 14184 0
-61 -14183 0
-117 14185 0
-14184 14185 0
-117 -14184 0
-173 14186 0
-14185 14186 0
-173 -14185 0
-229 14187 0
-14186 14187 0
-229 -14186 0
-285 14188 0
-14187 14188 0
-285 -14187 0
-341 -14188 0
5 61 117 173 229 285 341 0
-6 14190 0
-62 14191 0
-14190 14191 0
-62 -14190 0
-118 14192 0
-14191 14192 0
-118 -14191 0
-174 14193 0
-14192 14193 0
-174 -14192 0
-230 14194 0
-14193 14194 0
-230 -14193 0
-286 14195 0
-14194 14195 0
-286 -14194 0
-342 -14195 0
6 62 118 174 230 286 342 0
-7 14197 0
-63 14198 0
-14197 14198 0
-63 -14197 0
-119 14199 0
-14198 14199 0
-119 -14198 0
-175 14200 0
-14199 14200 0
-175 -14199 0
-231 14201 0
-14200 14201 0
-231 -14200 0
-287 14202 0
-14201 14202 0
-287 -14201 0
-343 -14202 0
7 63 119 175 231 287 343 0
-14204 50 0
-50 14204 0
-14205 106 0
-106 14205 0
-14206 162 0
-162 14206 0
-14207 218 0
-218 14207 0
-14208 274 0
-274 14208 0
-14209 330 0
-330 14209 0
-14204 14210 0
-14205 14211 0
-14210 14211 0
-14205 -14210 0
-14206 14212 0
-14211 14212 0
-14206 -14211 0
-14207 14213 0
-14212 14213 0
-14207 -14212 0
-14208 14214 0
-14213 14214 0
-14208 -14213 0
-14209 -14214 0
-14216 50 51 0
-50 14216 0
-51 14216 0
-14217 106 107 0
-106 14217 0
-107 14217 0
-14218 162 163 0
-162 14218 0
-163 14218 0
-14219 218 219 0
-218 14219 0
-219 14219 0
-14220 274 275 0
-274 14220 0
-275 14220 0
-14221 330 331 0
-330 14221 0
-331 14221 0
-14216 14222 0
-14223 0
-14217 14224 0
-14222 14224 0
-14217 -14222 14225 0
-14223 14225 0
-14217 -14223 0
-14218 14226 0
-14224 14226 0
-14218 -14224 14227 0
-14225 14227 0
-14218 -14225 0
-14219 14228 0
-14226 14228 0
-14219 -14226 14229 0
-14227 14229 0
-14219 -14227 0
-14220 14230 0
-14228 14230 0
-14220 -14228 14231 0
-14229 14231 0
-14220 -14229 0
-14221 -14231 0
-14234 50 51 52 0
-50 14234 0
-51 14234 0
-52 14234 0
-14235 106 107 108 0
-106 14235 0
-107 14235 0
-108 14235 0
-14236 162 163 164 0
-162 14236 0
-163 14236 0
-164 14236 0
-14237 218 219 220 0
-218 14237 0
-219 14237 0
-220 14237 0
-14238 274 275 276 0
-274 14238 0
-275 14238 0
-276 14238 0
-14239 330 331 332 0
-330 14239 0
-331 14239 0
-332 14239 0
-14234 14240 0
-14241 0
-14242 0
-14235 14243 0
-14240 14243 0
-14235 -14240 14244 0
-14241 14244 0
-14235 -14241 14245 0
-14242 14245 0
-14235 -14242 0
-14236 14246 0
-14243 14246 0
-14236 -14243 14247 0
-14244 14247 0
-14236 -14244 14248 0
-14245 14248 0
-14236 -14245 0
-14237 14249 0
-14246 14249 0
-14237 -14246 14250 0
-14247 14250 0
-14237 -14247 14251 0
-14248 14251 0
-14237 -14248 0
-14238 14252 0
-14249 14252 0
-14238 -14249 14253 0
-14250 14253 0
-14238 -14250 14254 0
-14251 14254 0
-14238 -14251 0
-14239 -14254 0
-14258 50 51 52 53 0
-50 14258 0
-51 14258 0
-52 14258 0
-53 14258 0
-14259 106 107 108 109 0
-106 14259 0
-107 14259 0
-108 14259 0
-109 14259 0
-14260 162 163 164 165 0
-162 14260 0
-163 14260 0
-164 14260 0
-165 14260 0
-14261 218 219 220 221 0
-218 14261 0
-219 14261 0
-220 14261 0
-221 14261 0
-14262 274 275 276 277 0
-274 14262 0
-275 14262 0
-276 14262 0
-277 14262 0
-14263 330 331 332 333 0
-330 14263 0
-331 14263 0
-332 14263 0
-333 14263 0
-14258 14264 0
-14265 0
-14266 0
-14267 0
-14259 14268 0
-14264 14268 0
-14259 -14264 14269 0
-14265 14269 0
-14259 -14265 14270 0
-14266 14270 0
-14259 -14266 14271 0
-14267 14271 0
-14259 -14267 0
-14260 14272 0
-14268 14272 0
-14260 -14268 14273 0
-14269 14273 0
-14260 -14269 14274 0
-14270 14274 0
-14260 -14270 14275 0
-14271 14275 0
-14260 -14271 0
-14261 14276 0
-14272 14276 0
-14261 -14272 14277 0
-14273 14277 0
-14261 -14273 14278 0
-14274 14278 0
-14261 -14274 14279 0
-14275 14279 0
-14261 -14275 0
-14262 14280 0
-14276 14280 0
-14262 -14276 14281 0
-14277 14281 0
-14262 -14277 14282 0
-14278 14282 0
-14262 -14278 14283 0
-14279 14283 0
-14262 -14279 0
-14263 -14283 0
-14288 50 51 52 53 54 0
-50 14288 0
-51 14288 0
-52 14288 0
-53 14288 0
-54 14288 0
-14289 106 107 108 109 110 0
-106 14289 0
-107 14289 0
-108 14289 0
-109 14289 0
-110 14289 0
-14290 162 163 164 165 166 0
-162 14290 0
-163 14290 0
-164 14290 0
-165 14290 0
-166 14290 0
-14291 218 219 220 221 222 0
-218 14291 0
-219 14291 0
-220 14291 0
-221 14291 0
-222 14291 0
-14292 274 275 276 277 278 0
-274 14292 0
-275 14292 0
-276 14292 0
-277 14292 0
-278 14292 0
-14293 330 331 332 333 334 0
-330 14293 0
-331 14293 0
-332 14293 0
-333 14293 0
-334 14293 0
-14288 14294 0
-14295 0
-14296 0
-14297 0
-14298 0
-14289 14299 0
-14294 14299 0
-14289 -14294 14300 0
-14295 14300 0
-14289 -14295 14301 0
-14296 14301 0
-14289 -14296 14302 0
-14297 14302 0
-14289 -14297 14303 0
-14298 14303 0
-14289 -14298 0
-14290 14304 0
-14299 14304 0
-14290 -14299 14305 0
-14300 14305 0
-14290 -14300 14306 0
-14301 14306 0
-14290 -14301 14307 0
-14302 14307 0
-14290 -14302 14308 0
-14303 14308 0
-14290 -14303 0
-14291 14309 0
-14304 14309 0
-14291 -14304 14310 0
-14305 14310 0
-14291 -14305 14311 0
-14306 14311 0
-14291 -14306 14312 0
-14307 14312 0
-14291 -14307 14313 0
-14308 14313 0
-14291 -14308 0
-14292 14314 0
-14309 14314 0
-14292 -14309 14315 0
-14310 14315 0
-14292 -14310 14316 0
-14311 14316 0
-14292 -14311 14317 0
-14312 14317 0
-14292 -14312 14318 0
-14313 14318 0
-14292 -14313 0
-14293 -14318 0
-14324 50 51 52 53 54 55 0
-50 14324 0
-51 14324 0
-52 14324 0
-53 14324 0
-54 14324 0
-55 14324 0
-14325 106 107 108 109 110 111 0
-106 14325 0
-107 14325 0
-108 14325 0
-109 14325 0
-110 14325 0
-111 14325 0
-14326 162 163 164 165 166 167 0
-162 14326 0
-163 14326 0
-164 14326 0
-165 14326 0
-166 14326 0
-167 14326 0
-14327 218 219 220 221 222 223 0
-218 14327 0
-219 14327 0
-220 14327 0
-221 14327 0
-222 14327 0
-223 14327 0
-14328 274 275 276 277 278 279 0
-274 14328 0
-275 14328 0
-276 14328 0
-277 14328 0
-278 14328 0
-279 14328 0
-14329 330 331 332 333 334 335 0
-330 14329 0
-331 14329 0
-332 14329 0
-333 14329 0
-334 14329 0
-335 14329 0
-14330 51 0
-51 14330 0
-14331 107 0
-107 14331 0
-14332 163 0
-163 14332 0
-14333 219 0
-219 14333 0
-14334 275 0
-275 14334 0
-14335 331 0
-331 14335 0
-14330 14336 0
-14331 14337 0
-14336 14337 0
-14331 -14336 0
-14332 14338 0
-14337 14338 0
-14332 -14337 0
-14333 14339 0
-14338 14339 0
-14333 -14338 0
-14334 14340 0
-14339 14340 0
-14334 -14339 0
-14335 -14340 0
-14342 51 52 0
-51 14342 0
-52 14342 0
-14343 107 108 0
-107 14343 0
-108 14343 0
-14344 163 164 0
-163 14344 0
-164 14344 0
-14345 219 220 0
-219 14345 0
-220 14345 0
-14346 275 276 0
-275 14346 0
-276 14346 0
-14347 331 332 0
-331 14347 0
-332 14347 0
-14342 14348 0
-14349 0
-14343 14350 0
-14348 14350 0
-14343 -14348 14351 0
-14349 14351 0
-14343 -14349 0
-14344 14352 0
-14350 14352 0
-14344 -14350 14353 0
-14351 14353 0
-14344 -14351 0
-14345 14354 0
-14352 14354 0
-14345 -14352 14355 0
-14353 14355 0
-14345 -14353 0
-14346 14356 0
-14354 14356 0
-14346 -14354 14357 0
-14355 14357 0
-14346 -14355 0
-14347 -14357 0
-14360 51 52 53 0
-51 14360 0
-52 14360 0
-53 14360 0
-14361 107 108 109 0
-107 14361 0
-108 14361 0
-109 14361 0
-14362 163 164 165 0
-163 14362 0
-164 14362 0
-165 14362 0
-14363 219 220 221 0
-219 14363 0
-220 14363 0
-221 14363 0
-14364 275 276 277 0
-275 14364 0
-276 14364 0
-277 14364 0
-14365 331 332 333 0
-331 14365 0
-332 14365 0
-333 14365 0
-14360 14366 0
-14367 0
-14368 0
-14361 14369 0
-14366 14369 0
-14361 -14366 14370 0
-14367 14370 0
-14361 -14367 14371 0
-14368 14371 0
-14361 -14368 0
-14362 14372 0
-14369 14372 0
-14362 -14369 14373 0
-14370 14373 0
-14362 -14370 14374 0
-14371 14374 0
-14362 -14371 0
-14363 14375 0
-14372 14375 0
-14363 -14372 14376 0
-14373 14376 0
-14363 -14373 14377 0
-14374 14377 0
-14363 -14374 0
-14364 14378 0
-14375 14378 0
-14364 -14375 14379 0
-14376 14379 0
-14364 -14376 14380 0
-14377 14380 0
-14364 -14377 0
-14365 -14380 0
-14384 51 52 53 54 0
-51 14384 0
-52 14384 0
-53 14384 0
-54 14384 0
-14385 107 108 109 110 0
-107 14385 0
-108 14385 0
-109 14385 0
-110 14385 0
-14386 163 164 165 166 0
-163 14386 0
-164 14386 0
-165 14386 0
-166 14386 0
-14387 219 220 221 222 0
-219 14387 0
-220 14387 0
-221 14387 0
-222 14387 0
-14388 275 276 277 278 0
-275 14388 0
-276 14388 0
-277 14388 0
-278 14388 0
-14389 331 332 333 334 0
-331 14389 0
-332 14389 0
-333 14389 0
-334 14389 0
-14384 14390 0
-14391 0
-14392 0
-14393 0
-14385 14394 0
-14390 14394 0
-14385 -14390 14395 0
-14391 14395 0
-14385 -14391 14396 0
-14392 14396 0
-14385 -14392 14397 0
-14393 14397 0
-14385 -14393 0
-14386 14398 0
-14394 14398 0
-14386 -14394 14399 0
-14395 14399 0
-14386 -14395 14400 0
-14396 14400 0
-14386 -14396 14401 0
-14397 14401 0
-14386 -14397 0
-14387 14402 0
-14398 14402 0
-14387 -14398 14403 0
-14399 14403 0
-14387 -14399 14404 0
-14400 14404 0
-14387 -14400 14405 0
-14401 14405 0
-14387 -14401 0
-14388 14406 0
-14402 14406 0
-14388 -14402 14407 0
-14403 14407 0
-14388 -14403 14408 0
-14404 14408 0
-14388 -14404 14409 0
-14405 14409 0
-14388 -14405 0
-14389 -14409 0
-14414 51 52 53 54 55 0
-51 14414 0
-52 14414 0
-53 14414 0
-54 14414 0
-55 14414 0
-14415 107 108 109 110 111 0
-107 14415 0
-108 14415 0
-109 14415 0
-110 14415 0
-111 14415 0
-14416 163 164 165 166 167 0
-163 14416 0
-164 14416 0
-165 14416 0
-166 14416 0
-167 14416 0
-14417 219 220 221 222 223 0
-219 14417 0
-220 14417 0
-221 14417 0
-222 14417 0
-223 14417 0
-14418 275 276 277 278 279 0
-275 14418 0
-276 14418 0
-277 14418 0
-278 14418 0
-279 14418 0
-14419 331 332 333 334 335 0
-331 14419 0
-332 14419 0
-333 14419 0
-334 14419 0
-335 14419 0
-14414 14420 0
-14421 0
-14422 0
-14423 0
-14424 0
-14415 14425 0
-14420 14425 0
-14415 -14420 14426 0
-14421 14426 0
-14415 -14421 14427 0
-14422 14427 0
-14415 -14422 14428 0
-14423 14428 0
-14415 -14423 14429 0
-14424 14429 0
-14415 -14424 0
-14416 14430 0
-14425 14430 0
-14416 -14425 14431 0
-14426 14431 0
-14416 -14426 14432 0
-14427 14432 0
-14416 -14427 14433 0
-14428 14433 0
-14416 -14428 14434 0
-14429 14434 0
-14416 -14429 0
-14417 14435 0
-14430 14435 0
-14417 -14430 14436 0
-14431 14436 0
-14417 -14431 14437 0
-14432 14437 0
-14417 -14432 14438 0
-14433 14438 0
-14417 -14433 14439 0
-14434 14439 0
-14417 -14434 0
-14418 14440 0
-14435 14440 0
-14418 -14435 14441 0
-14436 14441 0
-14418 -14436 14442 0
-14437 14442 0
-14418 -14437 14443 0
-14438 14443 0
-14418 -14438 14444 0
-14439 14444 0
-14418 -14439 0
-14419 -14444 0
-14450 51 52 53 54 55 56 0
-51 14450 0
-52 14450 0
-53 14450 0
-54 14450 0
-55 14450 0
-56 14450 0
-14451 107 108 109 110 111 112 0
-107 14451 0
-108 14451 0
-109 14451 0
-110 14451 0
-111 14451 0
-112 14451 0
-14452 163 164 165 166 167 168 0
-163 14452 0
-164 14452 0
-165 14452 0
-166 14452 0
-167 14452 0
-168 14452 0
-14453 219 220 221 222 223 224 0
-219 14453 0
-220 14453 0
-221 14453 0
-222 14453 0
-223 14453 0
-224 14453 0
-14454 275 276 277 278 279 280 0
-275 14454 0
-276 14454 0
-277 14454 0
-278 14454 0
-279 14454 0
-280 14454 0
-14455 331 332 333 334 335 336 0
-331 14455 0
-332 14455 0
-333 14455 0
-334 14455 0
-335 14455 0
-336 14455 0
-14456 52 0
-52 14456 0
-14457 108 0
-108 14457 0
-14458 164 0
-164 14458 0
-14459 220 0
-220 14459 0
-14460 276 0
-276 14460 0
-14461 332 0
-332 14461 0
-14456 14462 0
-14457 14463 0
-14462 14463 0
-14457 -14462 0
-14458 14464 0
-14463 14464 0
-14458 -14463 0
-14459 14465 0
-14464 14465 0
-14459 -14464 0
-14460 14466 0
-14465 14466 0
-14460 -14465 0
-14461 -14466 0
-14468 52 53 0
-52 14468 0
-53 14468 0
-14469 108 109 0
-108 14469 0
-109 14469 0
-14470 164 165 0
-164 14470 0
-165 14470 0
-14471 220 221 0
-220 14471 0
-221 14471 0
-14472 276 277 0
-276 14472 0
-277 14472 0
-14473 332 333 0
-332 14473 0
-333 14473 0
-14468 14474 0
-14475 0
-14469 14476 0
-14474 14476 0
-14469 -14474 14477 0
-14475 14477 0
-14469 -14475 0
-14470 14478 0
-14476 14478 0
-14470 -14476 14479 0
-14477 14479 0
-14470 -14477 0
-14471 14480 0
-14478 14480 0
-14471 -14478 14481 0
-14479 14481 0
-14471 -14479 0
-14472 14482 0
-14480 14482 0
-14472 -14480 14483 0
-14481 14483 0
-14472 -14481 0
-14473 -14483 0
-14486 52 53 54 0
-52 14486 0
-53 14486 0
-54 14486 0
-14487 108 109 110 0
-108 14487 0
-109 14487 0
-110 14487 0
-14488 164 165 166 0
-164 14488 0
-165 14488 0
-166 14488 0
-14489 220 221 222 0
-220 14489 0
-221 14489 0
-222 14489 0
-14490 276 277 278 0
-276 14490 0
-277 14490 0
-278 14490 0
-14491 332 333 334 0
-332 14491 0
-333 14491 0
-334 14491 0
-14486 14492 0
-14493 0
-14494 0
-14487 14495 0
-14492 14495 0
-14487 -14492 14496 0
-14493 14496 0
-14487 -14493 14497 0
-14494 14497 0
-14487 -14494 0
-14488 14498 0
-14495 14498 0
-14488 -14495 14499 0
-14496 14499 0
-14488 -14496 14500 0
-14497 14500 0
-14488 -14497 0
-14489 14501 0
-14498 14501 0
-14489 -14498 14502 0
-14499 14502 0
-14489 -14499 14503 0
-14500 14503 0
-14489 -14500 0
-14490 14504 0
-14501 14504 0
-14490 -14501 14505 0
-14502 14505 0
-14490 -14502 14506 0
-14503 14506 0
-14490 -14503 0
-14491 -14506 0
-14510 52 53 54 55 0
-52 14510 0
-53 14510 0
-54 14510 0
-55 14510 0
-14511 108 109 110 111 0
-108 14511 0
-109 14511 0
-110 14511 0
-111 14511 0
-14512 164 165 166 167 0
-164 14512 0
-165 14512 0
-166 14512 0
-167 14512 0
-14513 220 221 222 223 0
-220 14513 0
-221 14513 0
-222 14513 0
-223 14513 0
-14514 276 277 278 279 0
-276 14514 0
-277 14514 0
-278 14514 0
-279 14514 0
-14515 332 333 334 335 0
-332 14515 0
-333 14515 0
-334 14515 0
-335 14515 0
-14510 14516 0
-14517 0
-14518 0
-14519 0
-14511 14520 0
-14516 14520 0
-14511 -14516 14521 0
-14517 14521 0
-14511 -14517 14522 0
-14518 14522 0
-14511 -14518 14523 0
-14519 14523 0
-14511 -14519 0
-14512 14524 0
-14520 14524 0
-14512 -14520 14525 0
-14521 14525 0
-14512 -14521 14526 0
-14522 14526 0
-14512 -14522 14527 0
-14523 14527 0
-14512 -14523 0
-14513 14528 0
-14524 14528 0
-14513 -14524 14529 0
-14525 14529 0
-14513 -14525 14530 0
-14526 14530 0
-14513 -14526 14531 0
-14527 14531 0
-14513 -14527 0
-14514 14532 0
-14528 14532 0
-14514 -14528 14533 0
-14529 14533 0
-14514 -14529 14534 0
-14530 14534 0
-14514 -14530 14535 0
-14531 14535 0
-14514 -14531 0
-14515 -14535 0
-14540 52 53 54 55 56 0
-52 14540 0
-53 14540 0
-54 14540 0
-55 14540 0
-56 14540 0
-14541 108 109 110 111 112 0
-108 14541 0
-109 14541 0
-110 14541 0
-111 14541 0
-112 14541 0
-14542 164 165 166 167 168 0
-164 14542 0
-165 14542 0
-166 14542 0
-167 14542 0
-168 14542 0
-14543 220 221 222 223 224 0
-220 14543 0
-221 14543 0
-222 14543 0
-223 14543 0
-224 14543 0
-14544 276 277 278 279 280 0
-276 14544 0
-277 14544 0
-278 14544 0
-279 14544 0
-280 14544 0
-14545 332 333 334 335 336 0
-332 14545 0
-333 14545 0
-334 14545 0
-335 14545 0
-336 14545 0
-14540 14546 0
-14547 0
-14548 0
-14549 0
-14550 0
-14541 14551 0
-14546 14551 0
-14541 -14546 14552 0
-14547 14552 0
-14541 -14547 14553 0
-14548 14553 0
-14541 -14548 14554 0
-14549 14554 0
-14541 -14549 14555 0
-14550 14555 0
-14541 -14550 0
-14542 14556 0
-14551 14556 0
-14542 -14551 14557 0
-14552 14557 0
-14542 -14552 14558 0
-14553 14558 0
-14542 -14553 14559 0
-14554 14559 0
-14542 -14554 14560 0
-14555 14560 0
-14542 -14555 0
-14543 14561 0
-14556 14561 0
-14543 -14556 14562 0
-14557 14562 0
-14543 -14557 14563 0
-14558 14563 0
-14543 -14558 14564 0
-14559 14564 0
-14543 -14559 14565 0
-14560 14565 0
-14543 -14560 0
-14544 14566 0
-14561 14566 0
-14544 -14561 14567 0
-14562 14567 0
-14544 -14562 14568 0
-14563 14568 0
-14544 -14563 14569 0
-14564 14569 0
-14544 -14564 14570 0
-14565 14570 0
-14544 -14565 0
-14545 -14570 0
-14576 53 0
-53 14576 0
-14577 109 0
-109 14577 0
-14578 165 0
-165 14578 0
-14579 221 0
-221 14579 0
-14580 277 0
-277 14580 0
-14581 333 0
-333 14581 0
-14576 14582 0
-14577 14583 0
-14582 14583 0
-14577 -14582 0
-14578 14584 0
-14583 14584 0
-14578 -14583 0
-14579 14585 0
-14584 14585 0
-14579 -14584 0
-14580 14586 0
-14585 14586 0
-14580 -14585 0
-14581 -14586 0
-14588 53 54 0
-53 14588 0
-54 14588 0
-14589 109 110 0
-109 14589 0
-110 14589 0
-14590 165 166 0
-165 14590 0
-166 14590 0
-14591 221 222 0
-221 14591 0
-222 14591 0
-14592 277 278 0
-277 14592 0
-278 14592 0
-14593 333 334 0
-333 14593 0
-334 14593 0
-14588 14594 0
-14595 0
-14589 14596 0
-14594 14596 0
-14589 -14594 14597 0
-14595 14597 0
-14589 -14595 0
-14590 14598 0
-14596 14598 0
-14590 -14596 14599 0
-14597 14599 0
-14590 -14597 0
-14591 14600 0
-14598 14600 0
-14591 -14598 14601 0
-14599 14601 0
-14591 -14599 0
-14592 14602 0
-14600 14602 0
-14592 -14600 14603 0
-14601 14603 0
-14592 -14601 0
-14593 -14603 0
-14606 53 54 55 0
-53 14606 0
-54 14606 0
-55 14606 0
-14607 109 110 111 0
-109 14607 0
-110 14607 0
-111 14607 0
-14608 165 166 167 0
-165 14608 0
-166 14608 0
-167 14608 0
-14609 221 222 223 0
-221 14609 0
-222 14609 0
-223 14609 0
-14610 277 278 279 0
-277 14610 0
-278 14610 0
-279 14610 0
-14611 333 334 335 0
-333 14611 0
-334 14611 0
-335 14611 0
-14606 14612 0
-14613 0
-14614 0
-14607 14615 0
-14612 14615 0
-14607 -14612 14616 0
-14613 14616 0
-14607 -14613 14617 0
-14614 14617 0
-14607 -14614 0
-14608 14618 0
-14615 14618 0
-14608 -14615 14619 0
-14616 14619 0
-14608 -14616 14620 0
-14617 14620 0
-14608 -14617 0
-14609 14621 0
-14618 14621 0
-14609 -14618 14622 0
-14619 14622 0
-14609 -14619 14623 0
-14620 14623 0
-14609 -14620 0
-14610 14624 0
-14621 14624 0
-14610 -14621 14625 0
-14622 14625 0
-14610 -14622 14626 0
-14623 14626 0
-14610 -14623 0
-14611 -14626 0
-14630 53 54 55 56 0
-53 14630 0
-54 14630 0
-55 14630 0
-56 14630 0
-14631 109 110 111 112 0
-109 14631 0
-110 14631 0
-111 14631 0
-112 14631 0
-14632 165 166 167 168 0
-165 14632 0
-166 14632 0
-167 14632 0
-168 14632 0
-14633 221 222 223 224 0
-221 14633 0
-222 14633 0
-223 14633 0
-224 14633 0
-14634 277 278 279 280 0
-277 14634 0
-278 14634 0
-279 14634 0
-280 14634 0
-14635 333 334 335 336 0
-333 14635 0
-334 14635 0
-335 14635 0
-336 14635 0
-14630 14636 0
-14637 0
-14638 0
-14639 0
-14631 14640 0
-14636 14640 0
-14631 -14636 14641 0
-14637 14641 0
-14631 -14637 14642 0
-14638 14642 0
-14631 -14638 14643 0
-14639 14643 0
-14631 -14639 0
-14632 14644 0
-14640 14644 0
-14632 -14640 14645 0
-14641 14645 0
-14632 -14641 14646 0
-14642 14646 0
-14632 -14642 14647 0
-14643 14647 0
-14632 -14643 0
-14633 14648 0
-14644 14648 0
-14633 -14644 14649 0
-14645 14649 0
-14633 -14645 14650 0
-14646 14650 0
-14633 -14646 14651 0
-14647 14651 0
-14633 -14647 0
-14634 14652 0
-14648 14652 0
-14634 -14648 14653 0
-14649 14653 0
-14634 -14649 14654 0
-14650 14654 0
-14634 -14650 14655 0
-14651 14655 0
-14634 -14651 0
-14635 -14655 0
-14660 54 0
-54 14660 0
-14661 110 0
-110 14661 0
-14662 166 0
-166 14662 0
-14663 222 0
-222 14663 0
-14664 278 0
-278 14664 0
-14665 334 0
-334 14665 0
-14660 14666 0
-14661 14667 0
-14666 14667 0
-14661 -14666 0
-14662 14668 0
-14667 14668 0
-14662 -14667 0
-14663 14669 0
-14668 14669 0
-14663 -14668 0
-14664 14670 0
-14669 14670 0
-14664 -14669 0
-14665 -14670 0
-14672 54 55 0
-54 14672 0
-55 14672 0
-14673 110 111 0
-110 14673 0
-111 14673 0
-14674 166 167 0
-166 14674 0
-167 14674 0
-14675 222 223 0
-222 14675 0
-223 14675 0
-14676 278 279 0
-278 14676 0
-279 14676 0
-14677 334 335 0
-334 14677 0
-335 14677 0
-14672 14678 0
-14679 0
-14673 14680 0
-14678 14680 0
-14673 -14678 14681 0
-14679 14681 0
-14673 -14679 0
-14674 14682 0
-14680 14682 0
-14674 -14680 14683 0
-14681 14683 0
-14674 -14681 0
-14675 14684 0
-14682 14684 0
-14675 -14682 14685 0
-14683 14685 0
-14675 -14683 0
-14676 14686 0
-14684 14686 0
-14676 -14684 14687 0
-14685 14687 0
-14676 -14685 0
-14677 -14687 0
-14690 54 55 56 0
-54 14690 0
-55 14690 0
-56 14690 0
-14691 110 111 112 0
-110 14691 0
-111 14691 0
-112 14691 0
-14692 166 167 168 0
-166 14692 0
-167 14692 0
-168 14692 0
-14693 222 223 224 0
-222 14693 0
-223 14693 0
-224 14693 0
-14694 278 279 280 0
-278 14694 0
-279 14694 0
-280 14694 0
-14695 334 335 336 0
-334 14695 0
-335 14695 0
-336 14695 0
-14690 14696 0
-14697 0
-14698 0
-14691 14699 0
-14696 14699 0
-14691 -14696 14700 0
-14697 14700 0
-14691 -14697 14701 0
-14698 14701 0
-14691 -14698 0
-14692 14702 0
-14699 14702 0
-14692 -14699 14703 0
-14700 14703 0
-14692 -14700 14704 0
-14701 14704 0
-14692 -14701 0
-14693 14705 0
-14702 14705 0
-14693 -14702 14706 0
-14703 14706 0
-14693 -14703 14707 0
-14704 14707 0
-14693 -14704 0
-14694 14708 0
-14705 14708 0
-14694 -14705 14709 0
-14706 14709 0
-14694 -14706 14710 0
-14707 14710 0
-14694 -14707 0
-14695 -14710 0
-14714 55 0
-55 14714 0
-14715 111 0
-111 14715 0
-14716 167 0
-167 14716 0
-14717 223 0
-223 14717 0
-14718 279 0
-279 14718 0
-14719 335 0
-335 14719 0
-14714 14720 0
-14715 14721 0
-14720 14721 0
-14715 -14720 0
-14716 14722 0
-14721 14722 0
-14716 -14721 0
-14717 14723 0
-14722 14723 0
-14717 -14722 0
-14718 14724 0
-14723 14724 0
-14718 -14723 0
-14719 -14724 0
-14726 55 56 0
-55 14726 0
-56 14726 0
-14727 111 112 0
-111 14727 0
-112 14727 0
-14728 167 168 0
-167 14728 0
-168 14728 0
-14729 223 224 0
-223 14729 0
-224 14729 0
-14730 279 280 0
-279 14730 0
-280 14730 0
-14731 335 336 0
-335 14731 0
-336 14731 0
-14726 14732 0
-14733 0
-14727 14734 0
-14732 14734 0
-14727 -14732 14735 0
-14733 14735 0
-14727 -14733 0
-14728 14736 0
-14734 14736 0
-14728 -14734 14737 0
-14735 14737 0
-14728 -14735 0
-14729 14738 0
-14736 14738 0
-14729 -14736 14739 0
-14737 14739 0
-14729 -14737 0
-14730 14740 0
-14738 14740 0
-14730 -14738 14741 0
-14739 14741 0
-14730 -14739 0
-14731 -14741 0
-14744 56 0
-56 14744 0
-14745 112 0
-112 14745 0
-14746 168 0
-168 14746 0
-14747 224 0
-224 14747 0
-14748 280 0
-280 14748 0
-14749 336 0
-336 14749 0
-14744 14750 0
-14745 14751 0
-14750 14751 0
-14745 -14750 0
-14746 14752 0
-14751 14752 0
-14746 -14751 0
-14747 14753 0
-14752 14753 0
-14747 -14752 0
-14748 14754 0
-14753 14754 0
-14748 -14753 0
-14749 -14754 0
-14756 14763 0
-14757 14764 0
-14763 14764 0
-14757 -14763 0
-14758 14765 0
-14764 14765 0
-14758 -14764 0
-14759 14766 0
-14765 14766 0
-14759 -14765 0
-14760 14767 0
-14766 14767 0
-14760 -14766 0
-14761 14768 0
-14767 14768 0
-14761 -14767 0
-14762 -14768 0
14756 14770 0
-14771 0
-14772 0
-14773 0
-14774 0
-14775 0
14757 14776 0
-14770 14776 0
14757 -14770 14777 0
-14771 14777 0
14757 -14771 14778 0
-14772 14778 0
14757 -14772 14779 0
-14773 14779 0
14757 -14773 14780 0
-14774 14780 0
14757 -14774 14781 0
-14775 14781 0
14757 -14775 0
14758 14782 0
-14776 14782 0
14758 -14776 14783 0
-14777 14783 0
14758 -14777 14784 0
-14778 14784 0
14758 -14778 14785 0
-14779 14785 0
14758 -14779 14786 0
-14780 14786 0
14758 -14780 14787 0
-14781 14787 0
14758 -14781 0
14759 14788 0
-14782 14788 0
14759 -14782 14789 0
-14783 14789 0
14759 -14783 14790 0
-14784 14790 0
14759 -14784 14791 0
-14785 14791 0
14759 -14785 14792 0
-14786 14792 0
14759 -14786 14793 0
-14787 14793 0
14759 -14787 0
14760 14794 0
-14788 14794 0
14760 -14788 14795 0
-14789 14795 0
14760 -14789 14796 0
-14790 14796 0
14760 -14790 14797 0
-14791 14797 0
14760 -14791 14798 0
-14792 14798 0
14760 -14792 14799 0
-14793 14799 0
14760 -14793 0
14761 14800 0
-14794 14800 0
14761 -14794 14801 0
-14795 14801 0
14761 -14795 14802 0
-14796 14802 0
14761 -14796 14803 0
-14797 14803 0
14761 -14797 14804 0
-14798 14804 0
14761 -14798 14805 0
-14799 14805 0
14761 -14799 0
14762 -14805 0
-50 14812 0
-106 14813 0
-14812 14813 0
-106 -14812 0
-162 14814 0
-14813 14814 0
-162 -14813 0
-218 14815 0
-14814 14815 0
-218 -14814 0
-274 14816 0
-14815 14816 0
-274 -14815 0
-330 14817 0
-14816 14817 0
-330 -14816 0
-14756 -14817 0
50 106 162 218 274 330 14756 0
-51 14819 0
-107 14820 0
-14819 14820 0
-107 -14819 0
-163 14821 0
-14820 14821 0
-163 -14820 0
-219 14822 0
-14821 14822 0
-219 -14821 0
-275 14823 0
-14822 14823 0
-275 -14822 0
-331 14824 0
-14823 14824 0
-331 -14823 0
-14757 -14824 0
51 107 163 219 275 331 14757 0
-52 14826 0
-108 14827 0
-14826 14827 0
-108 -14826 0
-164 14828 0
-14827 14828 0
-164 -14827 0
-220 14829 0
-14828 14829 0
-220 -14828 0
-276 14830 0
-14829 14830 0
-276 -14829 0
-332 14831 0
-14830 14831 0
-332 -14830 0
-14758 -14831 0
52 108 164 220 276 332 14758 0
-53 14833 0
-109 14834 0
-14833 14834 0
-109 -14833 0
-165 14835 0
-14834 14835 0
-165 -14834 0
-221 14836 0
-14835 14836 0
-221 -14835 0
-277 14837 0
-14836 14837 0
-277 -14836 0
-333 14838 0
-14837 14838 0
-333 -14837 0
-14759 -14838 0
53 109 165 221 277 333 14759 0
-54 14840 0
-110 14841 0
-14840 14841 0
-110 -14840 0
-166 14842 0
-14841 14842 0
-166 -14841 0
-222 14843 0
-14842 14843 0
-222 -14842 0
-278 14844 0
-14843 14844 0
-278 -14843 0
-334 14845 0
-14844 14845 0
-334 -14844 0
-14760 -14845 0
54 110 166 222 278 334 14760 0
-55 14847 0
-111 14848 0
-14847 14848 0
-111 -14847 0
-167 14849 0
-14848 14849 0
-167 -14848 0
-223 14850 0
-14849 14850 0
-223 -14849 0
-279 14851 0
-14850 14851 0
-279 -14850 0
-335 14852 0
-14851 14852 0
-335 -14851 0
-14761 -14852 0
55 111 167 223 279 335 14761 0
-56 14854 0
-112 14855 0
-14854 14855 0
-112 -14854 0
-168 14856 0
-14855 14856 0
-168 -14855 0
-224 14857 0
-14856 14857 0
-224 -14856 0
-280 14858 0
-14857 14858 0
-280 -14857 0
-336 14859 0
-14858 14859 0
-336 -14858 0
-14762 -14859 0
56 112 168 224 280 336 14762 0
-14861 99 0
-99 14861 0
-14862 155 0
-155 14862 0
-14863 211 0
-211 14863 0
-14864 267 0
-267 14864 0
-14865 323 0
-323 14865 0
-14861 14866 0
-14862 14867 0
-14866 14867 0
-14862 -14866 0
-14863 14868 0
-14867 14868 0
-14863 -14867 0
-14864 14869 0
-14868 14869 0
-14864 -14868 0
-14865 -14869 0
-14871 99 100 0
-99 14871 0
-100 14871 0
-14872 155 156 0
-155 14872 0
-156 14872 0
-14873 211 212 0
-211 14873 0
-212 14873 0
-14874 267 268 0
-267 14874 0
-268 14874 0
-14875 323 324 0
-323 14875 0
-324 14875 0
-14871 14876 0
-14877 0
-14872 14878 0
-14876 14878 0
-14872 -14876 14879 0
-14877 14879 0
-14872 -14877 0
-14873 14880 0
-14878 14880 0
-14873 -14878 14881 0
-14879 14881 0
-14873 -14879 0
-14874 14882 0
-14880 14882 0
-14874 -14880 14883 0
-14881 14883 0
-14874 -14881 0
-14875 -14883 0
-14886 99 100 101 0
-99 14886 0
-100 14886 0
-101 14886 0
-14887 155 156 157 0
-155 14887 0
-156 14887 0
-157 14887 0
-14888 211 212 213 0
-211 14888 0
-212 14888 0
-213 14888 0
-14889 267 268 269 0
-267 14889 0
-268 14889 0
-269 14889 0
-14890 323 324 325 0
-323 14890 0
-324 14890 0
-325 14890 0
-14886 14891 0
-14892 0
-14893 0
-14887 14894 0
-14891 14894 0
-14887 -14891 14895 0
-14892 14895 0
-14887 -14892 14896 0
-14893 14896 0
-14887 -14893 0
-14888 14897 0
-14894 14897 0
-14888 -14894 14898 0
-14895 14898 0
-14888 -14895 14899 0
-14896 14899 0
-14888 -14896 0
-14889 14900 0
-14897 14900 0
-14889 -14897 14901 0
-14898 14901 0
-14889 -14898 14902 0
-14899 14902 0
-14889 -14899 0
-14890 -14902 0
-14906 99 100 101 102 0
-99 14906 0
-100 14906 0
-101 14906 0
-102 14906 0
-14907 155 156 157 158 0
-155 14907 0
-156 14907 0
-157 14907 0
-158 14907 0
-14908 211 212 213 214 0
-211 14908 0
-212 14908 0
-213 14908 0
-214 14908 0
-14909 267 268 269 270 0
-267 14909 0
-268 14909 0
-269 14909 0
-270 14909 0
-14910 323 324 325 326 0
-323 14910 0
-324 14910 0
-325 14910 0
-326 14910 0
-14906 14911 0
-14912 0
-14913 0
-14914 0
-14907 14915 0
-14911 14915 0
-14907 -14911 14916 0
-14912 14916 0
-14907 -14912 14917 0
-14913 14917 0
-14907 -14913 14918 0
-14914 14918 0
-14907 -14914 0
-14908 14919 0
-14915 14919 0
-14908 -14915 14920 0
-14916 14920 0
-14908 -14916 14921 0
-14917 14921 0
-14908 -14917 14922 0
-14918 14922 0
-14908 -14918 0
-14909 14923 0
-14919 14923 0
-14909 -14919 14924 0
-14920 14924 0
-14909 -14920 14925 0
-14921 14925 0
-14909 -14921 14926 0
-14922 14926 0
-14909 -14922 0
-14910 -14926 0
-14931 99 100 101 102 103 0
-99 14931 0
-100 14931 0
-101 14931 0
-102 14931 0
-103 14931 0
-14932 155 156 157 158 159 0
-155 14932 0
-156 14932 0
-157 14932 0
-158 14932 0
-159 14932 0
-14933 211 212 213 214 215 0
-211 14933 0
-212 14933 0
-213 14933 0
-214 14933 0
-215 14933 0
-14934 267 268 269 270 271 0
-267 14934 0
-268 14934 0
-269 14934 0
-270 14934 0
-271 14934 0
-14935 323 324 325 326 327 0
-323 14935 0
-324 14935 0
-325 14935 0
-326 14935 0
-327 14935 0
-14936 100 0
-100 14936 0
-14937 156 0
-156 14937 0
-14938 212 0
-212 14938 0
-14939 268 0
-268 14939 0
-14940 324 0
-324 14940 0
-14936 14941 0
-14937 14942 0
-14941 14942 0
-14937 -14941 0
-14938 14943 0
-14942 14943 0
-14938 -14942 0
-14939 14944 0
-14943 14944 0
-14939 -14943 0
-14940 -14944 0
-14946 100 101 0
-100 14946 0
-101 14946 0
-14947 156 157 0
-156 14947 0
-157 14947 0
-14948 212 213 0
-212 14948 0
-213 14948 0
-14949 268 269 0
-268 14949 0
-269 14949 0
-14950 324 325 0
-324 14950 0
-325 14950 0
-14946 14951 0
-14952 0
-14947 14953 0
-14951 14953 0
-14947 -14951 14954 0
-14952 14954 0
-14947 -14952 0
-14948 14955 0
-14953 14955 0
-14948 -14953 14956 0
-14954 14956 0
-14948 -14954 0
-14949 14957 0
-14955 14957 0
-14949 -14955 14958 0
-14956 14958 0
-14949 -14956 0
-14950 -14958 0
-14961 100 101 102 0
-100 14961 0
-101 14961 0
-102 14961 0
-14962 156 157 158 0
-156 14962 0
-157 14962 0
-158 14962 0
-14963 212 213 214 0
-212 14963 0
-213 14963 0
-214 14963 0
-14964 268 269 270 0
-268 14964 0
-269 14964 0
-270 14964 0
-14965 324 325 326 0
-324 14965 0
-325 14965 0
-326 14965 0
-14961 14966 0
-14967 0
-14968 0
-14962 14969 0
-14966 14969 0
-14962 -14966 14970 0
-14967 14970 0
-14962 -14967 14971 0
-14968 14971 0
-14962 -14968 0
-14963 14972 0
-14969 14972 0
-14963 -14969 14973 0
-14970 14973 0
-14963 -14970 14974 0
-14971 14974 0
-14963 -14971 0
-14964 14975 0
-14972 14975 0
-14964 -14972 14976 0
-14973 14976 0
-14964 -14973 14977 0
-14974 14977 0
-14964 -14974 0
-14965 -14977 0
-14981 100 101 102 103 0
-100 14981 0
-101 14981 0
-102 14981 0
-103 14981 0
-14982 156 157 158 159 0
-156 14982 0
-157 14982 0
-158 14982 0
-159 14982 0
-14983 212 213 214 215 0
-212 14983 0
-213 14983 0
-214 14983 0
-215 14983 0
-14984 268 269 270 271 0
-268 14984 0
-269 14984 0
-270 14984 0
-271 14984 0
-14985 324 325 326 327 0
-324 14985 0
-325 14985 0
-326 14985 0
-327 14985 0
-14981 14986 0
-14987 0
-14988 0
-14989 0
-14982 14990 0
-14986 14990 0
-14982 -14986 14991 0
-14987 14991 0
-14982 -14987 14992 0
-14988 14992 0
-14982 -14988 14993 0
-14989 14993 0
-14982 -14989 0
-14983 14994 0
-14990 14994 0
-14983 -14990 14995 0
-14991 14995 0
-14983 -14991 14996 0
-14992 14996 0
-14983 -14992 14997 0
-14993 14997 0
-14983 -14993 0
-14984 14998 0
-14994 14998 0
-14984 -14994 14999 0
-14995 14999 0
-14984 -14995 15000 0
-14996 15000 0
-14984 -14996 15001 0
-14997 15001 0
-14984 -14997 0
-14985 -15001 0
-15006 100 101 102 103 104 0
-100 15006 0
-101 15006 0
-102 15006 0
-103 15006 0
-104 15006 0
-15007 156 157 158 159 160 0
-156 15007 0
-157 15007 0
-158 15007 0
-159 15007 0
-160 15007 0
-15008 212 213 214 215 216 0
-212 15008 0
-213 15008 0
-214 15008 0
-215 15008 0
-216 15008 0
-15009 268 269 270 271 272 0
-268 15009 0
-269 15009 0
-270 15009 0
-271 15009 0
-272 15009 0
-15010 324 325 326 327 328 0
-324 15010 0
-325 15010 0
-326 15010 0
-327 15010 0
-328 15010 0
-15011 101 0
-101 15011 0
-15012 157 0
-157 15012 0
-15013 213 0
-213 15013 0
-15014 269 0
-269 15014 0
-15015 325 0
-325 15015 0
-15011 15016 0
-15012 15017 0
-15016 15017 0
-15012 -15016 0
-15013 15018 0
-15017 15018 0
-15013 -15017 0
-15014 15019 0
-15018 15019 0
-15014 -15018 0
-15015 -15019 0
-15021 101 102 0
-101 15021 0
-102 15021 0
-15022 157 158 0
-157 15022 0
-158 15022 0
-15023 213 214 0
-213 15023 0
-214 15023 0
-15024 269 270 0
-269 15024 0
-270 15024 0
-15025 325 326 0
-325 15025 0
-326 15025 0
-15021 15026 0
-15027 0
-15022 15028 0
-15026 15028 0
-15022 -15026 15029 0
-15027 15029 0
-15022 -15027 0
-15023 15030 0
-15028 15030 0
-15023 -15028 15031 0
-15029 15031 0
-15023 -15029 0
-15024 15032 0
-15030 15032 0
-15024 -15030 15033 0
-15031 15033 0
-15024 -15031 0
-15025 -15033 0
-15036 101 102 103 0
-101 15036 0
-102 15036 0
-103 15036 0
-15037 157 158 159 0
-157 15037 0
-158 15037 0
-159 15037 0
-15038 213 214 215 0
-213 15038 0
-214 15038 0
-215 15038 0
-15039 269 270 271 0
-269 15039 0
-270 15039 0
-271 15039 0
-15040 325 326 327 0
-325 15040 0
-326 15040 0
-327 15040 0
-15036 15041 0
-15042 0
-15043 0
-15037 15044 0
-15041 15044 0
-15037 -15041 15045 0
-15042 15045 0
-15037 -15042 15046 0
-15043 15046 0
-15037 -15043 0
-15038 15047 0
-15044 15047 0
-15038 -15044 15048 0
-15045 15048 0
-15038 -15045 15049 0
-15046 15049 0
-15038 -15046 0
-15039 15050 0
-15047 15050 0
-15039 -15047 15051 0
-15048 15051 0
-15039 -15048 15052 0
-15049 15052 0
-15039 -15049 0
-15040 -15052 0
-15056 101 102 103 104 0
-101 15056 0
-102 15056 0
-103 15056 0
-104 15056 0
-15057 157 158 159 160 0
-157 15057 0
-158 15057 0
-159 15057 0
-160 15057 0
-15058 213 214 215 216 0
-213 15058 0
-214 15058 0
-215 15058 0
-216 15058 0
-15059 269 270 271 272 0
-269 15059 0
-270 15059 0
-271 15059 0
-272 15059 0
-15060 325 326 327 328 0
-325 15060 0
-326 15060 0
-327 15060 0
-328 15060 0
-15056 15061 0
-15062 0
-15063 0
-15064 0
-15057 15065 0
-15061 15065 0
-15057 -15061 15066 0
-15062 15066 0
-15057 -15062 15067 0
-15063 15067 0
-15057 -15063 15068 0
-15064 15068 0
-15057 -15064 0
-15058 15069 0
-15065 15069 0
-15058 -15065 15070 0
-15066 15070 0
-15058 -15066 15071 0
-15067 15071 0
-15058 -15067 15072 0
-15068 15072 0
-15058 -15068 0
-15059 15073 0
-15069 15073 0
-15059 -15069 15074 0
-15070 15074 0
-15059 -15070 15075 0
-15071 15075 0
-15059 -15071 15076 0
-15072 15076 0
-15059 -15072 0
-15060 -15076 0
-15081 101 102 103 104 105 0
-101 15081 0
-102 15081 0
-103 15081 0
-104 15081 0
-105 15081 0
-15082 157 158 159 160 161 0
-157 15082 0
-158 15082 0
-159 15082 0
-160 15082 0
-161 15082 0
-15083 213 214 215 216 217 0
-213 15083 0
-214 15083 0
-215 15083 0
-216 15083 0
-217 15083 0
-15084 269 270 271 272 273 0
-269 15084 0
-270 15084 0
-271 15084 0
-272 15084 0
-273 15084 0
-15085 325 326 327 328 329 0
-325 15085 0
-326 15085 0
-327 15085 0
-328 15085 0
-329 15085 0
-15086 102 0
-102 15086 0
-15087 158 0
-158 15087 0
-15088 214 0
-214 15088 0
-15089 270 0
-270 15089 0
-15090 326 0
-326 15090 0
-15086 15091 0
-15087 15092 0
-15091 15092 0
-15087 -15091 0
-15088 15093 0
-15092 15093 0
-15088 -15092 0
-15089 15094 0
-15093 15094 0
-15089 -15093 0
-15090 -15094 0
-15096 102 103 0
-102 15096 0
-103 15096 0
-15097 158 159 0
-158 15097 0
-159 15097 0
-15098 214 215 0
-214 15098 0
-215 15098 0
-15099 270 271 0
-270 15099 0
-271 15099 0
-15100 326 327 0
-326 15100 0
-327 15100 0
-15096 15101 0
-15102 0
-15097 15103 0
-15101 15103 0
-15097 -15101 15104 0
-15102 15104 0
-15097 -15102 0
-15098 15105 0
-15103 15105 0
-15098 -15103 15106 0
-15104 15106 0
-15098 -15104 0
-15099 15107 0
-15105 15107 0
-15099 -15105 15108 0
-15106 15108 0
-15099 -15106 0
-15100 -15108 0
-15111 102 103 104 0
-102 15111 0
-103 15111 0
-104 15111 0
-15112 158 159 160 0
-158 15112 0
-159 15112 0
-160 15112 0
-15113 214 215 216 0
-214 15113 0
-215 15113 0
-216 15113 0
-15114 270 271 272 0
-270 15114 0
-271 15114 0
-272 15114 0
-15115 326 327 328 0
-326 15115 0
-327 15115 0
-328 15115 0
-15111 15116 0
-15117 0
-15118 0
-15112 15119 0
-15116 15119 0
-15112 -15116 15120 0
-15117 15120 0
-15112 -15117 15121 0
-15118 15121 0
-15112 -15118 0
-15113 15122 0
-15119 15122 0
-15113 -15119 15123 0
-15120 15123 0
-15113 -15120 15124 0
-15121 15124 0
-15113 -15121 0
-15114 15125 0
-15122 15125 0
-15114 -15122 15126 0
-15123 15126 0
-15114 -15123 15127 0
-15124 15127 0
-15114 -15124 0
-15115 -15127 0
-15131 102 103 104 105 0
-102 15131 0
-103 15131 0
-104 15131 0
-105 15131 0
-15132 158 159 160 161 0
-158 15132 0
-159 15132 0
-160 15132 0
-161 15132 0
-15133 214 215 216 217 0
-214 15133 0
-215 15133 0
-216 15133 0
-217 15133 0
-15134 270 271 272 273 0
-270 15134 0
-271 15134 0
-272 15134 0
-273 15134 0
-15135 326 327 328 329 0
-326 15135 0
-327 15135 0
-328 15135 0
-329 15135 0
-15131 15136 0
-15137 0
-15138 0
-15139 0
-15132 15140 0
-15136 15140 0
-15132 -15136 15141 0
-15137 15141 0
-15132 -15137 15142 0
-15138 15142 0
-15132 -15138 15143 0
-15139 15143 0
-15132 -15139 0
-15133 15144 0
-15140 15144 0
-15133 -15140 15145 0
-15141 15145 0
-15133 -15141 15146 0
-15142 15146 0
-15133 -15142 15147 0
-15143 15147 0
-15133 -15143 0
-15134 15148 0
-15144 15148 0
-15134 -15144 15149 0
-15145 15149 0
-15134 -15145 15150 0
-15146 15150 0
-15134 -15146 15151 0
-15147 15151 0
-15134 -15147 0
-15135 -15151 0
-15156 103 0
-103 15156 0
-15157 159 0
-159 15157 0
-15158 215 0
-215 15158 0
-15159 271 0
-271 15159 0
-15160 327 0
-327 15160 0
-15156 15161 0
-15157 15162 0
-15161 15162 0
-15157 -15161 0
-15158 15163 0
-15162 15163 0
-15158 -15162 0
-15159 15164 0
-15163 15164 0
-15159 -15163 0
-15160 -15164 0
-15166 103 104 0
-103 15166 0
-104 15166 0
-15167 159 160 0
-159 15167 0
-160 15167 0
-15168 215 216 0
-215 15168 0
-216 15168 0
-15169 271 272 0
-271 15169 0
-272 15169 0
-15170 327 328 0
-327 15170 0
-328 15170 0
-15166 15171 0
-15172 0
-15167 15173 0
-15171 15173 0
-15167 -15171 15174 0
-15172 15174 0
-15167 -15172 0
-15168 15175 0
-15173 15175 0
-15168 -15173 15176 0
-15174 15176 0
-15168 -15174 0
-15169 15177 0
-15175 15177 0
-15169 -15175 15178 0
-15176 15178 0
-15169 -15176 0
-15170 -15178 0
-15181 103 104 105 0
-103 15181 0
-104 15181 0
-105 15181 0
-15182 159 160 161 0
-159 15182 0
-160 15182 0
-161 15182 0
-15183 215 216 217 0
-215 15183 0
-216 15183 0
-217 15183 0
-15184 271 272 273 0
-271 15184 0
-272 15184 0
-273 15184 0
-15185 327 328 329 0
-327 15185 0
-328 15185 0
-329 15185 0
-15181 15186 0
-15187 0
-15188 0
-15182 15189 0
-15186 15189 0
-15182 -15186 15190 0
-15187 15190 0
-15182 -15187 15191 0
-15188 15191 0
-15182 -15188 0
-15183 15192 0
-15189 15192 0
-15183 -15189 15193 0
-15190 15193 0
-15183 -15190 15194 0
-15191 15194 0
-15183 -15191 0
-15184 15195 0
-15192 15195 0
-15184 -15192 15196 0
-15193 15196 0
-15184 -15193 15197 0
-15194 15197 0
-15184 -15194 0
-15185 -15197 0
-15201 104 0
-104 15201 0
-15202 160 0
-160 15202 0
-15203 216 0
-216 15203 0
-15204 272 0
-272 15204 0
-15205 328 0
-328 15205 0
-15201 15206 0
-15202 15207 0
-15206 15207 0
-15202 -15206 0
-15203 15208 0
-15207 15208 0
-15203 -15207 0
-15204 15209 0
-15208 15209 0
-15204 -15208 0
-15205 -15209 0
-15211 104 105 0
-104 15211 0
-105 15211 0
-15212 160 161 0
-160 15212 0
-161 15212 0
-15213 216 217 0
-216 15213 0
-217 15213 0
-15214 272 273 0
-272 15214 0
-273 15214 0
-15215 328 329 0
-328 15215 0
-329 15215 0
-15211 15216 0
-15217 0
-15212 15218 0
-15216 15218 0
-15212 -15216 15219 0
-15217 15219 0
-15212 -15217 0
-15213 15220 0
-15218 15220 0
-15213 -15218 15221 0
-15219 15221 0
-15213 -15219 0
-15214 15222 0
-15220 15222 0
-15214 -15220 15223 0
-15221 15223 0
-15214 -15221 0
-15215 -15223 0
-15226 105 0
-105 15226 0
-15227 161 0
-161 15227 0
-15228 217 0
-217 15228 0
-15229 273 0
-273 15229 0
-15230 329 0
-329 15230 0
-15226 15231 0
-15227 15232 0
-15231 15232 0
-15227 -15231 0
-15228 15233 0
-15232 15233 0
-15228 -15232 0
-15229 15234 0
-15233 15234 0
-15229 -15233 0
-15230 -15234 0
-15236 15243 0
-15244 0
-15237 15245 0
-15243 15245 0
-15237 -15243 15246 0
-15244 15246 0
-15237 -15244 0
-15238 15247 0
-15245 15247 0
-15238 -15245 15248 0
-15246 15248 0
-15238 -15246 0
-15239 15249 0
-15247 15249 0
-15239 -15247 15250 0
-15248 15250 0
-15239 -15248 0
-15240 15251 0
-15249 15251 0
-15240 -15249 15252 0
-15250 15252 0
-15240 -15250 0
-15241 15253 0
-15251 15253 0
-15241 -15251 15254 0
-15252 15254 0
-15241 -15252 0
-15242 -15254 0
15236 15257 0
-15258 0
-15259 0
-15260 0
-15261 0
15237 15262 0
-15257 15262 0
15237 -15257 15263 0
-15258 15263 0
15237 -15258 15264 0
-15259 15264 0
15237 -15259 15265 0
-15260 15265 0
15237 -15260 15266 0
-15261 15266 0
15237 -15261 0
15238 15267 0
-15262 15267 0
15238 -15262 15268 0
-15263 15268 0
15238 -15263 15269 0
-15264 15269 0
15238 -15264 15270 0
-15265 15270 0
15238 -15265 15271 0
-15266 15271 0
15238 -15266 0
15239 15272 0
-15267 15272 0
15239 -15267 15273 0
-15268 15273 0
15239 -15268 15274 0
-15269 15274 0
15239 -15269 15275 0
-15270 15275 0
15239 -15270 15276 0
-15271 15276 0
15239 -15271 0
15240 15277 0
-15272 15277 0
15240 -15272 15278 0
-15273 15278 0
15240 -15273 15279 0
-15274 15279 0
15240 -15274 15280 0
-15275 15280 0
15240 -15275 15281 0
-15276 15281 0
15240 -15276 0
15241 15282 0
-15277 15282 0
15241 -15277 15283 0
-15278 15283 0
15241 -15278 15284 0
-15279 15284 0
15241 -15279 15285 0
-15280 15285 0
15241 -15280 15286 0
-15281 15286 0
15241 -15281 0
15242 -15286 0
-99 15292 0
-155 15293 0
-15292 15293 0
-155 -15292 0
-211 15294 0
-15293 15294 0
-211 -15293 0
-267 15295 0
-15294 15295 0
-267 -15294 0
-323 15296 0
-15295 15296 0
-323 -15295 0
-15236 -15296 0
99 155 211 267 323 15236 0
-100 15298 0
-156 15299 0
-15298 15299 0
-156 -15298 0
-212 15300 0
-15299 15300 0
-212 -15299 0
-268 15301 0
-15300 15301 0
-268 -15300 0
-324 15302 0
-15301 15302 0
-324 -15301 0
-15237 -15302 0
100 156 212 268 324 15237 0
-101 15304 0
-157 15305 0
-15304 15305 0
-157 -15304 0
-213 15306 0
-15305 15306 0
-213 -15305 0
-269 15307 0
-15306 15307 0
-269 -15306 0
-325 15308 0
-15307 15308 0
-325 -15307 0
-15238 -15308 0
101 157 213 269 325 15238 0
-102 15310 0
-158 15311 0
-15310 15311 0
-158 -15310 0
-214 15312 0
-15311 15312 0
-214 -15311 0
-270 15313 0
-15312 15313 0
-270 -15312 0
-326 15314 0
-15313 15314 0
-326 -15313 0
-15239 -15314 0
102 158 214 270 326 15239 0
-103 15316 0
-159 15317 0
-15316 15317 0
-159 -15316 0
-215 15318 0
-15317 15318 0
-215 -15317 0
-271 15319 0
-15318 15319 0
-271 -15318 0
-327 15320 0
-15319 15320 0
-327 -15319 0
-15240 -15320 0
103 159 215 271 327 15240 0
-104 15322 0
-160 15323 0
-15322 15323 0
-160 -15322 0
-216 15324 0
-15323 15324 0
-216 -15323 0
-272 15325 0
-15324 15325 0
-272 -15324 0
-328 15326 0
-15325 15326 0
-328 -15325 0
-15241 -15326 0
104 160 216 272 328 15241 0
-105 15328 0
-161 15329 0
-15328 15329 0
-161 -15328 0
-217 15330 0
-15329 15330 0
-217 -15329 0
-273 15331 0
-15330 15331 0
-273 -15330 0
-329 15332 0
-15331 15332 0
-329 -15331 0
-15242 -15332 0
105 161 217 273 329 15242 0
-15334 148 0
-148 15334 0
-15335 204 0
-204 15335 0
-15336 260 0
-260 15336 0
-15337 316 0
-316 15337 0
-15334 15338 0
-15335 15339 0
-15338 15339 0
-15335 -15338 0
-15336 15340 0
-15339 15340 0
-15336 -15339 0
-15337 -15340 0
-15342 148 149 0
-148 15342 0
-149 15342 0
-15343 204 205 0
-204 15343 0
-205 15343 0
-15344 260 261 0
-260 15344 0
-261 15344 0
-15345 316 317 0
-316 15345 0
-317 15345 0
-15342 15346 0
-15347 0
-15343 15348 0
-15346 15348 0
-15343 -15346 15349 0
-15347 15349 0
-15343 -15347 0
-15344 15350 0
-15348 15350 0
-15344 -15348 15351 0
-15349 15351 0
-15344 -15349 0
-15345 -15351 0
-15354 148 149 150 0
-148 15354 0
-149 15354 0
-150 15354 0
-15355 204 205 206 0
-204 15355 0
-205 15355 0
-206 15355 0
-15356 260 261 262 0
-260 15356 0
-261 15356 0
-262 15356 0
-15357 316 317 318 0
-316 15357 0
-317 15357 0
-318 15357 0
-15354 15358 0
-15359 0
-15360 0
-15355 15361 0
-15358 15361 0
-15355 -15358 15362 0
-15359 15362 0
-15355 -15359 15363 0
-15360 15363 0
-15355 -15360 0
-15356 15364 0
-15361 15364 0
-15356 -15361 15365 0
-15362 15365 0
-15356 -15362 15366 0
-15363 15366 0
-15356 -15363 0
-15357 -15366 0
-15370 148 149 150 151 0
-148 15370 0
-149 15370 0
-150 15370 0
-151 15370 0
-15371 204 205 206 207 0
-204 15371 0
-205 15371 0
-206 15371 0
-207 15371 0
-15372 260 261 262 263 0
-260 15372 0
-261 15372 0
-262 15372 0
-263 15372 0
-15373 316 317 318 319 0
-316 15373 0
-317 15373 0
-318 15373 0
-319 15373 0
-15374 149 0
-149 15374 0
-15375 205 0
-205 15375 0
-15376 261 0
-261 15376 0
-15377 317 0
-317 15377 0
-15374 15378 0
-15375 15379 0
-15378 15379 0
-15375 -15378 0
-15376 15380 0
-15379 15380 0
-15376 -15379 0
-15377 -15380 0
-15382 149 150 0
-149 15382 0
-150 15382 0
-15383 205 206 0
-205 15383 0
-206 15383 0
-15384 261 262 0
-261 15384 0
-262 15384 0
-15385 317 318 0
-317 15385 0
-318 15385 0
-15382 15386 0
-15387 0
-15383 15388 0
-15386 15388 0
-15383 -15386 15389 0
-15387 15389 0
-15383 -15387 0
-15384 15390 0
-15388 15390 0
-15384 -15388 15391 0
-15389 15391 0
-15384 -15389 0
-15385 -15391 0
-15394 149 150 151 0
-149 15394 0
-150 15394 0
-151 15394 0
-15395 205 206 207 0
-205 15395 0
-206 15395 0
-207 15395 0
-15396 261 262 263 0
-261 15396 0
-262 15396 0
-263 15396 0
-15397 317 318 319 0
-317 15397 0
-318 15397 0
-319 15397 0
-15394 15398 0
-15399 0
-15400 0
-15395 15401 0
-15398 15401 0
-15395 -15398 15402 0
-15399 15402 0
-15395 -15399 15403 0
-15400 15403 0
-15395 -15400 0
-15396 15404 0
-15401 15404 0
-15396 -15401 15405 0
-15402 15405 0
-15396 -15402 15406 0
-15403 15406 0
-15396 -15403 0
-15397 -15406 0
-15410 149 150 151 152 0
-149 15410 0
-150 15410 0
-151 15410 0
-152 15410 0
-15411 205 206 207 208 0
-205 15411 0
-206 15411 0
-207 15411 0
-208 15411 0
-15412 261 262 263 264 0
-261 15412 0
-262 15412 0
-263 15412 0
-264 15412 0
-15413 317 318 319 320 0
-317 15413 0
-318 15413 0
-319 15413 0
-320 15413 0
-15414 150 0
-150 15414 0
-15415 206 0
-206 15415 0
-15416 262 0
-262 15416 0
-15417 318 0
-318 15417 0
-15414 15418 0
-15415 15419 0
-15418 15419 0
-15415 -15418 0
-15416 15420 0
-15419 15420 0
-15416 -15419 0
-15417 -15420 0
-15422 150 151 0
-150 15422 0
-151 15422 0
-15423 206 207 0
-206 15423 0
-207 15423 0
-15424 262 263 0
-262 15424 0
-263 15424 0
-15425 318 319 0
-318 15425 0
-319 15425 0
-15422 15426 0
-15427 0
-15423 15428 0
-15426 15428 0
-15423 -15426 15429 0
-15427 15429 0
-15423 -15427 0
-15424 15430 0
-15428 15430 0
-15424 -15428 15431 0
-15429 15431 0
-15424 -15429 0
-15425 -15431 0
-15434 150 151 152 0
-150 15434 0
-151 15434 0
-152 15434 0
-15435 206 207 208 0
-206 15435 0
-207 15435 0
-208 15435 0
-15436 262 263 264 0
-262 15436 0
-263 15436 0
-264 15436 0
-15437 318 319 320 0
-318 15437 0
-319 15437 0
-320 15437 0
-15434 15438 0
-15439 0
-15440 0
-15435 15441 0
-15438 15441 0
-15435 -15438 15442 0
-15439 15442 0
-15435 -15439 15443 0
-15440 15443 0
-15435 -15440 0
-15436 15444 0
-15441 15444 0
-15436 -15441 15445 0
-15442 15445 0
-15436 -15442 15446 0
-15443 15446 0
-15436 -15443 0
-15437 -15446 0
-15450 150 151 152 153 0
-150 15450 0
-151 15450 0
-152 15450 0
-153 15450 0
-15451 206 207 208 209 0
-206 15451 0
-207 15451 0
-208 15451 0
-209 15451 0
-15452 262 263 264 265 0
-262 15452 0
-263 15452 0
-264 15452 0
-265 15452 0
-15453 318 319 320 321 0
-318 15453 0
-319 15453 0
-320 15453 0
-321 15453 0
-15454 151 0
-151 15454 0
-15455 207 0
-207 15455 0
-15456 263 0
-263 15456 0
-15457 319 0
-319 15457 0
-15454 15458 0
-15455 15459 0
-15458 15459 0
-15455 -15458 0
-15456 15460 0
-15459 15460 0
-15456 -15459 0
-15457 -15460 0
-15462 151 152 0
-151 15462 0
-152 15462 0
-15463 207 208 0
-207 15463 0
-208 15463 0
-15464 263 264 0
-263 15464 0
-264 15464 0
-15465 319 320 0
-319 15465 0
-320 15465 0
-15462 15466 0
-15467 0
-15463 15468 0
-15466 15468 0
-15463 -15466 15469 0
-15467 15469 0
-15463 -15467 0
-15464 15470 0
-15468 15470 0
-15464 -15468 15471 0
-15469 15471 0
-15464 -15469 0
-15465 -15471 0
-15474 151 152 153 0
-151 15474 0
-152 15474 0
-153 15474 0
-15475 207 208 209 0
-207 15475 0
-208 15475 0
-209 15475 0
-15476 263 264 265 0
-263 15476 0
-264 15476 0
-265 15476 0
-15477 319 320 321 0
-319 15477 0
-320 15477 0
-321 15477 0
-15474 15478 0
-15479 0
-15480 0
-15475 15481 0
-15478 15481 0
-15475 -15478 15482 0
-15479 15482 0
-15475 -15479 15483 0
-15480 15483 0
-15475 -15480 0
-15476 15484 0
-15481 15484 0
-15476 -15481 15485 0
-15482 15485 0
-15476 -15482 15486 0
-15483 15486 0
-15476 -15483 0
-15477 -15486 0
-15490 151 152 153 154 0
-151 15490 0
-152 15490 0
-153 15490 0
-154 15490 0
-15491 207 208 209 210 0
-207 15491 0
-208 15491 0
-209 15491 0
-210 15491 0
-15492 263 264 265 266 0
-263 15492 0
-264 15492 0
-265 15492 0
-266 15492 0
-15493 319 320 321 322 0
-319 15493 0
-320 15493 0
-321 15493 0
-322 15493 0
-15494 152 0
-152 15494 0
-15495 208 0
-208 15495 0
-15496 264 0
-264 15496 0
-15497 320 0
-320 15497 0
-15494 15498 0
-15495 15499 0
-15498 15499 0
-15495 -15498 0
-15496 15500 0
-15499 15500 0
-15496 -15499 0
-15497 -15500 0
-15502 152 153 0
-152 15502 0
-153 15502 0
-15503 208 209 0
-208 15503 0
-209 15503 0
-15504 264 265 0
-264 15504 0
-265 15504 0
-15505 320 321 0
-320 15505 0
-321 15505 0
-15502 15506 0
-15507 0
-15503 15508 0
-15506 15508 0
-15503 -15506 15509 0
-15507 15509 0
-15503 -15507 0
-15504 15510 0
-15508 15510 0
-15504 -15508 15511 0
-15509 15511 0
-15504 -15509 0
-15505 -15511 0
-15514 152 153 154 0
-152 15514 0
-153 15514 0
-154 15514 0
-15515 208 209 210 0
-208 15515 0
-209 15515 0
-210 15515 0
-15516 264 265 266 0
-264 15516 0
-265 15516 0
-266 15516 0
-15517 320 321 322 0
-320 15517 0
-321 15517 0
-322 15517 0
-15514 15518 0
-15519 0
-15520 0
-15515 15521 0
-15518 15521 0
-15515 -15518 15522 0
-15519 15522 0
-15515 -15519 15523 0
-15520 15523 0
-15515 -15520 0
-15516 15524 0
-15521 15524 0
-15516 -15521 15525 0
-15522 15525 0
-15516 -15522 15526 0
-15523 15526 0
-15516 -15523 0
-15517 -15526 0
-15530 153 0
-153 15530 0
-15531 209 0
-209 15531 0
-15532 265 0
-265 15532 0
-15533 321 0
-321 15533 0
-15530 15534 0
-15531 15535 0
-15534 15535 0
-15531 -15534 0
-15532 15536 0
-15535 15536 0
-15532 -15535 0
-15533 -15536 0
-15538 153 154 0
-153 15538 0
-154 15538 0
-15539 209 210 0
-209 15539 0
-210 15539 0
-15540 265 266 0
-265 15540 0
-266 15540 0
-15541 321 322 0
-321 15541 0
-322 15541 0
-15538 15542 0
-15543 0
-15539 15544 0
-15542 15544 0
-15539 -15542 15545 0
-15543 15545 0
-15539 -15543 0
-15540 15546 0
-15544 15546 0
-15540 -15544 15547 0
-15545 15547 0
-15540 -15545 0
-15541 -15547 0
-15550 154 0
-154 15550 0
-15551 210 0
-210 15551 0
-15552 266 0
-266 15552 0
-15553 322 0
-322 15553 0
-15550 15554 0
-15551 15555 0
-15554 15555 0
-15551 -15554 0
-15552 15556 0
-15555 15556 0
-15552 -15555 0
-15553 -15556 0
-15558 15565 0
-15566 0
-15567 0
-15559 15568 0
-15565 15568 0
-15559 -15565 15569 0
-15566 15569 0
-15559 -15566 15570 0
-15567 15570 0
-15559 -15567 0
-15560 15571 0
-15568 15571 0
-15560 -15568 15572 0
-15569 15572 0
-15560 -15569 15573 0
-15570 15573 0
-15560 -15570 0
-15561 15574 0
-15571 15574 0
-15561 -15571 15575 0
-15572 15575 0
-15561 -15572 15576 0
-15573 15576 0
-15561 -15573 0
-15562 15577 0
-15574 15577 0
-15562 -15574 15578 0
-15575 15578 0
-15562 -15575 15579 0
-15576 15579 0
-15562 -15576 0
-15563 15580 0
-15577 15580 0
-15563 -15577 15581 0
-15578 15581 0
-15563 -15578 15582 0
-15579 15582 0
-15563 -15579 0
-15564 -15582 0
15558 15586 0
-15587 0
-15588 0
-15589 0
15559 15590 0
-15586 15590 0
15559 -15586 15591 0
-15587 15591 0
15559 -15587 15592 0
-15588 15592 0
15559 -15588 15593 0
-15589 15593 0
15559 -15589 0
15560 15594 0
-15590 15594 0
15560 -15590 15595 0
-15591 15595 0
15560 -15591 15596 0
-15592 15596 0
15560 -15592 15597 0
-15593 15597 0
15560 -15593 0
15561 15598 0
-15594 15598 0
15561 -15594 15599 0
-15595 15599 0
15561 -15595 15600 0
-15596 15600 0
15561 -15596 15601 0
-15597 15601 0
15561 -15597 0
15562 15602 0
-15598 15602 0
15562 -15598 15603 0
-15599 15603 0
15562 -15599 15604 0
-15600 15604 0
15562 -15600 15605 0
-15601 15605 0
15562 -15601 0
15563 15606 0
-15602 15606 0
15563 -15602 15607 0
-15603 15607 0
15563 -15603 15608 0
-15604 15608 0
15563 -15604 15609 0
-15605 15609 0
15563 -15605 0
15564 -15609 0
-148 15614 0
-204 15615 0
-15614 15615 0
-204 -15614 0
-260 15616 0
-15615 15616 0
-260 -15615 0
-316 15617 0
-15616 15617 0
-316 -15616 0
-15558 -15617 0
148 204 260 316 15558 0
-149 15619 0
-205 15620 0
-15619 15620 0
-205 -15619 0
-261 15621 0
-15620 15621 0
-261 -15620 0
-317 15622 0
-15621 15622 0
-317 -15621 0
-15559 -15622 0
149 205 261 317 15559 0
-150 15624 0
-206 15625 0
-15624 15625 0
-206 -15624 0
-262 15626 0
-15625 15626 0
-262 -15625 0
-318 15627 0
-15626 15627 0
-318 -15626 0
-15560 -15627 0
150 206 262 318 15560 0
-151 15629 0
-207 15630 0
-15629 15630 0
-207 -15629 0
-263 15631 0
-15630 15631 0
-263 -15630 0
-319 15632 0
-15631 15632 0
-319 -15631 0
-15561 -15632 0
151 207 263 319 15561 0
-152 15634 0
-208 15635 0
-15634 15635 0
-208 -15634 0
-264 15636 0
-15635 15636 0
-264 -15635 0
-320 15637 0
-15636 15637 0
-320 -15636 0
-15562 -15637 0
152 208 264 320 15562 0
-153 15639 0
-209 15640 0
-15639 15640 0
-209 -15639 0
-265 15641 0
-15640 15641 0
-265 -15640 0
-321 15642 0
-15641 15642 0
-321 -15641 0
-15563 -15642 0
153 209 265 321 15563 0
-154 15644 0
-210 15645 0
-15644 15645 0
-210 -15644 0
-266 15646 0
-15645 15646 0
-266 -15645 0
-322 15647 0
-15646 15647 0
-322 -15646 0
-15564 -15647 0
154 210 266 322 15564 0
-15649 197 0
-197 15649 0
-15650 253 0
-253 15650 0
-15651 309 0
-309 15651 0
-15649 15652 0
-15650 15653 0
-15652 15653 0
-15650 -15652 0
-15651 -15653 0
-15655 197 198 0
-197 15655 0
-198 15655 0
-15656 253 254 0
-253 15656 0
-254 15656 0
-15657 309 310 0
-309 15657 0
-310 15657 0
-15655 15658 0
-15659 0
-15656 15660 0
-15658 15660 0
-15656 -15658 15661 0
-15659 15661 0
-15656 -15659 0
-15657 -15661 0
-15664 197 198 199 0
-197 15664 0
-198 15664 0
-199 15664 0
-15665 253 254 255 0
-253 15665 0
-254 15665 0
-255 15665 0
-15666 309 310 311 0
-309 15666 0
-310 15666 0
-311 15666 0
-15667 198 0
-198 15667 0
-15668 254 0
-254 15668 0
-15669 310 0
-310 15669 0
-15667 15670 0
-15668 15671 0
-15670 15671 0
-15668 -15670 0
-15669 -15671 0
-15673 198 199 0
-198 15673 0
-199 15673 0
-15674 254 255 0
-254 15674 0
-255 15674 0
-15675 310 311 0
-310 15675 0
-311 15675 0
-15673 15676 0
-15677 0
-15674 15678 0
-15676 15678 0
-15674 -15676 15679 0
-15677 15679 0
-15674 -15677 0
-15675 -15679 0
-15682 198 199 200 0
-198 15682 0
-199 15682 0
-200 15682 0
-15683 254 255 256 0
-254 15683 0
-255 15683 0
-256 15683 0
-15684 310 311 312 0
-310 15684 0
-311 15684 0
-312 15684 0
-15685 199 0
-199 15685 0
-15686 255 0
-255 15686 0
-15687 311 0
-311 15687 0
-15685 15688 0
-15686 15689 0
-15688 15689 0
-15686 -15688 0
-15687 -15689 0
-15691 199 200 0
-199 15691 0
-200 15691 0
-15692 255 256 0
-255 15692 0
-256 15692 0
-15693 311 312 0
-311 15693 0
-312 15693 0
-15691 15694 0
-15695 0
-15692 15696 0
-15694 15696 0
-15692 -15694 15697 0
-15695 15697 0
-15692 -15695 0
-15693 -15697 0
-15700 199 200 201 0
-199 15700 0
-200 15700 0
-201 15700 0
-15701 255 256 257 0
-255 15701 0
-256 15701 0
-257 15701 0
-15702 311 312 313 0
-311 15702 0
-312 15702 0
-313 15702 0
-15703 200 0
-200 15703 0
-15704 256 0
-256 15704 0
-15705 312 0
-312 15705 0
-15703 15706 0
-15704 15707 0
-15706 15707 0
-15704 -15706 0
-15705 -15707 0
-15709 200 201 0
-200 15709 0
-201 15709 0
-15710 256 257 0
-256 15710 0
-257 15710 0
-15711 312 313 0
-312 15711 0
-313 15711 0
-15709 15712 0
-15713 0
-15710 15714 0
-15712 15714 0
-15710 -15712 15715 0
-15713 15715 0
-15710 -15713 0
-15711 -15715 0
-15718 200 201 202 0
-200 15718 0
-201 15718 0
-202 15718 0
-15719 256 257 258 0
-256 15719 0
-257 15719 0
-258 15719 0
-15720 312 313 314 0
-312 15720 0
-313 15720 0
-314 15720 0
-15721 201 0
-201 15721 0
-15722 257 0
-257 15722 0
-15723 313 0
-313 15723 0
-15721 15724 0
-15722 15725 0
-15724 15725 0
-15722 -15724 0
-15723 -15725 0
-15727 201 202 0
-201 15727 0
-202 15727 0
-15728 257 258 0
-257 15728 0
-258 15728 0
-15729 313 314 0
-313 15729 0
-314 15729 0
-15727 15730 0
-15731 0
-15728 15732 0
-15730 15732 0
-15728 -15730 15733 0
-15731 15733 0
-15728 -15731 0
-15729 -15733 0
-15736 201 202 203 0
-201 15736 0
-202 15736 0
-203 15736 0
-15737 257 258 259 0
-257 15737 0
-258 15737 0
-259 15737 0
-15738 313 314 315 0
-313 15738 0
-314 15738 0
-315 15738 0
-15739 202 0
-202 15739 0
-15740 258 0
-258 15740 0
-15741 314 0
-314 15741 0
-15739 15742 0
-15740 15743 0
-15742 15743 0
-15740 -15742 0
-15741 -15743 0
-15745 202 203 0
-202 15745 0
-203 15745 0
-15746 258 259 0
-258 15746 0
-259 15746 0
-15747 314 315 0
-314 15747 0
-315 15747 0
-15745 15748 0
-15749 0
-15746 15750 0
-15748 15750 0
-15746 -15748 15751 0
-15749 15751 0
-15746 -15749 0
-15747 -15751 0
-15754 203 0
-203 15754 0
-15755 259 0
-259 15755 0
-15756 315 0
-315 15756 0
-15754 15757 0
-15755 15758 0
-15757 15758 0
-15755 -15757 0
-15756 -15758 0
-15760 15767 0
-15768 0
-15769 0
-15770 0
-15761 15771 0
-15767 15771 0
-15761 -15767 15772 0
-15768 15772 0
-15761 -15768 15773 0
-15769 15773 0
-15761 -15769 15774 0
-15770 15774 0
-15761 -15770 0
-15762 15775 0
-15771 15775 0
-15762 -15771 15776 0
-15772 15776 0
-15762 -15772 15777 0
-15773 15777 0
-15762 -15773 15778 0
-15774 15778 0
-15762 -15774 0
-15763 15779 0
-15775 15779 0
-15763 -15775 15780 0
-15776 15780 0
-15763 -15776 15781 0
-15777 15781 0
-15763 -15777 15782 0
-15778 15782 0
-15763 -15778 0
-15764 15783 0
-15779 15783 0
-15764 -15779 15784 0
-15780 15784 0
-15764 -15780 15785 0
-15781 15785 0
-15764 -15781 15786 0
-15782 15786 0
-15764 -15782 0
-15765 15787 0
-15783 15787 0
-15765 -15783 15788 0
-15784 15788 0
-15765 -15784 15789 0
-15785 15789 0
-15765 -15785 15790 0
-15786 15790 0
-15765 -15786 0
-15766 -15790 0
15760 15795 0
-15796 0
-15797 0
15761 15798 0
-15795 15798 0
15761 -15795 15799 0
-15796 15799 0
15761 -15796 15800 0
-15797 15800 0
15761 -15797 0
15762 15801 0
-15798 15801 0
15762 -15798 15802 0
-15799 15802 0
15762 -15799 15803 0
-15800 15803 0
15762 -15800 0
15763 15804 0
-15801 15804 0
15763 -15801 15805 0
-15802 15805 0
15763 -15802 15806 0
-15803 15806 0
15763 -15803 0
15764 15807 0
-15804 15807 0
15764 -15804 15808 0
-15805 15808 0
15764 -15805 15809 0
-15806 15809 0
15764 -15806 0
15765 15810 0
-15807 15810 0
15765 -15807 15811 0
-15808 15811 0
15765 -15808 15812 0
-15809 15812 0
15765 -15809 0
15766 -15812 0
-197 15816 0
-253 15817 0
-15816 15817 0
-253 -15816 0
-309 15818 0
-15817 15818 0
-309 -15817 0
-15760 -15818 0
197 253 309 15760 0
-198 15820 0
-254 15821 0
-15820 15821 0
-254 -15820 0
-310 15822 0
-15821 15822 0
-310 -15821 0
-15761 -15822 0
198 254 310 15761 0
-199 15824 0
-255 15825 0
-15824 15825 0
-255 -15824 0
-311 15826 0
-15825 15826 0
-311 -15825 0
-15762 -15826 0
199 255 311 15762 0
-200 15828 0
-256 15829 0
-15828 15829 0
-256 -15828 0
-312 15830 0
-15829 15830 0
-312 -15829 0
-15763 -15830 0
200 256 312 15763 0
-201 15832 0
-257 15833 0
-15832 15833 0
-257 -15832 0
-313 15834 0
-15833 15834 0
-313 -15833 0
-15764 -15834 0
201 257 313 15764 0
-202 15836 0
-258 15837 0
-15836 15837 0
-258 -15836 0
-314 15838 0
-15837 15838 0
-314 -15837 0
-15765 -15838 0
202 258 314 15765 0
-203 15840 0
-259 15841 0
-15840 15841 0
-259 -15840 0
-315 15842 0
-15841 15842 0
-315 -15841 0
-15766 -15842 0
203 259 315 15766 0
-15844 246 0
-246 15844 0
-15845 302 0
-302 15845 0
-15844 15846 0
-15845 -15846 0
-15848 246 247 0
-246 15848 0
-247 15848 0
-15849 302 303 0
-302 15849 0
-303 15849 0
-15850 247 0
-247 15850 0
-15851 303 0
-303 15851 0
-15850 15852 0
-15851 -15852 0
-15854 247 248 0
-247 15854 0
-248 15854 0
-15855 303 304 0
-303 15855 0
-304 15855 0
-15856 248 0
-248 15856 0
-15857 304 0
-304 15857 0
-15856 15858 0
-15857 -15858 0
-15860 248 249 0
-248 15860 0
-249 15860 0
-15861 304 305 0
-304 15861 0
-305 15861 0
-15862 249 0
-249 15862 0
-15863 305 0
-305 15863 0
-15862 15864 0
-15863 -15864 0
-15866 249 250 0
-249 15866 0
-250 15866 0
-15867 305 306 0
-305 15867 0
-306 15867 0
-15868 250 0
-250 15868 0
-15869 306 0
-306 15869 0
-15868 15870 0
-15869 -15870 0
-15872 250 251 0
-250 15872 0
-251 15872 0
-15873 306 307 0
-306 15873 0
-307 15873 0
-15874 251 0
-251 15874 0
-15875 307 0
-307 15875 0
-15874 15876 0
-15875 -15876 0
-15878 251 252 0
-251 15878 0
-252 15878 0
-15879 307 308 0
-307 15879 0
-308 15879 0
-15880 252 0
-252 15880 0
-15881 308 0
-308 15881 0
-15880 15882 0
-15881 -15882 0
-15884 15891 0
-15892 0
-15893 0
-15894 0
-15895 0
-15885 15896 0
-15891 15896 0
-15885 -15891 15897 0
-15892 15897 0
-15885 -15892 15898 0
-15893 15898 0
-15885 -15893 15899 0
-15894 15899 0
-15885 -15894 15900 0
-15895 15900 0
-15885 -15895 0
-15886 15901 0
-15896 15901 0
-15886 -15896 15902 0
-15897 15902 0
-15886 -15897 15903 0
-15898 15903 0
-15886 -15898 15904 0
-15899 15904 0
-15886 -15899 15905 0
-15900 15905 0
-15886 -15900 0
-15887 15906 0
-15901 15906 0
-15887 -15901 15907 0
-15902 15907 0
-15887 -15902 15908 0
-15903 15908 0
-15887 -15903 15909 0
-15904 15909 0
-15887 -15904 15910 0
-15905 15910 0
-15887 -15905 0
-15888 15911 0
-15906 15911 0
-15888 -15906 15912 0
-15907 15912 0
-15888 -15907 15913 0
-15908 15913 0
-15888 -15908 15914 0
-15909 15914 0
-15888 -15909 15915 0
-15910 15915 0
-15888 -15910 0
-15889 15916 0
-15911 15916 0
-15889 -15911 15917 0
-15912 15917 0
-15889 -15912 15918 0
-15913 15918 0
-15889 -15913 15919 0
-15914 15919 0
-15889 -15914 15920 0
-15915 15920 0
-15889 -15915 0
-15890 -15920 0
15884 15926 0
-15927 0
15885 15928 0
-15926 15928 0
15885 -15926 15929 0
-15927 15929 0
15885 -15927 0
15886 15930 0
-15928 15930 0
15886 -15928 15931 0
-15929 15931 0
15886 -15929 0
15887 15932 0
-15930 15932 0
15887 -15930 15933 0
-15931 15933 0
15887 -15931 0
15888 15934 0
-15932 15934 0
15888 -15932 15935 0
-15933 15935 0
15888 -15933 0
15889 15936 0
-15934 15936 0
15889 -15934 15937 0
-15935 15937 0
15889 -15935 0
15890 -15937 0
-246 15940 0
-302 15941 0
-15940 15941 0
-302 -15940 0
-15884 -15941 0
246 302 15884 0
-247 15943 0
-303 15944 0
-15943 15944 0
-303 -15943 0
-15885 -15944 0
247 303 15885 0
-248 15946 0
-304 15947 0
-15946 15947 0
-304 -15946 0
-15886 -15947 0
248 304 15886 0
-249 15949 0
-305 15950 0
-15949 15950 0
-305 -15949 0
-15887 -15950 0
249 305 15887 0
-250 15952 0
-306 15953 0
-15952 15953 0
-306 -15952 0
-15888 -15953 0
250 306 15888 0
-251 15955 0
-307 15956 0
-15955 15956 0
-307 -15955 0
-15889 -15956 0
251 307 15889 0
-252 15958 0
-308 15959 0
-15958 15959 0
-308 -15958 0
-15890 -15959 0
252 308 15890 0
-15961 8 0
-8 15961 0
-15962 50 0
-50 15962 0
-15961 15963 0
-15962 -15963 0
-15965 8 9 0
-8 15965 0
-9 15965 0
-15966 50 51 0
-50 15966 0
-51 15966 0
-15967 9 0
-9 15967 0
-15968 51 0
-51 15968 0
-15967 15969 0
-15968 -15969 0
-15971 9 10 0
-9 15971 0
-10 15971 0
-15972 51 52 0
-51 15972 0
-52 15972 0
-15973 10 0
-10 15973 0
-15974 52 0
-52 15974 0
-15973 15975 0
-15974 -15975 0
-15977 10 11 0
-10 15977 0
-11 15977 0
-15978 52 53 0
-52 15978 0
-53 15978 0
-15979 11 0
-11 15979 0
-15980 53 0
-53 15980 0
-15979 15981 0
-15980 -15981 0
-15983 11 12 0
-11 15983 0
-12 15983 0
-15984 53 54 0
-53 15984 0
-54 15984 0
-15985 12 0
-12 15985 0
-15986 54 0
-54 15986 0
-15985 15987 0
-15986 -15987 0
-15989 12 13 0
-12 15989 0
-13 15989 0
-15990 54 55 0
-54 15990 0
-55 15990 0
-15991 13 0
-13 15991 0
-15992 55 0
-55 15992 0
-15991 15993 0
-15992 -15993 0
-15995 13 14 0
-13 15995 0
-14 15995 0
-15996 55 56 0
-55 15996 0
-56 15996 0
-15997 14 0
-14 15997 0
-15998 56 0
-56 15998 0
-15997 15999 0
-15998 -15999 0
-16001 16008 0
-16009 0
-16010 0
-16011 0
-16012 0
-16002 16013 0
-16008 16013 0
-16002 -16008 16014 0
-16009 16014 0
-16002 -16009 16015 0
-16010 16015 0
-16002 -16010 16016 0
-16011 16016 0
-16002 -16011 16017 0
-16012 16017 0
-16002 -16012 0
-16003 16018 0
-16013 16018 0
-16003 -16013 16019 0
-16014 16019 0
-16003 -16014 16020 0
-16015 16020 0
-16003 -16015 16021 0
-16016 16021 0
-16003 -16016 16022 0
-16017 16022 0
-16003 -16017 0
-16004 16023 0
-16018 16023 0
-16004 -16018 16024 0
-16019 16024 0
-16004 -16019 16025 0
-16020 16025 0
-16004 -16020 16026 0
-16021 16026 0
-16004 -16021 16027 0
-16022 16027 0
-16004 -16022 0
-16005 16028 0
-16023 16028 0
-16005 -16023 16029 0
-16024 16029 0
-16005 -16024 16030 0
-16025 16030 0
-16005 -16025 16031 0
-16026 16031 0
-16005 -16026 16032 0
-16027 16032 0
-16005 -16027 0
-16006 16033 0
-16028 16033 0
-16006 -16028 16034 0
-16029 16034 0
-16006 -16029 16035 0
-16030 16035 0
-16006 -16030 16036 0
-16031 16036 0
-16006 -16031 16037 0
-16032 16037 0
-16006 -16032 0
-16007 -16037 0
16001 16043 0
-16044 0
16002 16045 0
-16043 16045 0
16002 -16043 16046 0
-16044 16046 0
16002 -16044 0
16003 16047 0
-16045 16047 0
16003 -16045 16048 0
-16046 16048 0
16003 -16046 0
16004 16049 0
-16047 16049 0
16004 -16047 16050 0
-16048 16050 0
16004 -16048 0
16005 16051 0
-16049 16051 0
16005 -16049 16052 0
-16050 16052 0
16005 -16050 0
16006 16053 0
-16051 16053 0
16006 -16051 16054 0
-16052 16054 0
16006 -16052 0
16007 -16054 0
-8 16057 0
-50 16058 0
-16057 16058 0
-50 -16057 0
-16001 -16058 0
8 50 16001 0
-9 16060 0
-51 16061 0
-16060 16061 0
-51 -16060 0
-16002 -16061 0
9 51 16002 0
-10 16063 0
-52 16064 0
-16063 16064 0
-52 -16063 0
-16003 -16064 0
10 52 16003 0
-11 16066 0
-53 16067 0
-16066 16067 0
-53 -16066 0
-16004 -16067 0
11 53 16004 0
-12 16069 0
-54 16070 0
-16069 16070 0
-54 -16069 0
-16005 -16070 0
12 54 16005 0
-13 16072 0
-55 16073 0
-16072 16073 0
-55 -16072 0
-16006 -16073 0
13 55 16006 0
-14 16075 0
-56 16076 0
-16075 16076 0
-56 -16075 0
-16007 -16076 0
14 56 16007 0
-16078 15 0
-15 16078 0
-16079 57 0
-57 16079 0
-16080 99 0
-99 16080 0
-16078 16081 0
-16079 16082 0
-16081 16082 0
-16079 -16081 0
-16080 -16082 0
-16084 15 16 0
-15 16084 0
-16 16084 0
-16085 57 58 0
-57 16085 0
-58 16085 0
-16086 99 100 0
-99 16086 0
-100 16086 0
-16084 16087 0
-16088 0
-16085 16089 0
-16087 16089 0
-16085 -16087 16090 0
-16088 16090 0
-16085 -16088 0
-16086 -16090 0
-16093 15 16 17 0
-15 16093 0
-16 16093 0
-17 16093 0
-16094 57 58 59 0
-57 16094 0
-58 16094 0
-59 16094 0
-16095 99 100 101 0
-99 16095 0
-100 16095 0
-101 16095 0
-16096 16 0
-16 16096 0
-16097 58 0
-58 16097 0
-16098 100 0
-100 16098 0
-16096 16099 0
-16097 16100 0
-16099 16100 0
-16097 -16099 0
-16098 -16100 0
-16102 16 17 0
-16 16102 0
-17 16102 0
-16103 58 59 0
-58 16103 0
-59 16103 0
-16104 100 101 0
-100 16104 0
-101 16104 0
-16102 16105 0
-16106 0
-16103 16107 0
-16105 16107 0
-16103 -16105 16108 0
-16106 16108 0
-16103 -16106 0
-16104 -16108 0
-16111 16 17 18 0
-16 16111 0
-17 16111 0
-18 16111 0
-16112 58 59 60 0
-58 16112 0
-59 16112 0
-60 16112 0
-16113 100 101 102 0
-100 16113 0
-101 16113 0
-102 16113 0
-16114 17 0
-17 16114 0
-16115 59 0
-59 16115 0
-16116 101 0
-101 16116 0
-16114 16117 0
-16115 16118 0
-16117 16118 0
-16115 -16117 0
-16116 -16118 0
-16120 17 18 0
-17 16120 0
-18 16120 0
-16121 59 60 0
-59 16121 0
-60 16121 0
-16122 101 102 0
-101 16122 0
-102 16122 0
-16120 16123 0
-16124 0
-16121 16125 0
-16123 16125 0
-16121 -16123 16126 0
-16124 16126 0
-16121 -16124 0
-16122 -16126 0
-16129 17 18 19 0
-17 16129 0
-18 16129 0
-19 16129 0
-16130 59 60 61 0
-59 16130 0
-60 16130 0
-61 16130 0
-16131 101 102 103 0
-101 16131 0
-102 16131 0
-103 16131 0
-16132 18 0
-18 16132 0
-16133 60 0
-60 16133 0
-16134 102 0
-102 16134 0
-16132 16135 0
-16133 16136 0
-16135 16136 0
-16133 -16135 0
-16134 -16136 0
-16138 18 19 0
-18 16138 0
-19 16138 0
-16139 60 61 0
-60 16139 0
-61 16139 0
-16140 102 103 0
-102 16140 0
-103 16140 0
-16138 16141 0
-16142 0
-16139 16143 0
-16141 16143 0
-16139 -16141 16144 0
-16142 16144 0
-16139 -16142 0
-16140 -16144 0
-16147 18 19 20 0
-18 16147 0
-19 16147 0
-20 16147 0
-16148 60 61 62 0
-60 16148 0
-61 16148 0
-62 16148 0
-16149 102 103 104 0
-102 16149 0
-103 16149 0
-104 16149 0
-16150 19 0
-19 16150 0
-16151 61 0
-61 16151 0
-16152 103 0
-103 16152 0
-16150 16153 0
-16151 16154 0
-16153 16154 0
-16151 -16153 0
-16152 -16154 0
-16156 19 20 0
-19 16156 0
-20 16156 0
-16157 61 62 0
-61 16157 0
-62 16157 0
-16158 103 104 0
-103 16158 0
-104 16158 0
-16156 16159 0
-16160 0
-16157 16161 0
-16159 16161 0
-16157 -16159 16162 0
-16160 16162 0
-16157 -16160 0
-16158 -16162 0
-16165 19 20 21 0
-19 16165 0
-20 16165 0
-21 16165 0
-16166 61 62 63 0
-61 16166 0
-62 16166 0
-63 16166 0
-16167 103 104 105 0
-103 16167 0
-104 16167 0
-105 16167 0
-16168 20 0
-20 16168 0
-16169 62 0
-62 16169 0
-16170 104 0
-104 16170 0
-16168 16171 0
-16169 16172 0
-16171 16172 0
-16169 -16171 0
-16170 -16172 0
-16174 20 21 0
-20 16174 0
-21 16174 0
-16175 62 63 0
-62 16175 0
-63 16175 0
-16176 104 105 0
-104 16176 0
-105 16176 0
-16174 16177 0
-16178 0
-16175 16179 0
-16177 16179 0
-16175 -16177 16180 0
-16178 16180 0
-16175 -16178 0
-16176 -16180 0
-16183 21 0
-21 16183 0
-16184 63 0
-63 16184 0
-16185 105 0
-105 16185 0
-16183 16186 0
-16184 16187 0
-16186 16187 0
-16184 -16186 0
-16185 -16187 0
-16189 16196 0
-16197 0
-16198 0
-16199 0
-16190 16200 0
-16196 16200 0
-16190 -16196 16201 0
-16197 16201 0
-16190 -16197 16202 0
-16198 16202 0
-16190 -16198 16203 0
-16199 16203 0
-16190 -16199 0
-16191 16204 0
-16200 16204 0
-16191 -16200 16205 0
-16201 16205 0
-16191 -16201 16206 0
-16202 16206 0
-16191 -16202 16207 0
-16203 16207 0
-16191 -16203 0
-16192 16208 0
-16204 16208 0
-16192 -16204 16209 0
-16205 16209 0
-16192 -16205 16210 0
-16206 16210 0
-16192 -16206 16211 0
-16207 16211 0
-16192 -16207 0
-16193 16212 0
-16208 16212 0
-16193 -16208 16213 0
-16209 16213 0
-16193 -16209 16214 0
-16210 16214 0
-16193 -16210 16215 0
-16211 16215 0
-16193 -16211 0
-16194 16216 0
-16212 16216 0
-16194 -16212 16217 0
-16213 16217 0
-16194 -16213 16218 0
-16214 16218 0
-16194 -16214 16219 0
-16215 16219 0
-16194 -16215 0
-16195 -16219 0
16189 16224 0
-16225 0
-16226 0
16190 16227 0
-16224 16227 0
16190 -16224 16228 0
-16225 16228 0
16190 -16225 16229 0
-16226 16229 0
16190 -16226 0
16191 16230 0
-16227 16230 0
16191 -16227 16231 0
-16228 16231 0
16191 -16228 16232 0
-16229 16232 0
16191 -16229 0
16192 16233 0
-16230 16233 0
16192 -16230 16234 0
-16231 16234 0
16192 -16231 16235 0
-16232 16235 0
16192 -16232 0
16193 16236 0
-16233 16236 0
16193 -16233 16237 0
-16234 16237 0
16193 -16234 16238 0
-16235 16238 0
16193 -16235 0
16194 16239 0
-16236 16239 0
16194 -16236 16240 0
-16237 16240 0
16194 -16237 16241 0
-16238 16241 0
16194 -16238 0
16195 -16241 0
-15 16245 0
-57 16246 0
-16245 16246 0
-57 -16245 0
-99 16247 0
-16246 16247 0
-99 -16246 0
-16189 -16247 0
15 57 99 16189 0
-16 16249 0
-58 16250 0
-16249 16250 0
-58 -16249 0
-100 16251 0
-16250 16251 0
-100 -16250 0
-16190 -16251 0
16 58 100 16190 0
-17 16253 0
-59 16254 0
-16253 16254 0
-59 -16253 0
-101 16255 0
-16254 16255 0
-101 -16254 0
-16191 -16255 0
17 59 101 16191 0
-18 16257 0
-60 16258 0
-16257 16258 0
-60 -16257 0
-102 16259 0
-16258 16259 0
-102 -16258 0
-16192 -16259 0
18 60 102 16192 0
-19 16261 0
-61 16262 0
-16261 16262 0
-61 -16261 0
-103 16263 0
-16262 16263 0
-103 -16262 0
-16193 -16263 0
19 61 103 16193 0
-20 16265 0
-62 16266 0
-16265 16266 0
-62 -16265 0
-104 16267 0
-16266 16267 0
-104 -16266 0
-16194 -16267 0
20 62 104 16194 0
-21 16269 0
-63 16270 0
-16269 16270 0
-63 -16269 0
-105 16271 0
-16270 16271 0
-105 -16270 0
-16195 -16271 0
21 63 105 16195 0
-16273 22 0
-22 16273 0
-16274 64 0
-64 16274 0
-16275 106 0
-106 16275 0
-16276 148 0
-148 16276 0
-16273 16277 0
-16274 16278 0
-16277 16278 0
-16274 -16277 0
-16275 16279 0
-16278 16279 0
-16275 -16278 0
-16276 -16279 0
-16281 22 23 0
-22 16281 0
-23 16281 0
-16282 64 65 0
-64 16282 0
-65 16282 0
-16283 106 107 0
-106 16283 0
-107 16283 0
-16284 148 149 0
-148 16284 0
-149 16284 0
-16281 16285 0
-16286 0
-16282 16287 0
-16285 16287 0
-16282 -16285 16288 0
-16286 16288 0
-16282 -16286 0
-16283 16289 0
-16287 16289 0
-16283 -16287 16290 0
-16288 16290 0
-16283 -16288 0
-16284 -16290 0
-16293 22 23 24 0
-22 16293 0
-23 16293 0
-24 16293 0
-16294 64 65 66 0
-64 16294 0
-65 16294 0
-66 16294 0
-16295 106 107 108 0
-106 16295 0
-107 16295 0
-108 16295 0
-16296 148 149 150 0
-148 16296 0
-149 16296 0
-150 16296 0
-16293 16297 0
-16298 0
-16299 0
-16294 16300 0
-16297 16300 0
-16294 -16297 16301 0
-16298 16301 0
-16294 -16298 16302 0
-16299 16302 0
-16294 -16299 0
-16295 16303 0
-16300 16303 0
-16295 -16300 16304 0
-16301 16304 0
-16295 -16301 16305 0
-16302 16305 0
-16295 -16302 0
-16296 -16305 0
-16309 22 23 24 25 0
-22 16309 0
-23 16309 0
-24 16309 0
-25 16309 0
-16310 64 65 66 67 0
-64 16310 0
-65 16310 0
-66 16310 0
-67 16310 0
-16311 106 107 108 109 0
-106 16311 0
-107 16311 0
-108 16311 0
-109 16311 0
-16312 148 149 150 151 0
-148 16312 0
-149 16312 0
-150 16312 0
-151 16312 0
-16313 23 0
-23 16313 0
-16314 65 0
-65 16314 0
-16315 107 0
-107 16315 0
-16316 149 0
-149 16316 0
-16313 16317 0
-16314 16318 0
-16317 16318 0
-16314 -16317 0
-16315 16319 0
-16318 16319 0
-16315 -16318 0
-16316 -16319 0
-16321 23 24 0
-23 16321 0
-24 16321 0
-16322 65 66 0
-65 16322 0
-66 16322 0
-16323 107 108 0
-107 16323 0
-108 16323 0
-16324 149 150 0
-149 16324 0
-150 16324 0
-16321 16325 0
-16326 0
-16322 16327 0
-16325 16327 0
-16322 -16325 16328 0
-16326 16328 0
-16322 -16326 0
-16323 16329 0
-16327 16329 0
-16323 -16327 16330 0
-16328 16330 0
-16323 -16328 0
-16324 -16330 0
-16333 23 24 25 0
-23 16333 0
-24 16333 0
-25 16333 0
-16334 65 66 67 0
-65 16334 0
-66 16334 0
-67 16334 0
-16335 107 108 109 0
-107 16335 0
-108 16335 0
-109 16335 0
-16336 149 150 151 0
-149 16336 0
-150 16336 0
-151 16336 0
-16333 16337 0
-16338 0
-16339 0
-16334 16340 0
-16337 16340 0
-16334 -16337 16341 0
-16338 16341 0
-16334 -16338 16342 0
-16339 16342 0
-16334 -16339 0
-16335 16343 0
-16340 16343 0
-16335 -16340 16344 0
-16341 16344 0
-16335 -16341 16345 0
-16342 16345 0
-16335 -16342 0
-16336 -16345 0
-16349 23 24 25 26 0
-23 16349 0
-24 16349 0
-25 16349 0
-26 16349 0
-16350 65 66 67 68 0
-65 16350 0
-66 16350 0
-67 16350 0
-68 16350 0
-16351 107 108 109 110 0
-107 16351 0
-108 16351 0
-109 16351 0
-110 16351 0
-16352 149 150 151 152 0
-149 16352 0
-150 16352 0
-151 16352 0
-152 16352 0
-16353 24 0
-24 16353 0
-16354 66 0
-66 16354 0
-16355 108 0
-108 16355 0
-16356 150 0
-150 16356 0
-16353 16357 0
-16354 16358 0
-16357 16358 0
-16354 -16357 0
-16355 16359 0
-16358 16359 0
-16355 -16358 0
-16356 -16359 0
-16361 24 25 0
-24 16361 0
-25 16361 0
-16362 66 67 0
-66 16362 0
-67 16362 0
-16363 108 109 0
-108 16363 0
-109 16363 0
-16364 150 151 0
-150 16364 0
-151 16364 0
-16361 16365 0
-16366 0
-16362 16367 0
-16365 16367 0
-16362 -16365 16368 0
-16366 16368 0
-16362 -16366 0
-16363 16369 0
-16367 16369 0
-16363 -16367 16370 0
-16368 16370 0
-16363 -16368 0
-16364 -16370 0
-16373 24 25 26 0
-24 16373 0
-25 16373 0
-26 16373 0
-16374 66 67 68 0
-66 16374 0
-67 16374 0
-68 16374 0
-16375 108 109 110 0
-108 16375 0
-109 16375 0
-110 16375 0
-16376 150 151 152 0
-150 16376 0
-151 16376 0
-152 16376 0
-16373 16377 0
-16378 0
-16379 0
-16374 16380 0
-16377 16380 0
-16374 -16377 16381 0
-16378 16381 0
-16374 -16378 16382 0
-16379 16382 0
-16374 -16379 0
-16375 16383 0
-16380 16383 0
-16375 -16380 16384 0
-16381 16384 0
-16375 -16381 16385 0
-16382 16385 0
-16375 -16382 0
-16376 -16385 0
-16389 24 25 26 27 0
-24 16389 0
-25 16389 0
-26 16389 0
-27 16389 0
-16390 66 67 68 69 0
-66 16390 0
-67 16390 0
-68 16390 0
-69 16390 0
-16391 108 109 110 111 0
-108 16391 0
-109 16391 0
-110 16391 0
-111 16391 0
-16392 150 151 152 153 0
-150 16392 0
-151 16392 0
-152 16392 0
-153 16392 0
-16393 25 0
-25 16393 0
-16394 67 0
-67 16394 0
-16395 109 0
-109 16395 0
-16396 151 0
-151 16396 0
-16393 16397 0
-16394 16398 0
-16397 16398 0
-16394 -16397 0
-16395 16399 0
-16398 16399 0
-16395 -16398 0
-16396 -16399 0
-16401 25 26 0
-25 16401 0
-26 16401 0
-16402 67 68 0
-67 16402 0
-68 16402 0
-16403 109 110 0
-109 16403 0
-110 16403 0
-16404 151 152 0
-151 16404 0
-152 16404 0
-16401 16405 0
-16406 0
-16402 16407 0
-16405 16407 0
-16402 -16405 16408 0
-16406 16408 0
-16402 -16406 0
-16403 16409 0
-16407 16409 0
-16403 -16407 16410 0
-16408 16410 0
-16403 -16408 0
-16404 -16410 0
-16413 25 26 27 0
-25 16413 0
-26 16413 0
-27 16413 0
-16414 67 68 69 0
-67 16414 0
-68 16414 0
-69 16414 0
-16415 109 110 111 0
-109 16415 0
-110 16415 0
-111 16415 0
-16416 151 152 153 0
-151 16416 0
-152 16416 0
-153 16416 0
-16413 16417 0
-16418 0
-16419 0
-16414 16420 0
-16417 16420 0
-16414 -16417 16421 0
-16418 16421 0
-16414 -16418 16422 0
-16419 16422 0
-16414 -16419 0
-16415 16423 0
-16420 16423 0
-16415 -16420 16424 0
-16421 16424 0
-16415 -16421 16425 0
-16422 16425 0
-16415 -16422 0
-16416 -16425 0
-16429 25 26 27 28 0
-25 16429 0
-26 16429 0
-27 16429 0
-28 16429 0
-16430 67 68 69 70 0
-67 16430 0
-68 16430 0
-69 16430 0
-70 16430 0
-16431 109 110 111 112 0
-109 16431 0
-110 16431 0
-111 16431 0
-112 16431 0
-16432 151 152 153 154 0
-151 16432 0
-152 16432 0
-153 16432 0
-154 16432 0
-16433 26 0
-26 16433 0
-16434 68 0
-68 16434 0
-16435 110 0
-110 16435 0
-16436 152 0
-152 16436 0
-16433 16437 0
-16434 16438 0
-16437 16438 0
-16434 -16437 0
-16435 16439 0
-16438 16439 0
-16435 -16438 0
-16436 -16439 0
-16441 26 27 0
-26 16441 0
-27 16441 0
-16442 68 69 0
-68 16442 0
-69 16442 0
-16443 110 111 0
-110 16443 0
-111 16443 0
-16444 152 153 0
-152 16444 0
-153 16444 0
-16441 16445 0
-16446 0
-16442 16447 0
-16445 16447 0
-16442 -16445 16448 0
-16446 16448 0
-16442 -16446 0
-16443 16449 0
-16447 16449 0
-16443 -16447 16450 0
-16448 16450 0
-16443 -16448 0
-16444 -16450 0
-16453 26 27 28 0
-26 16453 0
-27 16453 0
-28 16453 0
-16454 68 69 70 0
-68 16454 0
-69 16454 0
-70 16454 0
-16455 110 111 112 0
-110 16455 0
-111 16455 0
-112 16455 0
-16456 152 153 154 0
-152 16456 0
-153 16456 0
-154 16456 0
-16453 16457 0
-16458 0
-16459 0
-16454 16460 0
-16457 16460 0
-16454 -16457 16461 0
-16458 16461 0
-16454 -16458 16462 0
-16459 16462 0
-16454 -16459 0
-16455 16463 0
-16460 16463 0
-16455 -16460 16464 0
-16461 16464 0
-16455 -16461 16465 0
-16462 16465 0
-16455 -16462 0
-16456 -16465 0
-16469 27 0
-27 16469 0
-16470 69 0
-69 16470 0
-16471 111 0
-111 16471 0
-16472 153 0
-153 16472 0
-16469 16473 0
-16470 16474 0
-16473 16474 0
-16470 -16473 0
-16471 16475 0
-16474 16475 0
-16471 -16474 0
-16472 -16475 0
-16477 27 28 0
-27 16477 0
-28 16477 0
-16478 69 70 0
-69 16478 0
-70 16478 0
-16479 111 112 0
-111 16479 0
-112 16479 0
-16480 153 154 0
-153 16480 0
-154 16480 0
-16477 16481 0
-16482 0
-16478 16483 0
-16481 16483 0
-16478 -16481 16484 0
-16482 16484 0
-16478 -16482 0
-16479 16485 0
-16483 16485 0
-16479 -16483 16486 0
-16484 16486 0
-16479 -16484 0
-16480 -16486 0
-16489 28 0
-28 16489 0
-16490 70 0
-70 16490 0
-16491 112 0
-112 16491 0
-16492 154 0
-154 16492 0
-16489 16493 0
-16490 16494 0
-16493 16494 0
-16490 -16493 0
-16491 16495 0
-16494 16495 0
-16491 -16494 0
-16492 -16495 0
-16497 16504 0
-16505 0
-16506 0
-16498 16507 0
-16504 16507 0
-16498 -16504 16508 0
-16505 16508 0
-16498 -16505 16509 0
-16506 16509 0
-16498 -16506 0
-16499 16510 0
-16507 16510 0
-16499 -16507 16511 0
-16508 16511 0
-16499 -16508 16512 0
-16509 16512 0
-16499 -16509 0
-16500 16513 0
-16510 16513 0
-16500 -16510 16514 0
-16511 16514 0
-16500 -16511 16515 0
-16512 16515 0
-16500 -16512 0
-16501 16516 0
-16513 16516 0
-16501 -16513 16517 0
-16514 16517 0
-16501 -16514 16518 0
-16515 16518 0
-16501 -16515 0
-16502 16519 0
-16516 16519 0
-16502 -16516 16520 0
-16517 16520 0
-16502 -16517 16521 0
-16518 16521 0
-16502 -16518 0
-16503 -16521 0
16497 16525 0
-16526 0
-16527 0
-16528 0
16498 16529 0
-16525 16529 0
16498 -16525 16530 0
-16526 16530 0
16498 -16526 16531 0
-16527 16531 0
16498 -16527 16532 0
-16528 16532 0
16498 -16528 0
16499 16533 0
-16529 16533 0
16499 -16529 16534 0
-16530 16534 0
16499 -16530 16535 0
-16531 16535 0
16499 -16531 16536 0
-16532 16536 0
16499 -16532 0
16500 16537 0
-16533 16537 0
16500 -16533 16538 0
-16534 16538 0
16500 -16534 16539 0
-16535 16539 0
16500 -16535 16540 0
-16536 16540 0
16500 -16536 0
16501 16541 0
-16537 16541 0
16501 -16537 16542 0
-16538 16542 0
16501 -16538 16543 0
-16539 16543 0
16501 -16539 16544 0
-16540 16544 0
16501 -16540 0
16502 16545 0
-16541 16545 0
16502 -16541 16546 0
-16542 16546 0
16502 -16542 16547 0
-16543 16547 0
16502 -16543 16548 0
-16544 16548 0
16502 -16544 0
16503 -16548 0
-22 16553 0
-64 16554 0
-16553 16554 0
-64 -16553 0
-106 16555 0
-16554 16555 0
-106 -16554 0
-148 16556 0
-16555 16556 0
-148 -16555 0
-16497 -16556 0
22 64 106 148 16497 0
-23 16558 0
-65 16559 0
-16558 16559 0
-65 -16558 0
-107 16560 0
-16559 16560 0
-107 -16559 0
-149 16561 0
-16560 16561 0
-149 -16560 0
-16498 -16561 0
23 65 107 149 16498 0
-24 16563 0
-66 16564 0
-16563 16564 0
-66 -16563 0
-108 16565 0
-16564 16565 0
-108 -16564 0
-150 16566 0
-16565 16566 0
-150 -16565 0
-16499 -16566 0
24 66 108 150 16499 0
-25 16568 0
-67 16569 0
-16568 16569 0
-67 -16568 0
-109 16570 0
-16569 16570 0
-109 -16569 0
-151 16571 0
-16570 16571 0
-151 -16570 0
-16500 -16571 0
25 67 109 151 16500 0
-26 16573 0
-68 16574 0
-16573 16574 0
-68 -16573 0
-110 16575 0
-16574 16575 0
-110 -16574 0
-152 16576 0
-16575 16576 0
-152 -16575 0
-16501 -16576 0
26 68 110 152 16501 0
-27 16578 0
-69 16579 0
-16578 16579 0
-69 -16578 0
-111 16580 0
-16579 16580 0
-111 -16579 0
-153 16581 0
-16580 16581 0
-153 -16580 0
-16502 -16581 0
27 69 111 153 16502 0
-28 16583 0
-70 16584 0
-16583 16584 0
-70 -16583 0
-112 16585 0
-16584 16585 0
-112 -16584 0
-154 16586 0
-16585 16586 0
-154 -16585 0
-16503 -16586 0
28 70 112 154 16503 0
-16588 29 0
-29 16588 0
-16589 71 0
-71 16589 0
-16590 113 0
-113 16590 0
-16591 155 0
-155 16591 0
-16592 197 0
-197 16592 0
-16588 16593 0
-16589 16594 0
-16593 16594 0
-16589 -16593 0
-16590 16595 0
-16594 16595 0
-16590 -16594 0
-16591 16596 0
-16595 16596 0
-16591 -16595 0
-16592 -16596 0
-16598 29 30 0
-29 16598 0
-30 16598 0
-16599 71 72 0
-71 16599 0
-72 16599 0
-16600 113 114 0
-113 16600 0
-114 16600 0
-16601 155 156 0
-155 16601 0
-156 16601 0
-16602 197 198 0
-197 16602 0
-198 16602 0
-16598 16603 0
-16604 0
-16599 16605 0
-16603 16605 0
-16599 -16603 16606 0
-16604 16606 0
-16599 -16604 0
-16600 16607 0
-16605 16607 0
-16600 -16605 16608 0
-16606 16608 0
-16600 -16606 0
-16601 16609 0
-16607 16609 0
-16601 -16607 16610 0
-16608 16610 0
-16601 -16608 0
-16602 -16610 0
-16613 29 30 31 0
-29 16613 0
-30 16613 0
-31 16613 0
-16614 71 72 73 0
-71 16614 0
-72 16614 0
-73 16614 0
-16615 113 114 115 0
-113 16615 0
-114 16615 0
-115 16615 0
-16616 155 156 157 0
-155 16616 0
-156 16616 0
-157 16616 0
-16617 197 198 199 0
-197 16617 0
-198 16617 0
-199 16617 0
-16613 16618 0
-16619 0
-16620 0
-16614 16621 0
-16618 16621 0
-16614 -16618 16622 0
-16619 16622 0
-16614 -16619 16623 0
-16620 16623 0
-16614 -16620 0
-16615 16624 0
-16621 16624 0
-16615 -16621 16625 0
-16622 16625 0
-16615 -16622 16626 0
-16623 16626 0
-16615 -16623 0
-16616 16627 0
-16624 16627 0
-16616 -16624 16628 0
-16625 16628 0
-16616 -16625 16629 0
-16626 16629 0
-16616 -16626 0
-16617 -16629 0
-16633 29 30 31 32 0
-29 16633 0
-30 16633 0
-31 16633 0
-32 16633 0
-16634 71 72 73 74 0
-71 16634 0
-72 16634 0
-73 16634 0
-74 16634 0
-16635 113 114 115 116 0
-113 16635 0
-114 16635 0
-115 16635 0
-116 16635 0
-16636 155 156 157 158 0
-155 16636 0
-156 16636 0
-157 16636 0
-158 16636 0
-16637 197 198 199 200 0
-197 16637 0
-198 16637 0
-199 16637 0
-200 16637 0
-16633 16638 0
-16639 0
-16640 0
-16641 0
-16634 16642 0
-16638 16642 0
-16634 -16638 16643 0
-16639 16643 0
-16634 -16639 16644 0
-16640 16644 0
-16634 -16640 16645 0
-16641 16645 0
-16634 -16641 0
-16635 16646 0
-16642 16646 0
-16635 -16642 16647 0
-16643 16647 0
-16635 -16643 16648 0
-16644 16648 0
-16635 -16644 16649 0
-16645 16649 0
-16635 -16645 0
-16636 16650 0
-16646 16650 0
-16636 -16646 16651 0
-16647 16651 0
-16636 -16647 16652 0
-16648 16652 0
-16636 -16648 16653 0
-16649 16653 0
-16636 -16649 0
-16637 -16653 0
-16658 29 30 31 32 33 0
-29 16658 0
-30 16658 0
-31 16658 0
-32 16658 0
-33 16658 0
-16659 71 72 73 74 75 0
-71 16659 0
-72 16659 0
-73 16659 0
-74 16659 0
-75 16659 0
-16660 113 114 115 116 117 0
-113 16660 0
-114 16660 0
-115 16660 0
-116 16660 0
-117 16660 0
-16661 155 156 157 158 159 0
-155 16661 0
-156 16661 0
-157 16661 0
-158 16661 0
-159 16661 0
-16662 197 198 199 200 201 0
-197 16662 0
-198 16662 0
-199 16662 0
-200 16662 0
-201 16662 0
-16663 30 0
-30 16663 0
-16664 72 0
-72 16664 0
-16665 114 0
-114 16665 0
-16666 156 0
-156 16666 0
-16667 198 0
-198 16667 0
-16663 16668 0
-16664 16669 0
-16668 16669 0
-16664 -16668 0
-16665 16670 0
-16669 16670 0
-16665 -16669 0
-16666 16671 0
-16670 16671 0
-16666 -16670 0
-16667 -16671 0
-16673 30 31 0
-30 16673 0
-31 16673 0
-16674 72 73 0
-72 16674 0
-73 16674 0
-16675 114 115 0
-114 16675 0
-115 16675 0
-16676 156 157 0
-156 16676 0
-157 16676 0
-16677 198 199 0
-198 16677 0
-199 16677 0
-16673 16678 0
-16679 0
-16674 16680 0
-16678 16680 0
-16674 -16678 16681 0
-16679 16681 0
-16674 -16679 0
-16675 16682 0
-16680 16682 0
-16675 -16680 16683 0
-16681 16683 0
-16675 -16681 0
-16676 16684 0
-16682 16684 0
-16676 -16682 16685 0
-16683 16685 0
-16676 -16683 0
-16677 -16685 0
-16688 30 31 32 0
-30 16688 0
-31 16688 0
-32 16688 0
-16689 72 73 74 0
-72 16689 0
-73 16689 0
-74 16689 0
-16690 114 115 116 0
-114 16690 0
-115 16690 0
-116 16690 0
-16691 156 157 158 0
-156 16691 0
-157 16691 0
-158 16691 0
-16692 198 199 200 0
-198 16692 0
-199 16692 0
-200 16692 0
-16688 16693 0
-16694 0
-16695 0
-16689 16696 0
-16693 16696 0
-16689 -16693 16697 0
-16694 16697 0
-16689 -16694 16698 0
-16695 16698 0
-16689 -16695 0
-16690 16699 0
-16696 16699 0
-16690 -16696 16700 0
-16697 16700 0
-16690 -16697 16701 0
-16698 16701 0
-16690 -16698 0
-16691 16702 0
-16699 16702 0
-16691 -16699 16703 0
-16700 16703 0
-16691 -16700 16704 0
-16701 16704 0
-16691 -16701 0
-16692 -16704 0
-16708 30 31 32 33 0
-30 16708 0
-31 16708 0
-32 16708 0
-33 16708 0
-16709 72 73 74 75 0
-72 16709 0
-73 16709 0
-74 16709 0
-75 16709 0
-16710 114 115 116 117 0
-114 16710 0
-115 16710 0
-116 16710 0
-117 16710 0
-16711 156 157 158 159 0
-156 16711 0
-157 16711 0
-158 16711 0
-159 16711 0
-16712 198 199 200 201 0
-198 16712 0
-199 16712 0
-200 16712 0
-201 16712 0
-16708 16713 0
-16714 0
-16715 0
-16716 0
-16709 16717 0
-16713 16717 0
-16709 -16713 16718 0
-16714 16718 0
-16709 -16714 16719 0
-16715 16719 0
-16709 -16715 16720 0
-16716 16720 0
-16709 -16716 0
-16710 16721 0
-16717 16721 0
-16710 -16717 16722 0
-16718 16722 0
-16710 -16718 16723 0
-16719 16723 0
-16710 -16719 16724 0
-16720 16724 0
-16710 -16720 0
-16711 16725 0
-16721 16725 0
-16711 -16721 16726 0
-16722 16726 0
-16711 -16722 16727 0
-16723 16727 0
-16711 -16723 16728 0
-16724 16728 0
-16711 -16724 0
-16712 -16728 0
-16733 30 31 32 33 34 0
-30 16733 0
-31 16733 0
-32 16733 0
-33 16733 0
-34 16733 0
-16734 72 73 74 75 76 0
-72 16734 0
-73 16734 0
-74 16734 0
-75 16734 0
-76 16734 0
-16735 114 115 116 117 118 0
-114 16735 0
-115 16735 0
-116 16735 0
-117 16735 0
-118 16735 0
-16736 156 157 158 159 160 0
-156 16736 0
-157 16736 0
-158 16736 0
-159 16736 0
-160 16736 0
-16737 198 199 200 201 202 0
-198 16737 0
-199 16737 0
-200 16737 0
-201 16737 0
-202 16737 0
-16738 31 0
-31 16738 0
-16739 73 0
-73 16739 0
-16740 115 0
-115 16740 0
-16741 157 0
-157 16741 0
-16742 199 0
-199 16742 0
-16738 16743 0
-16739 16744 0
-16743 16744 0
-16739 -16743 0
-16740 16745 0
-16744 16745 0
-16740 -16744 0
-16741 16746 0
-16745 16746 0
-16741 -16745 0
-16742 -16746 0
-16748 31 32 0
-31 16748 0
-32 16748 0
-16749 73 74 0
-73 16749 0
-74 16749 0
-16750 115 116 0
-115 16750 0
-116 16750 0
-16751 157 158 0
-157 16751 0
-158 16751 0
-16752 199 200 0
-199 16752 0
-200 16752 0
-16748 16753 0
-16754 0
-16749 16755 0
-16753 16755 0
-16749 -16753 16756 0
-16754 16756 0
-16749 -16754 0
-16750 16757 0
-16755 16757 0
-16750 -16755 16758 0
-16756 16758 0
-16750 -16756 0
-16751 16759 0
-16757 16759 0
-16751 -16757 16760 0
-16758 16760 0
-16751 -16758 0
-16752 -16760 0
-16763 31 32 33 0
-31 16763 0
-32 16763 0
-33 16763 0
-16764 73 74 75 0
-73 16764 0
-74 16764 0
-75 16764 0
-16765 115 116 117 0
-115 16765 0
-116 16765 0
-117 16765 0
-16766 157 158 159 0
-157 16766 0
-158 16766 0
-159 16766 0
-16767 199 200 201 0
-199 16767 0
-200 16767 0
-201 16767 0
-16763 16768 0
-16769 0
-16770 0
-16764 16771 0
-16768 16771 0
-16764 -16768 16772 0
-16769 16772 0
-16764 -16769 16773 0
-16770 16773 0
-16764 -16770 0
-16765 16774 0
-16771 16774 0
-16765 -16771 16775 0
-16772 16775 0
-16765 -16772 16776 0
-16773 16776 0
-16765 -16773 0
-16766 16777 0
-16774 16777 0
-16766 -16774 16778 0
-16775 16778 0
-16766 -16775 16779 0
-16776 16779 0
-16766 -16776 0
-16767 -16779 0
-16783 31 32 33 34 0
-31 16783 0
-32 16783 0
-33 16783 0
-34 16783 0
-16784 73 74 75 76 0
-73 16784 0
-74 16784 0
-75 16784 0
-76 16784 0
-16785 115 116 117 118 0
-115 16785 0
-116 16785 0
-117 16785 0
-118 16785 0
-16786 157 158 159 160 0
-157 16786 0
-158 16786 0
-159 16786 0
-160 16786 0
-16787 199 200 201 202 0
-199 16787 0
-200 16787 0
-201 16787 0
-202 16787 0
-16783 16788 0
-16789 0
-16790 0
-16791 0
-16784 16792 0
-16788 16792 0
-16784 -16788 16793 0
-16789 16793 0
-16784 -16789 16794 0
-16790 16794 0
-16784 -16790 16795 0
-16791 16795 0
-16784 -16791 0
-16785 16796 0
-16792 16796 0
-16785 -16792 16797 0
-16793 16797 0
-16785 -16793 16798 0
-16794 16798 0
-16785 -16794 16799 0
-16795 16799 0
-16785 -16795 0
-16786 16800 0
-16796 16800 0
-16786 -16796 16801 0
-16797 16801 0
-16786 -16797 16802 0
-16798 16802 0
-16786 -16798 16803 0
-16799 16803 0
-16786 -16799 0
-16787 -16803 0
-16808 31 32 33 34 35 0
-31 16808 0
-32 16808 0
-33 16808 0
-34 16808 0
-35 16808 0
-16809 73 74 75 76 77 0
-73 16809 0
-74 16809 0
-75 16809 0
-76 16809 0
-77 16809 0
-16810 115 116 117 118 119 0
-115 16810 0
-116 16810 0
-117 16810 0
-118 16810 0
-119 16810 0
-16811 157 158 159 160 161 0
-157 16811 0
-158 16811 0
-159 16811 0
-160 16811 0
-161 16811 0
-16812 199 200 201 202 203 0
-199 16812 0
-200 16812 0
-201 16812 0
-202 16812 0
-203 16812 0
-16813 32 0
-32 16813 0
-16814 74 0
-74 16814 0
-16815 116 0
-116 16815 0
-16816 158 0
-158 16816 0
-16817 200 0
-200 16817 0
-16813 16818 0
-16814 16819 0
-16818 16819 0
-16814 -16818 0
-16815 16820 0
-16819 16820 0
-16815 -16819 0
-16816 16821 0
-16820 16821 0
-16816 -16820 0
-16817 -16821 0
-16823 32 33 0
-32 16823 0
-33 16823 0
-16824 74 75 0
-74 16824 0
-75 16824 0
-16825 116 117 0
-116 16825 0
-117 16825 0
-16826 158 159 0
-158 16826 0
-159 16826 0
-16827 200 201 0
-200 16827 0
-201 16827 0
-16823 16828 0
-16829 0
-16824 16830 0
-16828 16830 0
-16824 -16828 16831 0
-16829 16831 0
-16824 -16829 0
-16825 16832 0
-16830 16832 0
-16825 -16830 16833 0
-16831 16833 0
-16825 -16831 0
-16826 16834 0
-16832 16834 0
-16826 -16832 16835 0
-16833 16835 0
-16826 -16833 0
-16827 -16835 0
-16838 32 33 34 0
-32 16838 0
-33 16838 0
-34 16838 0
-16839 74 75 76 0
-74 16839 0
-75 16839 0
-76 16839 0
-16840 116 117 118 0
-116 16840 0
-117 16840 0
-118 16840 0
-16841 158 159 160 0
-158 16841 0
-159 16841 0
-160 16841 0
-16842 200 201 202 0
-200 16842 0
-201 16842 0
-202 16842 0
-16838 16843 0
-16844 0
-16845 0
-16839 16846 0
-16843 16846 0
-16839 -16843 16847 0
-16844 16847 0
-16839 -16844 16848 0
-16845 16848 0
-16839 -16845 0
-16840 16849 0
-16846 16849 0
-16840 -16846 16850 0
-16847 16850 0
-16840 -16847 16851 0
-16848 16851 0
-16840 -16848 0
-16841 16852 0
-16849 16852 0
-16841 -16849 16853 0
-16850 16853 0
-16841 -16850 16854 0
-16851 16854 0
-16841 -16851 0
-16842 -16854 0
-16858 32 33 34 35 0
-32 16858 0
-33 16858 0
-34 16858 0
-35 16858 0
-16859 74 75 76 77 0
-74 16859 0
-75 16859 0
-76 16859 0
-77 16859 0
-16860 116 117 118 119 0
-116 16860 0
-117 16860 0
-118 16860 0
-119 16860 0
-16861 158 159 160 161 0
-158 16861 0
-159 16861 0
-160 16861 0
-161 16861 0
-16862 200 201 202 203 0
-200 16862 0
-201 16862 0
-202 16862 0
-203 16862 0
-16858 16863 0
-16864 0
-16865 0
-16866 0
-16859 16867 0
-16863 16867 0
-16859 -16863 16868 0
-16864 16868 0
-16859 -16864 16869 0
-16865 16869 0
-16859 -16865 16870 0
-16866 16870 0
-16859 -16866 0
-16860 16871 0
-16867 16871 0
-16860 -16867 16872 0
-16868 16872 0
-16860 -16868 16873 0
-16869 16873 0
-16860 -16869 16874 0
-16870 16874 0
-16860 -16870 0
-16861 16875 0
-16871 16875 0
-16861 -16871 16876 0
-16872 16876 0
-16861 -16872 16877 0
-16873 16877 0
-16861 -16873 16878 0
-16874 16878 0
-16861 -16874 0
-16862 -16878 0
-16883 33 0
-33 16883 0
-16884 75 0
-75 16884 0
-16885 117 0
-117 16885 0
-16886 159 0
-159 16886 0
-16887 201 0
-201 16887 0
-16883 16888 0
-16884 16889 0
-16888 16889 0
-16884 -16888 0
-16885 16890 0
-16889 16890 0
-16885 -16889 0
-16886 16891 0
-16890 16891 0
-16886 -16890 0
-16887 -16891 0
-16893 33 34 0
-33 16893 0
-34 16893 0
-16894 75 76 0
-75 16894 0
-76 16894 0
-16895 117 118 0
-117 16895 0
-118 16895 0
-16896 159 160 0
-159 16896 0
-160 16896 0
-16897 201 202 0
-201 16897 0
-202 16897 0
-16893 16898 0
-16899 0
-16894 16900 0
-16898 16900 0
-16894 -16898 16901 0
-16899 16901 0
-16894 -16899 0
-16895 16902 0
-16900 16902 0
-16895 -16900 16903 0
-16901 16903 0
-16895 -16901 0
-16896 16904 0
-16902 16904 0
-16896 -16902 16905 0
-16903 16905 0
-16896 -16903 0
-16897 -16905 0
-16908 33 34 35 0
-33 16908 0
-34 16908 0
-35 16908 0
-16909 75 76 77 0
-75 16909 0
-76 16909 0
-77 16909 0
-16910 117 118 119 0
-117 16910 0
-118 16910 0
-119 16910 0
-16911 159 160 161 0
-159 16911 0
-160 16911 0
-161 16911 0
-16912 201 202 203 0
-201 16912 0
-202 16912 0
-203 16912 0
-16908 16913 0
-16914 0
-16915 0
-16909 16916 0
-16913 16916 0
-16909 -16913 16917 0
-16914 16917 0
-16909 -16914 16918 0
-16915 16918 0
-16909 -16915 0
-16910 16919 0
-16916 16919 0
-16910 -16916 16920 0
-16917 16920 0
-16910 -16917 16921 0
-16918 16921 0
-16910 -16918 0
-16911 16922 0
-16919 16922 0
-16911 -16919 16923 0
-16920 16923 0
-16911 -16920 16924 0
-16921 16924 0
-16911 -16921 0
-16912 -16924 0
-16928 34 0
-34 16928 0
-16929 76 0
-76 16929 0
-16930 118 0
-118 16930 0
-16931 160 0
-160 16931 0
-16932 202 0
-202 16932 0
-16928 16933 0
-16929 16934 0
-16933 16934 0
-16929 -16933 0
-16930 16935 0
-16934 16935 0
-16930 -16934 0
-16931 16936 0
-16935 16936 0
-16931 -16935 0
-16932 -16936 0
-16938 34 35 0
-34 16938 0
-35 16938 0
-16939 76 77 0
-76 16939 0
-77 16939 0
-16940 118 119 0
-118 16940 0
-119 16940 0
-16941 160 161 0
-160 16941 0
-161 16941 0
-16942 202 203 0
-202 16942 0
-203 16942 0
-16938 16943 0
-16944 0
-16939 16945 0
-16943 16945 0
-16939 -16943 16946 0
-16944 16946 0
-16939 -16944 0
-16940 16947 0
-16945 16947 0
-16940 -16945 16948 0
-16946 16948 0
-16940 -16946 0
-16941 16949 0
-16947 16949 0
-16941 -16947 16950 0
-16948 16950 0
-16941 -16948 0
-16942 -16950 0
-16953 35 0
-35 16953 0
-16954 77 0
-77 16954 0
-16955 119 0
-119 16955 0
-16956 161 0
-161 16956 0
-16957 203 0
-203 16957 0
-16953 16958 0
-16954 16959 0
-16958 16959 0
-16954 -16958 0
-16955 16960 0
-16959 16960 0
-16955 -16959 0
-16956 16961 0
-16960 16961 0
-16956 -16960 0
-16957 -16961 0
-16963 16970 0
-16971 0
-16964 16972 0
-16970 16972 0
-16964 -16970 16973 0
-16971 16973 0
-16964 -16971 0
-16965 16974 0
-16972 16974 0
-16965 -16972 16975 0
-16973 16975 0
-16965 -16973 0
-16966 16976 0
-16974 16976 0
-16966 -16974 16977 0
-16975 16977 0
-16966 -16975 0
-16967 16978 0
-16976 16978 0
-16967 -16976 16979 0
-16977 16979 0
-16967 -16977 0
-16968 16980 0
-16978 16980 0
-16968 -16978 16981 0
-16979 16981 0
-16968 -16979 0
-16969 -16981 0
16963 16984 0
-16985 0
-16986 0
-16987 0
-16988 0
16964 16989 0
-16984 16989 0
16964 -16984 16990 0
-16985 16990 0
16964 -16985 16991 0
-16986 16991 0
16964 -16986 16992 0
-16987 16992 0
16964 -16987 16993 0
-16988 16993 0
16964 -16988 0
16965 16994 0
-16989 16994 0
16965 -16989 16995 0
-16990 16995 0
16965 -16990 16996 0
-16991 16996 0
16965 -16991 16997 0
-16992 16997 0
16965 -16992 16998 0
-16993 16998 0
16965 -16993 0
16966 16999 0
-16994 16999 0
16966 -16994 17000 0
-16995 17000 0
16966 -16995 17001 0
-16996 17001 0
16966 -16996 17002 0
-16997 17002 0
16966 -16997 17003 0
-16998 17003 0
16966 -16998 0
16967 17004 0
-16999 17004 0
16967 -16999 17005 0
-17000 17005 0
16967 -17000 17006 0
-17001 17006 0
16967 -17001 17007 0
-17002 17007 0
16967 -17002 17008 0
-17003 17008 0
16967 -17003 0
16968 17009 0
-17004 17009 0
16968 -17004 17010 0
-17005 17010 0
16968 -17005 17011 0
-17006 17011 0
16968 -17006 17012 0
-17007 17012 0
16968 -17007 17013 0
-17008 17013 0
16968 -17008 0
16969 -17013 0
-29 17019 0
-71 17020 0
-17019 17020 0
-71 -17019 0
-113 17021 0
-17020 17021 0
-113 -17020 0
-155 17022 0
-17021 17022 0
-155 -17021 0
-197 17023 0
-17022 17023 0
-197 -17022 0
-16963 -17023 0
29 71 113 155 197 16963 0
-30 17025 0
-72 17026 0
-17025 17026 0
-72 -17025 0
-114 17027 0
-17026 17027 0
-114 -17026 0
-156 17028 0
-17027 17028 0
-156 -17027 0
-198 17029 0
-17028 17029 0
-198 -17028 0
-16964 -17029 0
30 72 114 156 198 16964 0
-31 17031 0
-73 17032 0
-17031 17032 0
-73 -17031 0
-115 17033 0
-17032 17033 0
-115 -17032 0
-157 17034 0
-17033 17034 0
-157 -17033 0
-199 17035 0
-17034 17035 0
-199 -17034 0
-16965 -17035 0
31 73 115 157 199 16965 0
-32 17037 0
-74 17038 0
-17037 17038 0
-74 -17037 0
-116 17039 0
-17038 17039 0
-116 -17038 0
-158 17040 0
-17039 17040 0
-158 -17039 0
-200 17041 0
-17040 17041 0
-200 -17040 0
-16966 -17041 0
32 74 116 158 200 16966 0
-33 17043 0
-75 17044 0
-17043 17044 0
-75 -17043 0
-117 17045 0
-17044 17045 0
-117 -17044 0
-159 17046 0
-17045 17046 0
-159 -17045 0
-201 17047 0
-17046 17047 0
-201 -17046 0
-16967 -17047 0
33 75 117 159 201 16967 0
-34 17049 0
-76 17050 0
-17049 17050 0
-76 -17049 0
-118 17051 0
-17050 17051 0
-118 -17050 0
-160 17052 0
-17051 17052 0
-160 -17051 0
-202 17053 0
-17052 17053 0
-202 -17052 0
-16968 -17053 0
34 76 118 160 202 16968 0
-35 17055 0
-77 17056 0
-17055 17056 0
-77 -17055 0
-119 17057 0
-17056 17057 0
-119 -17056 0
-161 17058 0
-17057 17058 0
-161 -17057 0
-203 17059 0
-17058 17059 0
-203 -17058 0
-16969 -17059 0
35 77 119 161 203 16969 0
-17061 36 0
-36 17061 0
-17062 78 0
-78 17062 0
-17063 120 0
-120 17063 0
-17064 162 0
-162 17064 0
-17065 204 0
-204 17065 0
-17066 246 0
-246 17066 0
-17061 17067 0
-17062 17068 0
-17067 17068 0
-17062 -17067 0
-17063 17069 0
-17068 17069 0
-17063 -17068 0
-17064 17070 0
-17069 17070 0
-17064 -17069 0
-17065 17071 0
-17070 17071 0
-17065 -17070 0
-17066 -17071 0
-17073 36 37 0
-36 17073 0
-37 17073 0
-17074 78 79 0
-78 17074 0
-79 17074 0
-17075 120 121 0
-120 17075 0
-121 17075 0
-17076 162 163 0
-162 17076 0
-163 17076 0
-17077 204 205 0
-204 17077 0
-205 17077 0
-17078 246 247 0
-246 17078 0
-247 17078 0
-17073 17079 0
-17080 0
-17074 17081 0
-17079 17081 0
-17074 -17079 17082 0
-17080 17082 0
-17074 -17080 0
-17075 17083 0
-17081 17083 0
-17075 -17081 17084 0
-17082 17084 0
-17075 -17082 0
-17076 17085 0
-17083 17085 0
-17076 -17083 17086 0
-17084 17086 0
-17076 -17084 0
-17077 17087 0
-17085 17087 0
-17077 -17085 17088 0
-17086 17088 0
-17077 -17086 0
-17078 -17088 0
-17091 36 37 38 0
-36 17091 0
-37 17091 0
-38 17091 0
-17092 78 79 80 0
-78 17092 0
-79 17092 0
-80 17092 0
-17093 120 121 122 0
-120 17093 0
-121 17093 0
-122 17093 0
-17094 162 163 164 0
-162 17094 0
-163 17094 0
-164 17094 0
-17095 204 205 206 0
-204 17095 0
-205 17095 0
-206 17095 0
-17096 246 247 248 0
-246 17096 0
-247 17096 0
-248 17096 0
-17091 17097 0
-17098 0
-17099 0
-17092 17100 0
-17097 17100 0
-17092 -17097 17101 0
-17098 17101 0
-17092 -17098 17102 0
-17099 17102 0
-17092 -17099 0
-17093 17103 0
-17100 17103 0
-17093 -17100 17104 0
-17101 17104 0
-17093 -17101 17105 0
-17102 17105 0
-17093 -17102 0
-17094 17106 0
-17103 17106 0
-17094 -17103 17107 0
-17104 17107 0
-17094 -17104 17108 0
-17105 17108 0
-17094 -17105 0
-17095 17109 0
-17106 17109 0
-17095 -17106 17110 0
-17107 17110 0
-17095 -17107 17111 0
-17108 17111 0
-17095 -17108 0
-17096 -17111 0
-17115 36 37 38 39 0
-36 17115 0
-37 17115 0
-38 17115 0
-39 17115 0
-17116 78 79 80 81 0
-78 17116 0
-79 17116 0
-80 17116 0
-81 17116 0
-17117 120 121 122 123 0
-120 17117 0
-121 17117 0
-122 17117 0
-123 17117 0
-17118 162 163 164 165 0
-162 17118 0
-163 17118 0
-164 17118 0
-165 17118 0
-17119 204 205 206 207 0
-204 17119 0
-205 17119 0
-206 17119 0
-207 17119 0
-17120 246 247 248 249 0
-246 17120 0
-247 17120 0
-248 17120 0
-249 17120 0
-17115 17121 0
-17122 0
-17123 0
-17124 0
-17116 17125 0
-17121 17125 0
-17116 -17121 17126 0
-17122 17126 0
-17116 -17122 17127 0
-17123 17127 0
-17116 -17123 17128 0
-17124 17128 0
-17116 -17124 0
-17117 17129 0
-17125 17129 0
-17117 -17125 17130 0
-17126 17130 0
-17117 -17126 17131 0
-17127 17131 0
-17117 -17127 17132 0
-17128 17132 0
-17117 -17128 0
-17118 17133 0
-17129 17133 0
-17118 -17129 17134 0
-17130 17134 0
-17118 -17130 17135 0
-17131 17135 0
-17118 -17131 17136 0
-17132 17136 0
-17118 -17132 0
-17119 17137 0
-17133 17137 0
-17119 -17133 17138 0
-17134 17138 0
-17119 -17134 17139 0
-17135 17139 0
-17119 -17135 17140 0
-17136 17140 0
-17119 -17136 0
-17120 -17140 0
-17145 36 37 38 39 40 0
-36 17145 0
-37 17145 0
-38 17145 0
-39 17145 0
-40 17145 0
-17146 78 79 80 81 82 0
-78 17146 0
-79 17146 0
-80 17146 0
-81 17146 0
-82 17146 0
-17147 120 121 122 123 124 0
-120 17147 0
-121 17147 0
-122 17147 0
-123 17147 0
-124 17147 0
-17148 162 163 164 165 166 0
-162 17148 0
-163 17148 0
-164 17148 0
-165 17148 0
-166 17148 0
-17149 204 205 206 207 208 0
-204 17149 0
-205 17149 0
-206 17149 0
-207 17149 0
-208 17149 0
-17150 246 247 248 249 250 0
-246 17150 0
-247 17150 0
-248 17150 0
-249 17150 0
-250 17150 0
-17145 17151 0
-17152 0
-17153 0
-17154 0
-17155 0
-17146 17156 0
-17151 17156 0
-17146 -17151 17157 0
-17152 17157 0
-17146 -17152 17158 0
-17153 17158 0
-17146 -17153 17159 0
-17154 17159 0
-17146 -17154 17160 0
-17155 17160 0
-17146 -17155 0
-17147 17161 0
-17156 17161 0
-17147 -17156 17162 0
-17157 17162 0
-17147 -17157 17163 0
-17158 17163 0
-17147 -17158 17164 0
-17159 17164 0
-17147 -17159 17165 0
-17160 17165 0
-17147 -17160 0
-17148 17166 0
-17161 17166 0
-17148 -17161 17167 0
-17162 17167 0
-17148 -17162 17168 0
-17163 17168 0
-17148 -17163 17169 0
-17164 17169 0
-17148 -17164 17170 0
-17165 17170 0
-17148 -17165 0
-17149 17171 0
-17166 17171 0
-17149 -17166 17172 0
-17167 17172 0
-17149 -17167 17173 0
-17168 17173 0
-17149 -17168 17174 0
-17169 17174 0
-17149 -17169 17175 0
-17170 17175 0
-17149 -17170 0
-17150 -17175 0
-17181 36 37 38 39 40 41 0
-36 17181 0
-37 17181 0
-38 17181 0
-39 17181 0
-40 17181 0
-41 17181 0
-17182 78 79 80 81 82 83 0
-78 17182 0
-79 17182 0
-80 17182 0
-81 17182 0
-82 17182 0
-83 17182 0
-17183 120 121 122 123 124 125 0
-120 17183 0
-121 17183 0
-122 17183 0
-123 17183 0
-124 17183 0
-125 17183 0
-17184 162 163 164 165 166 167 0
-162 17184 0
-163 17184 0
-164 17184 0
-165 17184 0
-166 17184 0
-167 17184 0
-17185 204 205 206 207 208 209 0
-204 17185 0
-205 17185 0
-206 17185 0
-207 17185 0
-208 17185 0
-209 17185 0
-17186 246 247 248 249 250 251 0
-246 17186 0
-247 17186 0
-248 17186 0
-249 17186 0
-250 17186 0
-251 17186 0
-17187 37 0
-37 17187 0
-17188 79 0
-79 17188 0
-17189 121 0
-121 17189 0
-17190 163 0
-163 17190 0
-17191 205 0
-205 17191 0
-17192 247 0
-247 17192 0
-17187 17193 0
-17188 17194 0
-17193 17194 0
-17188 -17193 0
-17189 17195 0
-17194 17195 0
-17189 -17194 0
-17190 17196 0
-17195 17196 0
-17190 -17195 0
-17191 17197 0
-17196 17197 0
-17191 -17196 0
-17192 -17197 0
-17199 37 38 0
-37 17199 0
-38 17199 0
-17200 79 80 0
-79 17200 0
-80 17200 0
-17201 121 122 0
-121 17201 0
-122 17201 0
-17202 163 164 0
-163 17202 0
-164 17202 0
-17203 205 206 0
-205 17203 0
-206 17203 0
-17204 247 248 0
-247 17204 0
-248 17204 0
-17199 17205 0
-17206 0
-17200 17207 0
-17205 17207 0
-17200 -17205 17208 0
-17206 17208 0
-17200 -17206 0
-17201 17209 0
-17207 17209 0
-17201 -17207 17210 0
-17208 17210 0
-17201 -17208 0
-17202 17211 0
-17209 17211 0
-17202 -17209 17212 0
-17210 17212 0
-17202 -17210 0
-17203 17213 0
-17211 17213 0
-17203 -17211 17214 0
-17212 17214 0
-17203 -17212 0
-17204 -17214 0
-17217 37 38 39 0
-37 17217 0
-38 17217 0
-39 17217 0
-17218 79 80 81 0
-79 17218 0
-80 17218 0
-81 17218 0
-17219 121 122 123 0
-121 17219 0
-122 17219 0
-123 17219 0
-17220 163 164 165 0
-163 17220 0
-164 17220 0
-165 17220 0
-17221 205 206 207 0
-205 17221 0
-206 17221 0
-207 17221 0
-17222 247 248 249 0
-247 17222 0
-248 17222 0
-249 17222 0
-17217 17223 0
-17224 0
-17225 0
-17218 17226 0
-17223 17226 0
-17218 -17223 17227 0
-17224 17227 0
-17218 -17224 17228 0
-17225 17228 0
-17218 -17225 0
-17219 17229 0
-17226 17229 0
-17219 -17226 17230 0
-17227 17230 0
-17219 -17227 17231 0
-17228 17231 0
-17219 -17228 0
-17220 17232 0
-17229 17232 0
-17220 -17229 17233 0
-17230 17233 0
-17220 -17230 17234 0
-17231 17234 0
-17220 -17231 0
-17221 17235 0
-17232 17235 0
-17221 -17232 17236 0
-17233 17236 0
-17221 -17233 17237 0
-17234 17237 0
-17221 -17234 0
-17222 -17237 0
-17241 37 38 39 40 0
-37 17241 0
-38 17241 0
-39 17241 0
-40 17241 0
-17242 79 80 81 82 0
-79 17242 0
-80 17242 0
-81 17242 0
-82 17242 0
-17243 121 122 123 124 0
-121 17243 0
-122 17243 0
-123 17243 0
-124 17243 0
-17244 163 164 165 166 0
-163 17244 0
-164 17244 0
-165 17244 0
-166 17244 0
-17245 205 206 207 208 0
-205 17245 0
-206 17245 0
-207 17245 0
-208 17245 0
-17246 247 248 249 250 0
-247 17246 0
-248 17246 0
-249 17246 0
-250 17246 0
-17241 17247 0
-17248 0
-17249 0
-17250 0
-17242 17251 0
-17247 17251 0
-17242 -17247 17252 0
-17248 17252 0
-17242 -17248 17253 0
-17249 17253 0
-17242 -17249 17254 0
-17250 17254 0
-17242 -17250 0
-17243 17255 0
-17251 17255 0
-17243 -17251 17256 0
-17252 17256 0
-17243 -17252 17257 0
-17253 17257 0
-17243 -17253 17258 0
-17254 17258 0
-17243 -17254 0
-17244 17259 0
-17255 17259 0
-17244 -17255 17260 0
-17256 17260 0
-17244 -17256 17261 0
-17257 17261 0
-17244 -17257 17262 0
-17258 17262 0
-17244 -17258 0
-17245 17263 0
-17259 17263 0
-17245 -17259 17264 0
-17260 17264 0
-17245 -17260 17265 0
-17261 17265 0
-17245 -17261 17266 0
-17262 17266 0
-17245 -17262 0
-17246 -17266 0
-17271 37 38 39 40 41 0
-37 17271 0
-38 17271 0
-39 17271 0
-40 17271 0
-41 17271 0
-17272 79 80 81 82 83 0
-79 17272 0
-80 17272 0
-81 17272 0
-82 17272 0
-83 17272 0
-17273 121 122 123 124 125 0
-121 17273 0
-122 17273 0
-123 17273 0
-124 17273 0
-125 17273 0
-17274 163 164 165 166 167 0
-163 17274 0
-164 17274 0
-165 17274 0
-166 17274 0
-167 17274 0
-17275 205 206 207 208 209 0
-205 17275 0
-206 17275 0
-207 17275 0
-208 17275 0
-209 17275 0
-17276 247 248 249 250 251 0
-247 17276 0
-248 17276 0
-249 17276 0
-250 17276 0
-251 17276 0
-17271 17277 0
-17278 0
-17279 0
-17280 0
-17281 0
-17272 17282 0
-17277 17282 0
-17272 -17277 17283 0
-17278 17283 0
-17272 -17278 17284 0
-17279 17284 0
-17272 -17279 17285 0
-17280 17285 0
-17272 -17280 17286 0
-17281 17286 0
-17272 -17281 0
-17273 17287 0
-17282 17287 0
-17273 -17282 17288 0
-17283 17288 0
-17273 -17283 17289 0
-17284 17289 0
-17273 -17284 17290 0
-17285 17290 0
-17273 -17285 17291 0
-17286 17291 0
-17273 -17286 0
-17274 17292 0
-17287 17292 0
-17274 -17287 17293 0
-17288 17293 0
-17274 -17288 17294 0
-17289 17294 0
-17274 -17289 17295 0
-17290 17295 0
-17274 -17290 17296 0
-17291 17296 0
-17274 -17291 0
-17275 17297 0
-17292 17297 0
-17275 -17292 17298 0
-17293 17298 0
-17275 -17293 17299 0
-17294 17299 0
-17275 -17294 17300 0
-17295 17300 0
-17275 -17295 17301 0
-17296 17301 0
-17275 -17296 0
-17276 -17301 0
-17307 37 38 39 40 41 42 0
-37 17307 0
-38 17307 0
-39 17307 0
-40 17307 0
-41 17307 0
-42 17307 0
-17308 79 80 81 82 83 84 0
-79 17308 0
-80 17308 0
-81 17308 0
-82 17308 0
-83 17308 0
-84 17308 0
-17309 121 122 123 124 125 126 0
-121 17309 0
-122 17309 0
-123 17309 0
-124 17309 0
-125 17309 0
-126 17309 0
-17310 163 164 165 166 167 168 0
-163 17310 0
-164 17310 0
-165 17310 0
-166 17310 0
-167 17310 0
-168 17310 0
-17311 205 206 207 208 209 210 0
-205 17311 0
-206 17311 0
-207 17311 0
-208 17311 0
-209 17311 0
-210 17311 0
-17312 247 248 249 250 251 252 0
-247 17312 0
-248 17312 0
-249 17312 0
-250 17312 0
-251 17312 0
-252 17312 0
-17313 38 0
-38 17313 0
-17314 80 0
-80 17314 0
-17315 122 0
-122 17315 0
-17316 164 0
-164 17316 0
-17317 206 0
-206 17317 0
-17318 248 0
-248 17318 0
-17313 17319 0
-17314 17320 0
-17319 17320 0
-17314 -17319 0
-17315 17321 0
-17320 17321 0
-17315 -17320 0
-17316 17322 0
-17321 17322 0
-17316 -17321 0
-17317 17323 0
-17322 17323 0
-17317 -17322 0
-17318 -17323 0
-17325 38 39 0
-38 17325 0
-39 17325 0
-17326 80 81 0
-80 17326 0
-81 17326 0
-17327 122 123 0
-122 17327 0
-123 17327 0
-17328 164 165 0
-164 17328 0
-165 17328 0
-17329 206 207 0
-206 17329 0
-207 17329 0
-17330 248 249 0
-248 17330 0
-249 17330 0
-17325 17331 0
-17332 0
-17326 17333 0
-17331 17333 0
-17326 -17331 17334 0
-17332 17334 0
-17326 -17332 0
-17327 17335 0
-17333 17335 0
-17327 -17333 17336 0
-17334 17336 0
-17327 -17334 0
-17328 17337 0
-17335 17337 0
-17328 -17335 17338 0
-17336 17338 0
-17328 -17336 0
-17329 17339 0
-17337 17339 0
-17329 -17337 17340 0
-17338 17340 0
-17329 -17338 0
-17330 -17340 0
-17343 38 39 40 0
-38 17343 0
-39 17343 0
-40 17343 0
-17344 80 81 82 0
-80 17344 0
-81 17344 0
-82 17344 0
-17345 122 123 124 0
-122 17345 0
-123 17345 0
-124 17345 0
-17346 164 165 166 0
-164 17346 0
-165 17346 0
-166 17346 0
-17347 206 207 208 0
-206 17347 0
-207 17347 0
-208 17347 0
-17348 248 249 250 0
-248 17348 0
-249 17348 0
-250 17348 0
-17343 17349 0
-17350 0
-17351 0
-17344 17352 0
-17349 17352 0
-17344 -17349 17353 0
-17350 17353 0
-17344 -17350 17354 0
-17351 17354 0
-17344 -17351 0
-17345 17355 0
-17352 17355 0
-17345 -17352 17356 0
-17353 17356 0
-17345 -17353 17357 0
-17354 17357 0
-17345 -17354 0
-17346 17358 0
-17355 17358 0
-17346 -17355 17359 0
-17356 17359 0
-17346 -17356 17360 0
-17357 17360 0
-17346 -17357 0
-17347 17361 0
-17358 17361 0
-17347 -17358 17362 0
-17359 17362 0
-17347 -17359 17363 0
-17360 17363 0
-17347 -17360 0
-17348 -17363 0
-17367 38 39 40 41 0
-38 17367 0
-39 17367 0
-40 17367 0
-41 17367 0
-17368 80 81 82 83 0
-80 17368 0
-81 17368 0
-82 17368 0
-83 17368 0
-17369 122 123 124 125 0
-122 17369 0
-123 17369 0
-124 17369 0
-125 17369 0
-17370 164 165 166 167 0
-164 17370 0
-165 17370 0
-166 17370 0
-167 17370 0
-17371 206 207 208 209 0
-206 17371 0
-207 17371 0
-208 17371 0
-209 17371 0
-17372 248 249 250 251 0
-248 17372 0
-249 17372 0
-250 17372 0
-251 17372 0
-17367 17373 0
-17374 0
-17375 0
-17376 0
-17368 17377 0
-17373 17377 0
-17368 -17373 17378 0
-17374 17378 0
-17368 -17374 17379 0
-17375 17379 0
-17368 -17375 17380 0
-17376 17380 0
-17368 -17376 0
-17369 17381 0
-17377 17381 0
-17369 -17377 17382 0
-17378 17382 0
-17369 -17378 17383 0
-17379 17383 0
-17369 -17379 17384 0
-17380 17384 0
-17369 -17380 0
-17370 17385 0
-17381 17385 0
-17370 -17381 17386 0
-17382 17386 0
-17370 -17382 17387 0
-17383 17387 0
-17370 -17383 17388 0
-17384 17388 0
-17370 -17384 0
-17371 17389 0
-17385 17389 0
-17371 -17385 17390 0
-17386 17390 0
-17371 -17386 17391 0
-17387 17391 0
-17371 -17387 17392 0
-17388 17392 0
-17371 -17388 0
-17372 -17392 0
-17397 38 39 40 41 42 0
-38 17397 0
-39 17397 0
-40 17397 0
-41 17397 0
-42 17397 0
-17398 80 81 82 83 84 0
-80 17398 0
-81 17398 0
-82 17398 0
-83 17398 0
-84 17398 0
-17399 122 123 124 125 126 0
-122 17399 0
-123 17399 0
-124 17399 0
-125 17399 0
-126 17399 0
-17400 164 165 166 167 168 0
-164 17400 0
-165 17400 0
-166 17400 0
-167 17400 0
-168 17400 0
-17401 206 207 208 209 210 0
-206 17401 0
-207 17401 0
-208 17401 0
-209 17401 0
-210 17401 0
-17402 248 249 250 251 252 0
-248 17402 0
-249 17402 0
-250 17402 0
-251 17402 0
-252 17402 0
-17397 17403 0
-17404 0
-17405 0
-17406 0
-17407 0
-17398 17408 0
-17403 17408 0
-17398 -17403 17409 0
-17404 17409 0
-17398 -17404 17410 0
-17405 17410 0
-17398 -17405 17411 0
-17406 17411 0
-17398 -17406 17412 0
-17407 17412 0
-17398 -17407 0
-17399 17413 0
-17408 17413 0
-17399 -17408 17414 0
-17409 17414 0
-17399 -17409 17415 0
-17410 17415 0
-17399 -17410 17416 0
-17411 17416 0
-17399 -17411 17417 0
-17412 17417 0
-17399 -17412 0
-17400 17418 0
-17413 17418 0
-17400 -17413 17419 0
-17414 17419 0
-17400 -17414 17420 0
-17415 17420 0
-17400 -17415 17421 0
-17416 17421 0
-17400 -17416 17422 0
-17417 17422 0
-17400 -17417 0
-17401 17423 0
-17418 17423 0
-17401 -17418 17424 0
-17419 17424 0
-17401 -17419 17425 0
-17420 17425 0
-17401 -17420 17426 0
-17421 17426 0
-17401 -17421 17427 0
-17422 17427 0
-17401 -17422 0
-17402 -17427 0
-17433 39 0
-39 17433 0
-17434 81 0
-81 17434 0
-17435 123 0
-123 17435 0
-17436 165 0
-165 17436 0
-17437 207 0
-207 17437 0
-17438 249 0
-249 17438 0
-17433 17439 0
-17434 17440 0
-17439 17440 0
-17434 -17439 0
-17435 17441 0
-17440 17441 0
-17435 -17440 0
-17436 17442 0
-17441 17442 0
-17436 -17441 0
-17437 17443 0
-17442 17443 0
-17437 -17442 0
-17438 -17443 0
-17445 39 40 0
-39 17445 0
-40 17445 0
-17446 81 82 0
-81 17446 0
-82 17446 0
-17447 123 124 0
-123 17447 0
-124 17447 0
-17448 165 166 0
-165 17448 0
-166 17448 0
-17449 207 208 0
-207 17449 0
-208 17449 0
-17450 249 250 0
-249 17450 0
-250 17450 0
-17445 17451 0
-17452 0
-17446 17453 0
-17451 17453 0
-17446 -17451 17454 0
-17452 17454 0
-17446 -17452 0
-17447 17455 0
-17453 17455 0
-17447 -17453 17456 0
-17454 17456 0
-17447 -17454 0
-17448 17457 0
-17455 17457 0
-17448 -17455 17458 0
-17456 17458 0
-17448 -17456 0
-17449 17459 0
-17457 17459 0
-17449 -17457 17460 0
-17458 17460 0
-17449 -17458 0
-17450 -17460 0
-17463 39 40 41 0
-39 17463 0
-40 17463 0
-41 17463 0
-17464 81 82 83 0
-81 17464 0
-82 17464 0
-83 17464 0
-17465 123 124 125 0
-123 17465 0
-124 17465 0
-125 17465 0
-17466 165 166 167 0
-165 17466 0
-166 17466 0
-167 17466 0
-17467 207 208 209 0
-207 17467 0
-208 17467 0
-209 17467 0
-17468 249 250 251 0
-249 17468 0
-250 17468 0
-251 17468 0
-17463 17469 0
-17470 0
-17471 0
-17464 17472 0
-17469 17472 0
-17464 -17469 17473 0
-17470 17473 0
-17464 -17470 17474 0
-17471 17474 0
-17464 -17471 0
-17465 17475 0
-17472 17475 0
-17465 -17472 17476 0
-17473 17476 0
-17465 -17473 17477 0
-17474 17477 0
-17465 -17474 0
-17466 17478 0
-17475 17478 0
-17466 -17475 17479 0
-17476 17479 0
-17466 -17476 17480 0
-17477 17480 0
-17466 -17477 0
-17467 17481 0
-17478 17481 0
-17467 -17478 17482 0
-17479 17482 0
-17467 -17479 17483 0
-17480 17483 0
-17467 -17480 0
-17468 -17483 0
-17487 39 40 41 42 0
-39 17487 0
-40 17487 0
-41 17487 0
-42 17487 0
-17488 81 82 83 84 0
-81 17488 0
-82 17488 0
-83 17488 0
-84 17488 0
-17489 123 124 125 126 0
-123 17489 0
-124 17489 0
-125 17489 0
-126 17489 0
-17490 165 166 167 168 0
-165 17490 0
-166 17490 0
-167 17490 0
-168 17490 0
-17491 207 208 209 210 0
-207 17491 0
-208 17491 0
-209 17491 0
-210 17491 0
-17492 249 250 251 252 0
-249 17492 0
-250 17492 0
-251 17492 0
-252 17492 0
-17487 17493 0
-17494 0
-17495 0
-17496 0
-17488 17497 0
-17493 17497 0
-17488 -17493 17498 0
-17494 17498 0
-17488 -17494 17499 0
-17495 17499 0
-17488 -17495 17500 0
-17496 17500 0
-17488 -17496 0
-17489 17501 0
-17497 17501 0
-17489 -17497 17502 0
-17498 17502 0
-17489 -17498 17503 0
-17499 17503 0
-17489 -17499 17504 0
-17500 17504 0
-17489 -17500 0
-17490 17505 0
-17501 17505 0
-17490 -17501 17506 0
-17502 17506 0
-17490 -17502 17507 0
-17503 17507 0
-17490 -17503 17508 0
-17504 17508 0
-17490 -17504 0
-17491 17509 0
-17505 17509 0
-17491 -17505 17510 0
-17506 17510 0
-17491 -17506 17511 0
-17507 17511 0
-17491 -17507 17512 0
-17508 17512 0
-17491 -17508 0
-17492 -17512 0
-17517 40 0
-40 17517 0
-17518 82 0
-82 17518 0
-17519 124 0
-124 17519 0
-17520 166 0
-166 17520 0
-17521 208 0
-208 17521 0
-17522 250 0
-250 17522 0
-17517 17523 0
-17518 17524 0
-17523 17524 0
-17518 -17523 0
-17519 17525 0
-17524 17525 0
-17519 -17524 0
-17520 17526 0
-17525 17526 0
-17520 -17525 0
-17521 17527 0
-17526 17527 0
-17521 -17526 0
-17522 -17527 0
-17529 40 41 0
-40 17529 0
-41 17529 0
-17530 82 83 0
-82 17530 0
-83 17530 0
-17531 124 125 0
-124 17531 0
-125 17531 0
-17532 166 167 0
-166 17532 0
-167 17532 0
-17533 208 209 0
-208 17533 0
-209 17533 0
-17534 250 251 0
-250 17534 0
-251 17534 0
-17529 17535 0
-17536 0
-17530 17537 0
-17535 17537 0
-17530 -17535 17538 0
-17536 17538 0
-17530 -17536 0
-17531 17539 0
-17537 17539 0
-17531 -17537 17540 0
-17538 17540 0
-17531 -17538 0
-17532 17541 0
-17539 17541 0
-17532 -17539 17542 0
-17540 17542 0
-17532 -17540 0
-17533 17543 0
-17541 17543 0
-17533 -17541 17544 0
-17542 17544 0
-17533 -17542 0
-17534 -17544 0
-17547 40 41 42 0
-40 17547 0
-41 17547 0
-42 17547 0
-17548 82 83 84 0
-82 17548 0
-83 17548 0
-84 17548 0
-17549 124 125 126 0
-124 17549 0
-125 17549 0
-126 17549 0
-17550 166 167 168 0
-166 17550 0
-167 17550 0
-168 17550 0
-17551 208 209 210 0
-208 17551 0
-209 17551 0
-210 17551 0
-17552 250 251 252 0
-250 17552 0
-251 17552 0
-252 17552 0
-17547 17553 0
-17554 0
-17555 0
-17548 17556 0
-17553 17556 0
-17548 -17553 17557 0
-17554 17557 0
-17548 -17554 17558 0
-17555 17558 0
-17548 -17555 0
-17549 17559 0
-17556 17559 0
-17549 -17556 17560 0
-17557 17560 0
-17549 -17557 17561 0
-17558 17561 0
-17549 -17558 0
-17550 17562 0
-17559 17562 0
-17550 -17559 17563 0
-17560 17563 0
-17550 -17560 17564 0
-17561 17564 0
-17550 -17561 0
-17551 17565 0
-17562 17565 0
-17551 -17562 17566 0
-17563 17566 0
-17551 -17563 17567 0
-17564 17567 0
-17551 -17564 0
-17552 -17567 0
-17571 41 0
-41 17571 0
-17572 83 0
-83 17572 0
-17573 125 0
-125 17573 0
-17574 167 0
-167 17574 0
-17575 209 0
-209 17575 0
-17576 251 0
-251 17576 0
-17571 17577 0
-17572 17578 0
-17577 17578 0
-17572 -17577 0
-17573 17579 0
-17578 17579 0
-17573 -17578 0
-17574 17580 0
-17579 17580 0
-17574 -17579 0
-17575 17581 0
-17580 17581 0
-17575 -17580 0
-17576 -17581 0
-17583 41 42 0
-41 17583 0
-42 17583 0
-17584 83 84 0
-83 17584 0
-84 17584 0
-17585 125 126 0
-125 17585 0
-126 17585 0
-17586 167 168 0
-167 17586 0
-168 17586 0
-17587 209 210 0
-209 17587 0
-210 17587 0
-17588 251 252 0
-251 17588 0
-252 17588 0
-17583 17589 0
-17590 0
-17584 17591 0
-17589 17591 0
-17584 -17589 17592 0
-17590 17592 0
-17584 -17590 0
-17585 17593 0
-17591 17593 0
-17585 -17591 17594 0
-17592 17594 0
-17585 -17592 0
-17586 17595 0
-17593 17595 0
-17586 -17593 17596 0
-17594 17596 0
-17586 -17594 0
-17587 17597 0
-17595 17597 0
-17587 -17595 17598 0
-17596 17598 0
-17587 -17596 0
-17588 -17598 0
-17601 42 0
-42 17601 0
-17602 84 0
-84 17602 0
-17603 126 0
-126 17603 0
-17604 168 0
-168 17604 0
-17605 210 0
-210 17605 0
-17606 252 0
-252 17606 0
-17601 17607 0
-17602 17608 0
-17607 17608 0
-17602 -17607 0
-17603 17609 0
-17608 17609 0
-17603 -17608 0
-17604 17610 0
-17609 17610 0
-17604 -17609 0
-17605 17611 0
-17610 17611 0
-17605 -17610 0
-17606 -17611 0
-17613 17620 0
-17614 17621 0
-17620 17621 0
-17614 -17620 0
-17615 17622 0
-17621 17622 0
-17615 -17621 0
-17616 17623 0
-17622 17623 0
-17616 -17622 0
-17617 17624 0
-17623 17624 0
-17617 -17623 0
-17618 17625 0
-17624 17625 0
-17618 -17624 0
-17619 -17625 0
17613 17627 0
-17628 0
-17629 0
-17630 0
-17631 0
-17632 0
17614 17633 0
-17627 17633 0
17614 -17627 17634 0
-17628 17634 0
17614 -17628 17635 0
-17629 17635 0
17614 -17629 17636 0
-17630 17636 0
17614 -17630 17637 0
-17631 17637 0
17614 -17631 17638 0
-17632 17638 0
17614 -17632 0
17615 17639 0
-17633 17639 0
17615 -17633 17640 0
-17634 17640 0
17615 -17634 17641 0
-17635 17641 0
17615 -17635 17642 0
-17636 17642 0
17615 -17636 17643 0
-17637 17643 0
17615 -17637 17644 0
-17638 17644 0
17615 -17638 0
17616 17645 0
-17639 17645 0
17616 -17639 17646 0
-17640 17646 0
17616 -17640 17647 0
-17641 17647 0
17616 -17641 17648 0
-17642 17648 0
17616 -17642 17649 0
-17643 17649 0
17616 -17643 17650 0
-17644 17650 0
17616 -17644 0
17617 17651 0
-17645 17651 0
17617 -17645 17652 0
-17646 17652 0
17617 -17646 17653 0
-17647 17653 0
17617 -17647 17654 0
-17648 17654 0
17617 -17648 17655 0
-17649 17655 0
17617 -17649 17656 0
-17650 17656 0
17617 -17650 0
17618 17657 0
-17651 17657 0
17618 -17651 17658 0
-17652 17658 0
17618 -17652 17659 0
-17653 17659 0
17618 -17653 17660 0
-17654 17660 0
17618 -17654 17661 0
-17655 17661 0
17618 -17655 17662 0
-17656 17662 0
17618 -17656 0
17619 -17662 0
-36 17669 0
-78 17670 0
-17669 17670 0
-78 -17669 0
-120 17671 0
-17670 17671 0
-120 -17670 0
-162 17672 0
-17671 17672 0
-162 -17671 0
-204 17673 0
-17672 17673 0
-204 -17672 0
-246 17674 0
-17673 17674 0
-246 -17673 0
-17613 -17674 0
36 78 120 162 204 246 17613 0
-37 17676 0
-79 17677 0
-17676 17677 0
-79 -17676 0
-121 17678 0
-17677 17678 0
-121 -17677 0
-163 17679 0
-17678 17679 0
-163 -17678 0
-205 17680 0
-17679 17680 0
-205 -17679 0
-247 17681 0
-17680 17681 0
-247 -17680 0
-17614 -17681 0
37 79 121 163 205 247 17614 0
-38 17683 0
-80 17684 0
-17683 17684 0
-80 -17683 0
-122 17685 0
-17684 17685 0
-122 -17684 0
-164 17686 0
-17685 17686 0
-164 -17685 0
-206 17687 0
-17686 17687 0
-206 -17686 0
-248 17688 0
-17687 17688 0
-248 -17687 0
-17615 -17688 0
38 80 122 164 206 248 17615 0
-39 17690 0
-81 17691 0
-17690 17691 0
-81 -17690 0
-123 17692 0
-17691 17692 0
-123 -17691 0
-165 17693 0
-17692 17693 0
-165 -17692 0
-207 17694 0
-17693 17694 0
-207 -17693 0
-249 17695 0
-17694 17695 0
-249 -17694 0
-17616 -17695 0
39 81 123 165 207 249 17616 0
-40 17697 0
-82 17698 0
-17697 17698 0
-82 -17697 0
-124 17699 0
-17698 17699 0
-124 -17698 0
-166 17700 0
-17699 17700 0
-166 -17699 0
-208 17701 0
-17700 17701 0
-208 -17700 0
-250 17702 0
-17701 17702 0
-250 -17701 0
-17617 -17702 0
40 82 124 166 208 250 17617 0
-41 17704 0
-83 17705 0
-17704 17705 0
-83 -17704 0
-125 17706 0
-17705 17706 0
-125 -17705 0
-167 17707 0
-17706 17707 0
-167 -17706 0
-209 17708 0
-17707 17708 0
-209 -17707 0
-251 17709 0
-17708 17709 0
-251 -17708 0
-17618 -17709 0
41 83 125 167 209 251 17618 0
-42 17711 0
-84 17712 0
-17711 17712 0
-84 -17711 0
-126 17713 0
-17712 17713 0
-126 -17712 0
-168 17714 0
-17713 17714 0
-168 -17713 0
-210 17715 0
-17714 17715 0
-210 -17714 0
-252 17716 0
-17715 17716 0
-252 -17715 0
-17619 -17716 0
42 84 126 168 210 252 17619 0
-17718 43 0
-43 17718 0
-17719 85 0
-85 17719 0
-17720 127 0
-127 17720 0
-17721 169 0
-169 17721 0
-17722 211 0
-211 17722 0
-17723 253 0
-253 17723 0
-17724 295 0
-295 17724 0
-17718 17725 0
-17719 17726 0
-17725 17726 0
-17719 -17725 0
-17720 17727 0
-17726 17727 0
-17720 -17726 0
-17721 17728 0
-17727 17728 0
-17721 -17727 0
-17722 17729 0
-17728 17729 0
-17722 -17728 0
-17723 17730 0
-17729 17730 0
-17723 -17729 0
-17724 -17730 0
-17732 43 44 0
-43 17732 0
-44 17732 0
-17733 85 86 0
-85 17733 0
-86 17733 0
-17734 127 128 0
-127 17734 0
-128 17734 0
-17735 169 170 0
-169 17735 0
-170 17735 0
-17736 211 212 0
-211 17736 0
-212 17736 0
-17737 253 254 0
-253 17737 0
-254 17737 0
-17738 295 296 0
-295 17738 0
-296 17738 0
-17732 17739 0
-17740 0
-17733 17741 0
-17739 17741 0
-17733 -17739 17742 0
-17740 17742 0
-17733 -17740 0
-17734 17743 0
-17741 17743 0
-17734 -17741 17744 0
-17742 17744 0
-17734 -17742 0
-17735 17745 0
-17743 17745 0
-17735 -17743 17746 0
-17744 17746 0
-17735 -17744 0
-17736 17747 0
-17745 17747 0
-17736 -17745 17748 0
-17746 17748 0
-17736 -17746 0
-17737 17749 0
-17747 17749 0
-17737 -17747 17750 0
-17748 17750 0
-17737 -17748 0
-17738 -17750 0
-17753 43 44 45 0
-43 17753 0
-44 17753 0
-45 17753 0
-17754 85 86 87 0
-85 17754 0
-86 17754 0
-87 17754 0
-17755 127 128 129 0
-127 17755 0
-128 17755 0
-129 17755 0
-17756 169 170 171 0
-169 17756 0
-170 17756 0
-171 17756 0
-17757 211 212 213 0
-211 17757 0
-212 17757 0
-213 17757 0
-17758 253 254 255 0
-253 17758 0
-254 17758 0
-255 17758 0
-17759 295 296 297 0
-295 17759 0
-296 17759 0
-297 17759 0
-17753 17760 0
-17761 0
-17762 0
-17754 17763 0
-17760 17763 0
-17754 -17760 17764 0
-17761 17764 0
-17754 -17761 17765 0
-17762 17765 0
-17754 -17762 0
-17755 17766 0
-17763 17766 0
-17755 -17763 17767 0
-17764 17767 0
-17755 -17764 17768 0
-17765 17768 0
-17755 -17765 0
-17756 17769 0
-17766 17769 0
-17756 -17766 17770 0
-17767 17770 0
-17756 -17767 17771 0
-17768 17771 0
-17756 -17768 0
-17757 17772 0
-17769 17772 0
-17757 -17769 17773 0
-17770 17773 0
-17757 -17770 17774 0
-17771 17774 0
-17757 -17771 0
-17758 17775 0
-17772 17775 0
-17758 -17772 17776 0
-17773 17776 0
-17758 -17773 17777 0
-17774 17777 0
-17758 -17774 0
-17759 -17777 0
-17781 43 44 45 46 0
-43 17781 0
-44 17781 0
-45 17781 0
-46 17781 0
-17782 85 86 87 88 0
-85 17782 0
-86 17782 0
-87 17782 0
-88 17782 0
-17783 127 128 129 130 0
-127 17783 0
-128 17783 0
-129 17783 0
-130 17783 0
-17784 169 170 171 172 0
-169 17784 0
-170 17784 0
-171 17784 0
-172 17784 0
-17785 211 212 213 214 0
-211 17785 0
-212 17785 0
-213 17785 0
-214 17785 0
-17786 253 254 255 256 0
-253 17786 0
-254 17786 0
-255 17786 0
-256 17786 0
-17787 295 296 297 298 0
-295 17787 0
-296 17787 0
-297 17787 0
-298 17787 0
-17781 17788 0
-17789 0
-17790 0
-17791 0
-17782 17792 0
-17788 17792 0
-17782 -17788 17793 0
-17789 17793 0
-17782 -17789 17794 0
-17790 17794 0
-17782 -17790 17795 0
-17791 17795 0
-17782 -17791 0
-17783 17796 0
-17792 17796 0
-17783 -17792 17797 0
-17793 17797 0
-17783 -17793 17798 0
-17794 17798 0
-17783 -17794 17799 0
-17795 17799 0
-17783 -17795 0
-17784 17800 0
-17796 17800 0
-17784 -17796 17801 0
-17797 17801 0
-17784 -17797 17802 0
-17798 17802 0
-17784 -17798 17803 0
-17799 17803 0
-17784 -17799 0
-17785 17804 0
-17800 17804 0
-17785 -17800 17805 0
-17801 17805 0
-17785 -17801 17806 0
-17802 17806 0
-17785 -17802 17807 0
-17803 17807 0
-17785 -17803 0
-17786 17808 0
-17804 17808 0
-17786 -17804 17809 0
-17805 17809 0
-17786 -17805 17810 0
-17806 17810 0
-17786 -17806 17811 0
-17807 17811 0
-17786 -17807 0
-17787 -17811 0
-17816 43 44 45 46 47 0
-43 17816 0
-44 17816 0
-45 17816 0
-46 17816 0
-47 17816 0
-17817 85 86 87 88 89 0
-85 17817 0
-86 17817 0
-87 17817 0
-88 17817 0
-89 17817 0
-17818 127 128 129 130 131 0
-127 17818 0
-128 17818 0
-129 17818 0
-130 17818 0
-131 17818 0
-17819 169 170 171 172 173 0
-169 17819 0
-170 17819 0
-171 17819 0
-172 17819 0
-173 17819 0
-17820 211 212 213 214 215 0
-211 17820 0
-212 17820 0
-213 17820 0
-214 17820 0
-215 17820 0
-17821 253 254 255 256 257 0
-253 17821 0
-254 17821 0
-255 17821 0
-256 17821 0
-257 17821 0
-17822 295 296 297 298 299 0
-295 17822 0
-296 17822 0
-297 17822 0
-298 17822 0
-299 17822 0
-17816 17823 0
-17824 0
-17825 0
-17826 0
-17827 0
-17817 17828 0
-17823 17828 0
-17817 -17823 17829 0
-17824 17829 0
-17817 -17824 17830 0
-17825 17830 0
-17817 -17825 17831 0
-17826 17831 0
-17817 -17826 17832 0
-17827 17832 0
-17817 -17827 0
-17818 17833 0
-17828 17833 0
-17818 -17828 17834 0
-17829 17834 0
-17818 -17829 17835 0
-17830 17835 0
-17818 -17830 17836 0
-17831 17836 0
-17818 -17831 17837 0
-17832 17837 0
-17818 -17832 0
-17819 17838 0
-17833 17838 0
-17819 -17833 17839 0
-17834 17839 0
-17819 -17834 17840 0
-17835 17840 0
-17819 -17835 17841 0
-17836 17841 0
-17819 -17836 17842 0
-17837 17842 0
-17819 -17837 0
-17820 17843 0
-17838 17843 0
-17820 -17838 17844 0
-17839 17844 0
-17820 -17839 17845 0
-17840 17845 0
-17820 -17840 17846 0
-17841 17846 0
-17820 -17841 17847 0
-17842 17847 0
-17820 -17842 0
-17821 17848 0
-17843 17848 0
-17821 -17843 17849 0
-17844 17849 0
-17821 -17844 17850 0
-17845 17850 0
-17821 -17845 17851 0
-17846 17851 0
-17821 -17846 17852 0
-17847 17852 0
-17821 -17847 0
-17822 -17852 0
-17858 43 44 45 46 47 48 0
-43 17858 0
-44 17858 0
-45 17858 0
-46 17858 0
-47 17858 0
-48 17858 0
-17859 85 86 87 88 89 90 0
-85 17859 0
-86 17859 0
-87 17859 0
-88 17859 0
-89 17859 0
-90 17859 0
-17860 127 128 129 130 131 132 0
-127 17860 0
-128 17860 0
-129 17860 0
-130 17860 0
-131 17860 0
-132 17860 0
-17861 169 170 171 172 173 174 0
-169 17861 0
-170 17861 0
-171 17861 0
-172 17861 0
-173 17861 0
-174 17861 0
-17862 211 212 213 214 215 216 0
-211 17862 0
-212 17862 0
-213 17862 0
-214 17862 0
-215 17862 0
-216 17862 0
-17863 253 254 255 256 257 258 0
-253 17863 0
-254 17863 0
-255 17863 0
-256 17863 0
-257 17863 0
-258 17863 0
-17864 295 296 297 298 299 300 0
-295 17864 0
-296 17864 0
-297 17864 0
-298 17864 0
-299 17864 0
-300 17864 0
-17858 17865 0
-17866 0
-17867 0
-17868 0
-17869 0
-17870 0
-17859 17871 0
-17865 17871 0
-17859 -17865 17872 0
-17866 17872 0
-17859 -17866 17873 0
-17867 17873 0
-17859 -17867 17874 0
-17868 17874 0
-17859 -17868 17875 0
-17869 17875 0
-17859 -17869 17876 0
-17870 17876 0
-17859 -17870 0
-17860 17877 0
-17871 17877 0
-17860 -17871 17878 0
-17872 17878 0
-17860 -17872 17879 0
-17873 17879 0
-17860 -17873 17880 0
-17874 17880 0
-17860 -17874 17881 0
-17875 17881 0
-17860 -17875 17882 0
-17876 17882 0
-17860 -17876 0
-17861 17883 0
-17877 17883 0
-17861 -17877 17884 0
-17878 17884 0
-17861 -17878 17885 0
-17879 17885 0
-17861 -17879 17886 0
-17880 17886 0
-17861 -17880 17887 0
-17881 17887 0
-17861 -17881 17888 0
-17882 17888 0
-17861 -17882 0
-17862 17889 0
-17883 17889 0
-17862 -17883 17890 0
-17884 17890 0
-17862 -17884 17891 0
-17885 17891 0
-17862 -17885 17892 0
-17886 17892 0
-17862 -17886 17893 0
-17887 17893 0
-17862 -17887 17894 0
-17888 17894 0
-17862 -17888 0
-17863 17895 0
-17889 17895 0
-17863 -17889 17896 0
-17890 17896 0
-17863 -17890 17897 0
-17891 17897 0
-17863 -17891 17898 0
-17892 17898 0
-17863 -17892 17899 0
-17893 17899 0
-17863 -17893 17900 0
-17894 17900 0
-17863 -17894 0
-17864 -17900 0
-17907 43 44 45 46 47 48 49 0
-43 17907 0
-44 17907 0
-45 17907 0
-46 17907 0
-47 17907 0
-48 17907 0
-49 17907 0
-17908 85 86 87 88 89 90 91 0
-85 17908 0
-86 17908 0
-87 17908 0
-88 17908 0
-89 17908 0
-90 17908 0
-91 17908 0
-17909 127 128 129 130 131 132 133 0
-127 17909 0
-128 17909 0
-129 17909 0
-130 17909 0
-131 17909 0
-132 17909 0
-133 17909 0
-17910 169 170 171 172 173 174 175 0
-169 17910 0
-170 17910 0
-171 17910 0
-172 17910 0
-173 17910 0
-174 17910 0
-175 17910 0
-17911 211 212 213 214 215 216 217 0
-211 17911 0
-212 17911 0
-213 17911 0
-214 17911 0
-215 17911 0
-216 17911 0
-217 17911 0
-17912 253 254 255 256 257 258 259 0
-253 17912 0
-254 17912 0
-255 17912 0
-256 17912 0
-257 17912 0
-258 17912 0
-259 17912 0
-17913 295 296 297 298 299 300 301 0
-295 17913 0
-296 17913 0
-297 17913 0
-298 17913 0
-299 17913 0
-300 17913 0
-301 17913 0
-17914 44 0
-44 17914 0
-17915 86 0
-86 17915 0
-17916 128 0
-128 17916 0
-17917 170 0
-170 17917 0
-17918 212 0
-212 17918 0
-17919 254 0
-254 17919 0
-17920 296 0
-296 17920 0
-17914 17921 0
-17915 17922 0
-17921 17922 0
-17915 -17921 0
-17916 17923 0
-17922 17923 0
-17916 -17922 0
-17917 17924 0
-17923 17924 0
-17917 -17923 0
-17918 17925 0
-17924 17925 0
-17918 -17924 0
-17919 17926 0
-17925 17926 0
-17919 -17925 0
-17920 -17926 0
-17928 44 45 0
-44 17928 0
-45 17928 0
-17929 86 87 0
-86 17929 0
-87 17929 0
-17930 128 129 0
-128 17930 0
-129 17930 0
-17931 170 171 0
-170 17931 0
-171 17931 0
-17932 212 213 0
-212 17932 0
-213 17932 0
-17933 254 255 0
-254 17933 0
-255 17933 0
-17934 296 297 0
-296 17934 0
-297 17934 0
-17928 17935 0
-17936 0
-17929 17937 0
-17935 17937 0
-17929 -17935 17938 0
-17936 17938 0
-17929 -17936 0
-17930 17939 0
-17937 17939 0
-17930 -17937 17940 0
-17938 17940 0
-17930 -17938 0
-17931 17941 0
-17939 17941 0
-17931 -17939 17942 0
-17940 17942 0
-17931 -17940 0
-17932 17943 0
-17941 17943 0
-17932 -17941 17944 0
-17942 17944 0
-17932 -17942 0
-17933 17945 0
-17943 17945 0
-17933 -17943 17946 0
-17944 17946 0
-17933 -17944 0
-17934 -17946 0
-17949 44 45 46 0
-44 17949 0
-45 17949 0
-46 17949 0
-17950 86 87 88 0
-86 17950 0
-87 17950 0
-88 17950 0
-17951 128 129 130 0
-128 17951 0
-129 17951 0
-130 17951 0
-17952 170 171 172 0
-170 17952 0
-171 17952 0
-172 17952 0
-17953 212 213 214 0
-212 17953 0
-213 17953 0
-214 17953 0
-17954 254 255 256 0
-254 17954 0
-255 17954 0
-256 17954 0
-17955 296 297 298 0
-296 17955 0
-297 17955 0
-298 17955 0
-17949 17956 0
-17957 0
-17958 0
-17950 17959 0
-17956 17959 0
-17950 -17956 17960 0
-17957 17960 0
-17950 -17957 17961 0
-17958 17961 0
-17950 -17958 0
-17951 17962 0
-17959 17962 0
-17951 -17959 17963 0
-17960 17963 0
-17951 -17960 17964 0
-17961 17964 0
-17951 -17961 0
-17952 17965 0
-17962 17965 0
-17952 -17962 17966 0
-17963 17966 0
-17952 -17963 17967 0
-17964 17967 0
-17952 -17964 0
-17953 17968 0
-17965 17968 0
-17953 -17965 17969 0
-17966 17969 0
-17953 -17966 17970 0
-17967 17970 0
-17953 -17967 0
-17954 17971 0
-17968 17971 0
-17954 -17968 17972 0
-17969 17972 0
-17954 -17969 17973 0
-17970 17973 0
-17954 -17970 0
-17955 -17973 0
-17977 44 45 46 47 0
-44 17977 0
-45 17977 0
-46 17977 0
-47 17977 0
-17978 86 87 88 89 0
-86 17978 0
-87 17978 0
-88 17978 0
-89 17978 0
-17979 128 129 130 131 0
-128 17979 0
-129 17979 0
-130 17979 0
-131 17979 0
-17980 170 171 172 173 0
-170 17980 0
-171 17980 0
-172 17980 0
-173 17980 0
-17981 212 213 214 215 0
-212 17981 0
-213 17981 0
-214 17981 0
-215 17981 0
-17982 254 255 256 257 0
-254 17982 0
-255 17982 0
-256 17982 0
-257 17982 0
-17983 296 297 298 299 0
-296 17983 0
-297 17983 0
-298 17983 0
-299 17983 0
-17977 17984 0
-17985 0
-17986 0
-17987 0
-17978 17988 0
-17984 17988 0
-17978 -17984 17989 0
-17985 17989 0
-17978 -17985 17990 0
-17986 17990 0
-17978 -17986 17991 0
-17987 17991 0
-17978 -17987 0
-17979 17992 0
-17988 17992 0
-17979 -17988 17993 0
-17989 17993 0
-17979 -17989 17994 0
-17990 17994 0
-17979 -17990 17995 0
-17991 17995 0
-17979 -17991 0
-17980 17996 0
-17992 17996 0
-17980 -17992 17997 0
-17993 17997 0
-17980 -17993 17998 0
-17994 17998 0
-17980 -17994 17999 0
-17995 17999 0
-17980 -17995 0
-17981 18000 0
-17996 18000 0
-17981 -17996 18001 0
-17997 18001 0
-17981 -17997 18002 0
-17998 18002 0
-17981 -17998 18003 0
-17999 18003 0
-17981 -17999 0
-17982 18004 0
-18000 18004 0
-17982 -18000 18005 0
-18001 18005 0
-17982 -18001 18006 0
-18002 18006 0
-17982 -18002 18007 0
-18003 18007 0
-17982 -18003 0
-17983 -18007 0
-18012 44 45 46 47 48 0
-44 18012 0
-45 18012 0
-46 18012 0
-47 18012 0
-48 18012 0
-18013 86 87 88 89 90 0
-86 18013 0
-87 18013 0
-88 18013 0
-89 18013 0
-90 18013 0
-18014 128 129 130 131 132 0
-128 18014 0
-129 18014 0
-130 18014 0
-131 18014 0
-132 18014 0
-18015 170 171 172 173 174 0
-170 18015 0
-171 18015 0
-172 18015 0
-173 18015 0
-174 18015 0
-18016 212 213 214 215 216 0
-212 18016 0
-213 18016 0
-214 18016 0
-215 18016 0
-216 18016 0
-18017 254 255 256 257 258 0
-254 18017 0
-255 18017 0
-256 18017 0
-257 18017 0
-258 18017 0
-18018 296 297 298 299 300 0
-296 18018 0
-297 18018 0
-298 18018 0
-299 18018 0
-300 18018 0
-18012 18019 0
-18020 0
-18021 0
-18022 0
-18023 0
-18013 18024 0
-18019 18024 0
-18013 -18019 18025 0
-18020 18025 0
-18013 -18020 18026 0
-18021 18026 0
-18013 -18021 18027 0
-18022 18027 0
-18013 -18022 18028 0
-18023 18028 0
-18013 -18023 0
-18014 18029 0
-18024 18029 0
-18014 -18024 18030 0
-18025 18030 0
-18014 -18025 18031 0
-18026 18031 0
-18014 -18026 18032 0
-18027 18032 0
-18014 -18027 18033 0
-18028 18033 0
-18014 -18028 0
-18015 18034 0
-18029 18034 0
-18015 -18029 18035 0
-18030 18035 0
-18015 -18030 18036 0
-18031 18036 0
-18015 -18031 18037 0
-18032 18037 0
-18015 -18032 18038 0
-18033 18038 0
-18015 -18033 0
-18016 18039 0
-18034 18039 0
-18016 -18034 18040 0
-18035 18040 0
-18016 -18035 18041 0
-18036 18041 0
-18016 -18036 18042 0
-18037 18042 0
-18016 -18037 18043 0
-18038 18043 0
-18016 -18038 0
-18017 18044 0
-18039 18044 0
-18017 -18039 18045 0
-18040 18045 0
-18017 -18040 18046 0
-18041 18046 0
-18017 -18041 18047 0
-18042 18047 0
-18017 -18042 18048 0
-18043 18048 0
-18017 -18043 0
-18018 -18048 0
-18054 44 45 46 47 48 49 0
-44 18054 0
-45 18054 0
-46 18054 0
-47 18054 0
-48 18054 0
-49 18054 0
-18055 86 87 88 89 90 91 0
-86 18055 0
-87 18055 0
-88 18055 0
-89 18055 0
-90 18055 0
-91 18055 0
-18056 128 129 130 131 132 133 0
-128 18056 0
-129 18056 0
-130 18056 0
-131 18056 0
-132 18056 0
-133 18056 0
-18057 170 171 172 173 174 175 0
-170 18057 0
-171 18057 0
-172 18057 0
-173 18057 0
-174 18057 0
-175 18057 0
-18058 212 213 214 215 216 217 0
-212 18058 0
-213 18058 0
-214 18058 0
-215 18058 0
-216 18058 0
-217 18058 0
-18059 254 255 256 257 258 259 0
-254 18059 0
-255 18059 0
-256 18059 0
-257 18059 0
-258 18059 0
-259 18059 0
-18060 296 297 298 299 300 301 0
-296 18060 0
-297 18060 0
-298 18060 0
-299 18060 0
-300 18060 0
-301 18060 0
-18054 18061 0
-18062 0
-18063 0
-18064 0
-18065 0
-18066 0
-18055 18067 0
-18061 18067 0
-18055 -18061 18068 0
-18062 18068 0
-18055 -18062 18069 0
-18063 18069 0
-18055 -18063 18070 0
-18064 18070 0
-18055 -18064 18071 0
-18065 18071 0
-18055 -18065 18072 0
-18066 18072 0
-18055 -18066 0
-18056 18073 0
-18067 18073 0
-18056 -18067 18074 0
-18068 18074 0
-18056 -18068 18075 0
-18069 18075 0
-18056 -18069 18076 0
-18070 18076 0
-18056 -18070 18077 0
-18071 18077 0
-18056 -18071 18078 0
-18072 18078 0
-18056 -18072 0
-18057 18079 0
-18073 18079 0
-18057 -18073 18080 0
-18074 18080 0
-18057 -18074 18081 0
-18075 18081 0
-18057 -18075 18082 0
-18076 18082 0
-18057 -18076 18083 0
-18077 18083 0
-18057 -18077 18084 0
-18078 18084 0
-18057 -18078 0
-18058 18085 0
-18079 18085 0
-18058 -18079 18086 0
-18080 18086 0
-18058 -18080 18087 0
-18081 18087 0
-18058 -18081 18088 0
-18082 18088 0
-18058 -18082 18089 0
-18083 18089 0
-18058 -18083 18090 0
-18084 18090 0
-18058 -18084 0
-18059 18091 0
-18085 18091 0
-18059 -18085 18092 0
-18086 18092 0
-18059 -18086 18093 0
-18087 18093 0
-18059 -18087 18094 0
-18088 18094 0
-18059 -18088 18095 0
-18089 18095 0
-18059 -18089 18096 0
-18090 18096 0
-18059 -18090 0
-18060 -18096 0
-18103 45 0
-45 18103 0
-18104 87 0
-87 18104 0
-18105 129 0
-129 18105 0
-18106 171 0
-171 18106 0
-18107 213 0
-213 18107 0
-18108 255 0
-255 18108 0
-18109 297 0
-297 18109 0
-18103 18110 0
-18104 18111 0
-18110 18111 0
-18104 -18110 0
-18105 18112 0
-18111 18112 0
-18105 -18111 0
-18106 18113 0
-18112 18113 0
-18106 -18112 0
-18107 18114 0
-18113 18114 0
-18107 -18113 0
-18108 18115 0
-18114 18115 0
-18108 -18114 0
-18109 -18115 0
-18117 45 46 0
-45 18117 0
-46 18117 0
-18118 87 88 0
-87 18118 0
-88 18118 0
-18119 129 130 0
-129 18119 0
-130 18119 0
-18120 171 172 0
-171 18120 0
-172 18120 0
-18121 213 214 0
-213 18121 0
-214 18121 0
-18122 255 256 0
-255 18122 0
-256 18122 0
-18123 297 298 0
-297 18123 0
-298 18123 0
-18117 18124 0
-18125 0
-18118 18126 0
-18124 18126 0
-18118 -18124 18127 0
-18125 18127 0
-18118 -18125 0
-18119 18128 0
-18126 18128 0
-18119 -18126 18129 0
-18127 18129 0
-18119 -18127 0
-18120 18130 0
-18128 18130 0
-18120 -18128 18131 0
-18129 18131 0
-18120 -18129 0
-18121 18132 0
-18130 18132 0
-18121 -18130 18133 0
-18131 18133 0
-18121 -18131 0
-18122 18134 0
-18132 18134 0
-18122 -18132 18135 0
-18133 18135 0
-18122 -18133 0
-18123 -18135 0
-18138 45 46 47 0
-45 18138 0
-46 18138 0
-47 18138 0
-18139 87 88 89 0
-87 18139 0
-88 18139 0
-89 18139 0
-18140 129 130 131 0
-129 18140 0
-130 18140 0
-131 18140 0
-18141 171 172 173 0
-171 18141 0
-172 18141 0
-173 18141 0
-18142 213 214 215 0
-213 18142 0
-214 18142 0
-215 18142 0
-18143 255 256 257 0
-255 18143 0
-256 18143 0
-257 18143 0
-18144 297 298 299 0
-297 18144 0
-298 18144 0
-299 18144 0
-18138 18145 0
-18146 0
-18147 0
-18139 18148 0
-18145 18148 0
-18139 -18145 18149 0
-18146 18149 0
-18139 -18146 18150 0
-18147 18150 0
-18139 -18147 0
-18140 18151 0
-18148 18151 0
-18140 -18148 18152 0
-18149 18152 0
-18140 -18149 18153 0
-18150 18153 0
-18140 -18150 0
-18141 18154 0
-18151 18154 0
-18141 -18151 18155 0
-18152 18155 0
-18141 -18152 18156 0
-18153 18156 0
-18141 -18153 0
-18142 18157 0
-18154 18157 0
-18142 -18154 18158 0
-18155 18158 0
-18142 -18155 18159 0
-18156 18159 0
-18142 -18156 0
-18143 18160 0
-18157 18160 0
-18143 -18157 18161 0
-18158 18161 0
-18143 -18158 18162 0
-18159 18162 0
-18143 -18159 0
-18144 -18162 0
-18166 45 46 47 48 0
-45 18166 0
-46 18166 0
-47 18166 0
-48 18166 0
-18167 87 88 89 90 0
-87 18167 0
-88 18167 0
-89 18167 0
-90 18167 0
-18168 129 130 131 132 0
-129 18168 0
-130 18168 0
-131 18168 0
-132 18168 0
-18169 171 172 173 174 0
-171 18169 0
-172 18169 0
-173 18169 0
-174 18169 0
-18170 213 214 215 216 0
-213 18170 0
-214 18170 0
-215 18170 0
-216 18170 0
-18171 255 256 257 258 0
-255 18171 0
-256 18171 0
-257 18171 0
-258 18171 0
-18172 297 298 299 300 0
-297 18172 0
-298 18172 0
-299 18172 0
-300 18172 0
-18166 18173 0
-18174 0
-18175 0
-18176 0
-18167 18177 0
-18173 18177 0
-18167 -18173 18178 0
-18174 18178 0
-18167 -18174 18179 0
-18175 18179 0
-18167 -18175 18180 0
-18176 18180 0
-18167 -18176 0
-18168 18181 0
-18177 18181 0
-18168 -18177 18182 0
-18178 18182 0
-18168 -18178 18183 0
-18179 18183 0
-18168 -18179 18184 0
-18180 18184 0
-18168 -18180 0
-18169 18185 0
-18181 18185 0
-18169 -18181 18186 0
-18182 18186 0
-18169 -18182 18187 0
-18183 18187 0
-18169 -18183 18188 0
-18184 18188 0
-18169 -18184 0
-18170 18189 0
-18185 18189 0
-18170 -18185 18190 0
-18186 18190 0
-18170 -18186 18191 0
-18187 18191 0
-18170 -18187 18192 0
-18188 18192 0
-18170 -18188 0
-18171 18193 0
-18189 18193 0
-18171 -18189 18194 0
-18190 18194 0
-18171 -18190 18195 0
-18191 18195 0
-18171 -18191 18196 0
-18192 18196 0
-18171 -18192 0
-18172 -18196 0
-18201 45 46 47 48 49 0
-45 18201 0
-46 18201 0
-47 18201 0
-48 18201 0
-49 18201 0
-18202 87 88 89 90 91 0
-87 18202 0
-88 18202 0
-89 18202 0
-90 18202 0
-91 18202 0
-18203 129 130 131 132 133 0
-129 18203 0
-130 18203 0
-131 18203 0
-132 18203 0
-133 18203 0
-18204 171 172 173 174 175 0
-171 18204 0
-172 18204 0
-173 18204 0
-174 18204 0
-175 18204 0
-18205 213 214 215 216 217 0
-213 18205 0
-214 18205 0
-215 18205 0
-216 18205 0
-217 18205 0
-18206 255 256 257 258 259 0
-255 18206 0
-256 18206 0
-257 18206 0
-258 18206 0
-259 18206 0
-18207 297 298 299 300 301 0
-297 18207 0
-298 18207 0
-299 18207 0
-300 18207 0
-301 18207 0
-18201 18208 0
-18209 0
-18210 0
-18211 0
-18212 0
-18202 18213 0
-18208 18213 0
-18202 -18208 18214 0
-18209 18214 0
-18202 -18209 18215 0
-18210 18215 0
-18202 -18210 18216 0
-18211 18216 0
-18202 -18211 18217 0
-18212 18217 0
-18202 -18212 0
-18203 18218 0
-18213 18218 0
-18203 -18213 18219 0
-18214 18219 0
-18203 -18214 18220 0
-18215 18220 0
-18203 -18215 18221 0
-18216 18221 0
-18203 -18216 18222 0
-18217 18222 0
-18203 -18217 0
-18204 18223 0
-18218 18223 0
-18204 -18218 18224 0
-18219 18224 0
-18204 -18219 18225 0
-18220 18225 0
-18204 -18220 18226 0
-18221 18226 0
-18204 -18221 18227 0
-18222 18227 0
-18204 -18222 0
-18205 18228 0
-18223 18228 0
-18205 -18223 18229 0
-18224 18229 0
-18205 -18224 18230 0
-18225 18230 0
-18205 -18225 18231 0
-18226 18231 0
-18205 -18226 18232 0
-18227 18232 0
-18205 -18227 0
-18206 18233 0
-18228 18233 0
-18206 -18228 18234 0
-18229 18234 0
-18206 -18229 18235 0
-18230 18235 0
-18206 -18230 18236 0
-18231 18236 0
-18206 -18231 18237 0
-18232 18237 0
-18206 -18232 0
-18207 -18237 0
-18243 46 0
-46 18243 0
-18244 88 0
-88 18244 0
-18245 130 0
-130 18245 0
-18246 172 0
-172 18246 0
-18247 214 0
-214 18247 0
-18248 256 0
-256 18248 0
-18249 298 0
-298 18249 0
-18243 18250 0
-18244 18251 0
-18250 18251 0
-18244 -18250 0
-18245 18252 0
-18251 18252 0
-18245 -18251 0
-18246 18253 0
-18252 18253 0
-18246 -18252 0
-18247 18254 0
-18253 18254 0
-18247 -18253 0
-18248 18255 0
-18254 18255 0
-18248 -18254 0
-18249 -18255 0
-18257 46 47 0
-46 18257 0
-47 18257 0
-18258 88 89 0
-88 18258 0
-89 18258 0
-18259 130 131 0
-130 18259 0
-131 18259 0
-18260 172 173 0
-172 18260 0
-173 18260 0
-18261 214 215 0
-214 18261 0
-215 18261 0
-18262 256 257 0
-256 18262 0
-257 18262 0
-18263 298 299 0
-298 18263 0
-299 18263 0
-18257 18264 0
-18265 0
-18258 18266 0
-18264 18266 0
-18258 -18264 18267 0
-18265 18267 0
-18258 -18265 0
-18259 18268 0
-18266 18268 0
-18259 -18266 18269 0
-18267 18269 0
-18259 -18267 0
-18260 18270 0
-18268 18270 0
-18260 -18268 18271 0
-18269 18271 0
-18260 -18269 0
-18261 18272 0
-18270 18272 0
-18261 -18270 18273 0
-18271 18273 0
-18261 -18271 0
-18262 18274 0
-18272 18274 0
-18262 -18272 18275 0
-18273 18275 0
-18262 -18273 0
-18263 -18275 0
-18278 46 47 48 0
-46 18278 0
-47 18278 0
-48 18278 0
-18279 88 89 90 0
-88 18279 0
-89 18279 0
-90 18279 0
-18280 130 131 132 0
-130 18280 0
-131 18280 0
-132 18280 0
-18281 172 173 174 0
-172 18281 0
-173 18281 0
-174 18281 0
-18282 214 215 216 0
-214 18282 0
-215 18282 0
-216 18282 0
-18283 256 257 258 0
-256 18283 0
-257 18283 0
-258 18283 0
-18284 298 299 300 0
-298 18284 0
-299 18284 0
-300 18284 0
-18278 18285 0
-18286 0
-18287 0
-18279 18288 0
-18285 18288 0
-18279 -18285 18289 0
-18286 18289 0
-18279 -18286 18290 0
-18287 18290 0
-18279 -18287 0
-18280 18291 0
-18288 18291 0
-18280 -18288 18292 0
-18289 18292 0
-18280 -18289 18293 0
-18290 18293 0
-18280 -18290 0
-18281 18294 0
-18291 18294 0
-18281 -18291 18295 0
-18292 18295 0
-18281 -18292 18296 0
-18293 18296 0
-18281 -18293 0
-18282 18297 0
-18294 18297 0
-18282 -18294 18298 0
-18295 18298 0
-18282 -18295 18299 0
-18296 18299 0
-18282 -18296 0
-18283 18300 0
-18297 18300 0
-18283 -18297 18301 0
-18298 18301 0
-18283 -18298 18302 0
-18299 18302 0
-18283 -18299 0
-18284 -18302 0
-18306 46 47 48 49 0
-46 18306 0
-47 18306 0
-48 18306 0
-49 18306 0
-18307 88 89 90 91 0
-88 18307 0
-89 18307 0
-90 18307 0
-91 18307 0
-18308 130 131 132 133 0
-130 18308 0
-131 18308 0
-132 18308 0
-133 18308 0
-18309 172 173 174 175 0
-172 18309 0
-173 18309 0
-174 18309 0
-175 18309 0
-18310 214 215 216 217 0
-214 18310 0
-215 18310 0
-216 18310 0
-217 18310 0
-18311 256 257 258 259 0
-256 18311 0
-257 18311 0
-258 18311 0
-259 18311 0
-18312 298 299 300 301 0
-298 18312 0
-299 18312 0
-300 18312 0
-301 18312 0
-18306 18313 0
-18314 0
-18315 0
-18316 0
-18307 18317 0
-18313 18317 0
-18307 -18313 18318 0
-18314 18318 0
-18307 -18314 18319 0
-18315 18319 0
-18307 -18315 18320 0
-18316 18320 0
-18307 -18316 0
-18308 18321 0
-18317 18321 0
-18308 -18317 18322 0
-18318 18322 0
-18308 -18318 18323 0
-18319 18323 0
-18308 -18319 18324 0
-18320 18324 0
-18308 -18320 0
-18309 18325 0
-18321 18325 0
-18309 -18321 18326 0
-18322 18326 0
-18309 -18322 18327 0
-18323 18327 0
-18309 -18323 18328 0
-18324 18328 0
-18309 -18324 0
-18310 18329 0
-18325 18329 0
-18310 -18325 18330 0
-18326 18330 0
-18310 -18326 18331 0
-18327 18331 0
-18310 -18327 18332 0
-18328 18332 0
-18310 -18328 0
-18311 18333 0
-18329 18333 0
-18311 -18329 18334 0
-18330 18334 0
-18311 -18330 18335 0
-18331 18335 0
-18311 -18331 18336 0
-18332 18336 0
-18311 -18332 0
-18312 -18336 0
-18341 47 0
-47 18341 0
-18342 89 0
-89 18342 0
-18343 131 0
-131 18343 0
-18344 173 0
-173 18344 0
-18345 215 0
-215 18345 0
-18346 257 0
-257 18346 0
-18347 299 0
-299 18347 0
-18341 18348 0
-18342 18349 0
-18348 18349 0
-18342 -18348 0
-18343 18350 0
-18349 18350 0
-18343 -18349 0
-18344 18351 0
-18350 18351 0
-18344 -18350 0
-18345 18352 0
-18351 18352 0
-18345 -18351 0
-18346 18353 0
-18352 18353 0
-18346 -18352 0
-18347 -18353 0
-18355 47 48 0
-47 18355 0
-48 18355 0
-18356 89 90 0
-89 18356 0
-90 18356 0
-18357 131 132 0
-131 18357 0
-132 18357 0
-18358 173 174 0
-173 18358 0
-174 18358 0
-18359 215 216 0
-215 18359 0
-216 18359 0
-18360 257 258 0
-257 18360 0
-258 18360 0
-18361 299 300 0
-299 18361 0
-300 18361 0
-18355 18362 0
-18363 0
-18356 18364 0
-18362 18364 0
-18356 -18362 18365 0
-18363 18365 0
-18356 -18363 0
-18357 18366 0
-18364 18366 0
-18357 -18364 18367 0
-18365 18367 0
-18357 -18365 0
-18358 18368 0
-18366 18368 0
-18358 -18366 18369 0
-18367 18369 0
-18358 -18367 0
-18359 18370 0
-18368 18370 0
-18359 -18368 18371 0
-18369 18371 0
-18359 -18369 0
-18360 18372 0
-18370 18372 0
-18360 -18370 18373 0
-18371 18373 0
-18360 -18371 0
-18361 -18373 0
-18376 47 48 49 0
-47 18376 0
-48 18376 0
-49 18376 0
-18377 89 90 91 0
-89 18377 0
-90 18377 0
-91 18377 0
-18378 131 132 133 0
-131 18378 0
-132 18378 0
-133 18378 0
-18379 173 174 175 0
-173 18379 0
-174 18379 0
-175 18379 0
-18380 215 216 217 0
-215 18380 0
-216 18380 0
-217 18380 0
-18381 257 258 259 0
-257 18381 0
-258 18381 0
-259 18381 0
-18382 299 300 301 0
-299 18382 0
-300 18382 0
-301 18382 0
-18376 18383 0
-18384 0
-18385 0
-18377 18386 0
-18383 18386 0
-18377 -18383 18387 0
-18384 18387 0
-18377 -18384 18388 0
-18385 18388 0
-18377 -18385 0
-18378 18389 0
-18386 18389 0
-18378 -18386 18390 0
-18387 18390 0
-18378 -18387 18391 0
-18388 18391 0
-18378 -18388 0
-18379 18392 0
-18389 18392 0
-18379 -18389 18393 0
-18390 18393 0
-18379 -18390 18394 0
-18391 18394 0
-18379 -18391 0
-18380 18395 0
-18392 18395 0
-18380 -18392 18396 0
-18393 18396 0
-18380 -18393 18397 0
-18394 18397 0
-18380 -18394 0
-18381 18398 0
-18395 18398 0
-18381 -18395 18399 0
-18396 18399 0
-18381 -18396 18400 0
-18397 18400 0
-18381 -18397 0
-18382 -18400 0
-18404 48 0
-48 18404 0
-18405 90 0
-90 18405 0
-18406 132 0
-132 18406 0
-18407 174 0
-174 18407 0
-18408 216 0
-216 18408 0
-18409 258 0
-258 18409 0
-18410 300 0
-300 18410 0
-18404 18411 0
-18405 18412 0
-18411 18412 0
-18405 -18411 0
-18406 18413 0
-18412 18413 0
-18406 -18412 0
-18407 18414 0
-18413 18414 0
-18407 -18413 0
-18408 18415 0
-18414 18415 0
-18408 -18414 0
-18409 18416 0
-18415 18416 0
-18409 -18415 0
-18410 -18416 0
-18418 48 49 0
-48 18418 0
-49 18418 0
-18419 90 91 0
-90 18419 0
-91 18419 0
-18420 132 133 0
-132 18420 0
-133 18420 0
-18421 174 175 0
-174 18421 0
-175 18421 0
-18422 216 217 0
-216 18422 0
-217 18422 0
-18423 258 259 0
-258 18423 0
-259 18423 0
-18424 300 301 0
-300 18424 0
-301 18424 0
-18418 18425 0
-18426 0
-18419 18427 0
-18425 18427 0
-18419 -18425 18428 0
-18426 18428 0
-18419 -18426 0
-18420 18429 0
-18427 18429 0
-18420 -18427 18430 0
-18428 18430 0
-18420 -18428 0
-18421 18431 0
-18429 18431 0
-18421 -18429 18432 0
-18430 18432 0
-18421 -18430 0
-18422 18433 0
-18431 18433 0
-18422 -18431 18434 0
-18432 18434 0
-18422 -18432 0
-18423 18435 0
-18433 18435 0
-18423 -18433 18436 0
-18434 18436 0
-18423 -18434 0
-18424 -18436 0
-18439 49 0
-49 18439 0
-18440 91 0
-91 18440 0
-18441 133 0
-133 18441 0
-18442 175 0
-175 18442 0
-18443 217 0
-217 18443 0
-18444 259 0
-259 18444 0
-18445 301 0
-301 18445 0
-18439 18446 0
-18440 18447 0
-18446 18447 0
-18440 -18446 0
-18441 18448 0
-18447 18448 0
-18441 -18447 0
-18442 18449 0
-18448 18449 0
-18442 -18448 0
-18443 18450 0
-18449 18450 0
-18443 -18449 0
-18444 18451 0
-18450 18451 0
-18444 -18450 0
-18445 -18451 0
-43 18453 0
-85 18454 0
-18453 18454 0
-85 -18453 0
-127 18455 0
-18454 18455 0
-127 -18454 0
-169 18456 0
-18455 18456 0
-169 -18455 0
-211 18457 0
-18456 18457 0
-211 -18456 0
-253 18458 0
-18457 18458 0
-253 -18457 0
-295 -18458 0
43 85 127 169 211 253 295 0
-44 18460 0
-86 18461 0
-18460 18461 0
-86 -18460 0
-128 18462 0
-18461 18462 0
-128 -18461 0
-170 18463 0
-18462 18463 0
-170 -18462 0
-212 18464 0
-18463 18464 0
-212 -18463 0
-254 18465 0
-18464 18465 0
-254 -18464 0
-296 -18465 0
44 86 128 170 212 254 296 0
-45 18467 0
-87 18468 0
-18467 18468 0
-87 -18467 0
-129 18469 0
-18468 18469 0
-129 -18468 0
-171 18470 0
-18469 18470 0
-171 -18469 0
-213 18471 0
-18470 18471 0
-213 -18470 0
-255 18472 0
-18471 18472 0
-255 -18471 0
-297 -18472 0
45 87 129 171 213 255 297 0
-46 18474 0
-88 18475 0
-18474 18475 0
-88 -18474 0
-130 18476 0
-18475 18476 0
-130 -18475 0
-172 18477 0
-18476 18477 0
-172 -18476 0
-214 18478 0
-18477 18478 0
-214 -18477 0
-256 18479 0
-18478 18479 0
-256 -18478 0
-298 -18479 0
46 88 130 172 214 256 298 0
-47 18481 0
-89 18482 0
-18481 18482 0
-89 -18481 0
-131 18483 0
-18482 18483 0
-131 -18482 0
-173 18484 0
-18483 18484 0
-173 -18483 0
-215 18485 0
-18484 18485 0
-215 -18484 0
-257 18486 0
-18485 18486 0
-257 -18485 0
-299 -18486 0
47 89 131 173 215 257 299 0
-48 18488 0
-90 18489 0
-18488 18489 0
-90 -18488 0
-132 18490 0
-18489 18490 0
-132 -18489 0
-174 18491 0
-18490 18491 0
-174 -18490 0
-216 18492 0
-18491 18492 0
-216 -18491 0
-258 18493 0
-18492 18493 0
-258 -18492 0
-300 -18493 0
48 90 132 174 216 258 300 0
-49 18495 0
-91 18496 0
-18495 18496 0
-91 -18495 0
-133 18497 0
-18496 18497 0
-133 -18496 0
-175 18498 0
-18497 18498 0
-175 -18497 0
-217 18499 0
-18498 18499 0
-217 -18498 0
-259 18500 0
-18499 18500 0
-259 -18499 0
-301 -18500 0
49 91 133 175 217 259 301 0
-18502 92 0
-92 18502 0
-18503 134 0
-134 18503 0
-18504 176 0
-176 18504 0
-18505 218 0
-218 18505 0
-18506 260 0
-260 18506 0
-18507 302 0
-302 18507 0
-18502 18508 0
-18503 18509 0
-18508 18509 0
-18503 -18508 0
-18504 18510 0
-18509 18510 0
-18504 -18509 0
-18505 18511 0
-18510 18511 0
-18505 -18510 0
-18506 18512 0
-18511 18512 0
-18506 -18511 0
-18507 -18512 0
-18514 92 93 0
-92 18514 0
-93 18514 0
-18515 134 135 0
-134 18515 0
-135 18515 0
-18516 176 177 0
-176 18516 0
-177 18516 0
-18517 218 219 0
-218 18517 0
-219 18517 0
-18518 260 261 0
-260 18518 0
-261 18518 0
-18519 302 303 0
-302 18519 0
-303 18519 0
-18514 18520 0
-18521 0
-18515 18522 0
-18520 18522 0
-18515 -18520 18523 0
-18521 18523 0
-18515 -18521 0
-18516 18524 0
-18522 18524 0
-18516 -18522 18525 0
-18523 18525 0
-18516 -18523 0
-18517 18526 0
-18524 18526 0
-18517 -18524 18527 0
-18525 18527 0
-18517 -18525 0
-18518 18528 0
-18526 18528 0
-18518 -18526 18529 0
-18527 18529 0
-18518 -18527 0
-18519 -18529 0
-18532 92 93 94 0
-92 18532 0
-93 18532 0
-94 18532 0
-18533 134 135 136 0
-134 18533 0
-135 18533 0
-136 18533 0
-18534 176 177 178 0
-176 18534 0
-177 18534 0
-178 18534 0
-18535 218 219 220 0
-218 18535 0
-219 18535 0
-220 18535 0
-18536 260 261 262 0
-260 18536 0
-261 18536 0
-262 18536 0
-18537 302 303 304 0
-302 18537 0
-303 18537 0
-304 18537 0
-18532 18538 0
-18539 0
-18540 0
-18533 18541 0
-18538 18541 0
-18533 -18538 18542 0
-18539 18542 0
-18533 -18539 18543 0
-18540 18543 0
-18533 -18540 0
-18534 18544 0
-18541 18544 0
-18534 -18541 18545 0
-18542 18545 0
-18534 -18542 18546 0
-18543 18546 0
-18534 -18543 0
-18535 18547 0
-18544 18547 0
-18535 -18544 18548 0
-18545 18548 0
-18535 -18545 18549 0
-18546 18549 0
-18535 -18546 0
-18536 18550 0
-18547 18550 0
-18536 -18547 18551 0
-18548 18551 0
-18536 -18548 18552 0
-18549 18552 0
-18536 -18549 0
-18537 -18552 0
-18556 92 93 94 95 0
-92 18556 0
-93 18556 0
-94 18556 0
-95 18556 0
-18557 134 135 136 137 0
-134 18557 0
-135 18557 0
-136 18557 0
-137 18557 0
-18558 176 177 178 179 0
-176 18558 0
-177 18558 0
-178 18558 0
-179 18558 0
-18559 218 219 220 221 0
-218 18559 0
-219 18559 0
-220 18559 0
-221 18559 0
-18560 260 261 262 263 0
-260 18560 0
-261 18560 0
-262 18560 0
-263 18560 0
-18561 302 303 304 305 0
-302 18561 0
-303 18561 0
-304 18561 0
-305 18561 0
-18556 18562 0
-18563 0
-18564 0
-18565 0
-18557 18566 0
-18562 18566 0
-18557 -18562 18567 0
-18563 18567 0
-18557 -18563 18568 0
-18564 18568 0
-18557 -18564 18569 0
-18565 18569 0
-18557 -18565 0
-18558 18570 0
-18566 18570 0
-18558 -18566 18571 0
-18567 18571 0
-18558 -18567 18572 0
-18568 18572 0
-18558 -18568 18573 0
-18569 18573 0
-18558 -18569 0
-18559 18574 0
-18570 18574 0
-18559 -18570 18575 0
-18571 18575 0
-18559 -18571 18576 0
-18572 18576 0
-18559 -18572 18577 0
-18573 18577 0
-18559 -18573 0
-18560 18578 0
-18574 18578 0
-18560 -18574 18579 0
-18575 18579 0
-18560 -18575 18580 0
-18576 18580 0
-18560 -18576 18581 0
-18577 18581 0
-18560 -18577 0
-18561 -18581 0
-18586 92 93 94 95 96 0
-92 18586 0
-93 18586 0
-94 18586 0
-95 18586 0
-96 18586 0
-18587 134 135 136 137 138 0
-134 18587 0
-135 18587 0
-136 18587 0
-137 18587 0
-138 18587 0
-18588 176 177 178 179 180 0
-176 18588 0
-177 18588 0
-178 18588 0
-179 18588 0
-180 18588 0
-18589 218 219 220 221 222 0
-218 18589 0
-219 18589 0
-220 18589 0
-221 18589 0
-222 18589 0
-18590 260 261 262 263 264 0
-260 18590 0
-261 18590 0
-262 18590 0
-263 18590 0
-264 18590 0
-18591 302 303 304 305 306 0
-302 18591 0
-303 18591 0
-304 18591 0
-305 18591 0
-306 18591 0
-18586 18592 0
-18593 0
-18594 0
-18595 0
-18596 0
-18587 18597 0
-18592 18597 0
-18587 -18592 18598 0
-18593 18598 0
-18587 -18593 18599 0
-18594 18599 0
-18587 -18594 18600 0
-18595 18600 0
-18587 -18595 18601 0
-18596 18601 0
-18587 -18596 0
-18588 18602 0
-18597 18602 0
-18588 -18597 18603 0
-18598 18603 0
-18588 -18598 18604 0
-18599 18604 0
-18588 -18599 18605 0
-18600 18605 0
-18588 -18600 18606 0
-18601 18606 0
-18588 -18601 0
-18589 18607 0
-18602 18607 0
-18589 -18602 18608 0
-18603 18608 0
-18589 -18603 18609 0
-18604 18609 0
-18589 -18604 18610 0
-18605 18610 0
-18589 -18605 18611 0
-18606 18611 0
-18589 -18606 0
-18590 18612 0
-18607 18612 0
-18590 -18607 18613 0
-18608 18613 0
-18590 -18608 18614 0
-18609 18614 0
-18590 -18609 18615 0
-18610 18615 0
-18590 -18610 18616 0
-18611 18616 0
-18590 -18611 0
-18591 -18616 0
-18622 92 93 94 95 96 97 0
-92 18622 0
-93 18622 0
-94 18622 0
-95 18622 0
-96 18622 0
-97 18622 0
-18623 134 135 136 137 138 139 0
-134 18623 0
-135 18623 0
-136 18623 0
-137 18623 0
-138 18623 0
-139 18623 0
-18624 176 177 178 179 180 181 0
-176 18624 0
-177 18624 0
-178 18624 0
-179 18624 0
-180 18624 0
-181 18624 0
-18625 218 219 220 221 222 223 0
-218 18625 0
-219 18625 0
-220 18625 0
-221 18625 0
-222 18625 0
-223 18625 0
-18626 260 261 262 263 264 265 0
-260 18626 0
-261 18626 0
-262 18626 0
-263 18626 0
-264 18626 0
-265 18626 0
-18627 302 303 304 305 306 307 0
-302 18627 0
-303 18627 0
-304 18627 0
-305 18627 0
-306 18627 0
-307 18627 0
-18628 93 0
-93 18628 0
-18629 135 0
-135 18629 0
-18630 177 0
-177 18630 0
-18631 219 0
-219 18631 0
-18632 261 0
-261 18632 0
-18633 303 0
-303 18633 0
-18628 18634 0
-18629 18635 0
-18634 18635 0
-18629 -18634 0
-18630 18636 0
-18635 18636 0
-18630 -18635 0
-18631 18637 0
-18636 18637 0
-18631 -18636 0
-18632 18638 0
-18637 18638 0
-18632 -18637 0
-18633 -18638 0
-18640 93 94 0
-93 18640 0
-94 18640 0
-18641 135 136 0
-135 18641 0
-136 18641 0
-18642 177 178 0
-177 18642 0
-178 18642 0
-18643 219 220 0
-219 18643 0
-220 18643 0
-18644 261 262 0
-261 18644 0
-262 18644 0
-18645 303 304 0
-303 18645 0
-304 18645 0
-18640 18646 0
-18647 0
-18641 18648 0
-18646 18648 0
-18641 -18646 18649 0
-18647 18649 0
-18641 -18647 0
-18642 18650 0
-18648 18650 0
-18642 -18648 18651 0
-18649 18651 0
-18642 -18649 0
-18643 18652 0
-18650 18652 0
-18643 -18650 18653 0
-18651 18653 0
-18643 -18651 0
-18644 18654 0
-18652 18654 0
-18644 -18652 18655 0
-18653 18655 0
-18644 -18653 0
-18645 -18655 0
-18658 93 94 95 0
-93 18658 0
-94 18658 0
-95 18658 0
-18659 135 136 137 0
-135 18659 0
-136 18659 0
-137 18659 0
-18660 177 178 179 0
-177 18660 0
-178 18660 0
-179 18660 0
-18661 219 220 221 0
-219 18661 0
-220 18661 0
-221 18661 0
-18662 261 262 263 0
-261 18662 0
-262 18662 0
-263 18662 0
-18663 303 304 305 0
-303 18663 0
-304 18663 0
-305 18663 0
-18658 18664 0
-18665 0
-18666 0
-18659 18667 0
-18664 18667 0
-18659 -18664 18668 0
-18665 18668 0
-18659 -18665 18669 0
-18666 18669 0
-18659 -18666 0
-18660 18670 0
-18667 18670 0
-18660 -18667 18671 0
-18668 18671 0
-18660 -18668 18672 0
-18669 18672 0
-18660 -18669 0
-18661 18673 0
-18670 18673 0
-18661 -18670 18674 0
-18671 18674 0
-18661 -18671 18675 0
-18672 18675 0
-18661 -18672 0
-18662 18676 0
-18673 18676 0
-18662 -18673 18677 0
-18674 18677 0
-18662 -18674 18678 0
-18675 18678 0
-18662 -18675 0
-18663 -18678 0
-18682 93 94 95 96 0
-93 18682 0
-94 18682 0
-95 18682 0
-96 18682 0
-18683 135 136 137 138 0
-135 18683 0
-136 18683 0
-137 18683 0
-138 18683 0
-18684 177 178 179 180 0
-177 18684 0
-178 18684 0
-179 18684 0
-180 18684 0
-18685 219 220 221 222 0
-219 18685 0
-220 18685 0
-221 18685 0
-222 18685 0
-18686 261 262 263 264 0
-261 18686 0
-262 18686 0
-263 18686 0
-264 18686 0
-18687 303 304 305 306 0
-303 18687 0
-304 18687 0
-305 18687 0
-306 18687 0
-18682 18688 0
-18689 0
-18690 0
-18691 0
-18683 18692 0
-18688 18692 0
-18683 -18688 18693 0
-18689 18693 0
-18683 -18689 18694 0
-18690 18694 0
-18683 -18690 18695 0
-18691 18695 0
-18683 -18691 0
-18684 18696 0
-18692 18696 0
-18684 -18692 18697 0
-18693 18697 0
-18684 -18693 18698 0
-18694 18698 0
-18684 -18694 18699 0
-18695 18699 0
-18684 -18695 0
-18685 18700 0
-18696 18700 0
-18685 -18696 18701 0
-18697 18701 0
-18685 -18697 18702 0
-18698 18702 0
-18685 -18698 18703 0
-18699 18703 0
-18685 -18699 0
-18686 18704 0
-18700 18704 0
-18686 -18700 18705 0
-18701 18705 0
-18686 -18701 18706 0
-18702 18706 0
-18686 -18702 18707 0
-18703 18707 0
-18686 -18703 0
-18687 -18707 0
-18712 93 94 95 96 97 0
-93 18712 0
-94 18712 0
-95 18712 0
-96 18712 0
-97 18712 0
-18713 135 136 137 138 139 0
-135 18713 0
-136 18713 0
-137 18713 0
-138 18713 0
-139 18713 0
-18714 177 178 179 180 181 0
-177 18714 0
-178 18714 0
-179 18714 0
-180 18714 0
-181 18714 0
-18715 219 220 221 222 223 0
-219 18715 0
-220 18715 0
-221 18715 0
-222 18715 0
-223 18715 0
-18716 261 262 263 264 265 0
-261 18716 0
-262 18716 0
-263 18716 0
-264 18716 0
-265 18716 0
-18717 303 304 305 306 307 0
-303 18717 0
-304 18717 0
-305 18717 0
-306 18717 0
-307 18717 0
-18712 18718 0
-18719 0
-18720 0
-18721 0
-18722 0
-18713 18723 0
-18718 18723 0
-18713 -18718 18724 0
-18719 18724 0
-18713 -18719 18725 0
-18720 18725 0
-18713 -18720 18726 0
-18721 18726 0
-18713 -18721 18727 0
-18722 18727 0
-18713 -18722 0
-18714 18728 0
-18723 18728 0
-18714 -18723 18729 0
-18724 18729 0
-18714 -18724 18730 0
-18725 18730 0
-18714 -18725 18731 0
-18726 18731 0
-18714 -18726 18732 0
-18727 18732 0
-18714 -18727 0
-18715 18733 0
-18728 18733 0
-18715 -18728 18734 0
-18729 18734 0
-18715 -18729 18735 0
-18730 18735 0
-18715 -18730 18736 0
-18731 18736 0
-18715 -18731 18737 0
-18732 18737 0
-18715 -18732 0
-18716 18738 0
-18733 18738 0
-18716 -18733 18739 0
-18734 18739 0
-18716 -18734 18740 0
-18735 18740 0
-18716 -18735 18741 0
-18736 18741 0
-18716 -18736 18742 0
-18737 18742 0
-18716 -18737 0
-18717 -18742 0
-18748 93 94 95 96 97 98 0
-93 18748 0
-94 18748 0
-95 18748 0
-96 18748 0
-97 18748 0
-98 18748 0
-18749 135 136 137 138 139 140 0
-135 18749 0
-136 18749 0
-137 18749 0
-138 18749 0
-139 18749 0
-140 18749 0
-18750 177 178 179 180 181 182 0
-177 18750 0
-178 18750 0
-179 18750 0
-180 18750 0
-181 18750 0
-182 18750 0
-18751 219 220 221 222 223 224 0
-219 18751 0
-220 18751 0
-221 18751 0
-222 18751 0
-223 18751 0
-224 18751 0
-18752 261 262 263 264 265 266 0
-261 18752 0
-262 18752 0
-263 18752 0
-264 18752 0
-265 18752 0
-266 18752 0
-18753 303 304 305 306 307 308 0
-303 18753 0
-304 18753 0
-305 18753 0
-306 18753 0
-307 18753 0
-308 18753 0
-18754 94 0
-94 18754 0
-18755 136 0
-136 18755 0
-18756 178 0
-178 18756 0
-18757 220 0
-220 18757 0
-18758 262 0
-262 18758 0
-18759 304 0
-304 18759 0
-18754 18760 0
-18755 18761 0
-18760 18761 0
-18755 -18760 0
-18756 18762 0
-18761 18762 0
-18756 -18761 0
-18757 18763 0
-18762 18763 0
-18757 -18762 0
-18758 18764 0
-18763 18764 0
-18758 -18763 0
-18759 -18764 0
-18766 94 95 0
-94 18766 0
-95 18766 0
-18767 136 137 0
-136 18767 0
-137 18767 0
-18768 178 179 0
-178 18768 0
-179 18768 0
-18769 220 221 0
-220 18769 0
-221 18769 0
-18770 262 263 0
-262 18770 0
-263 18770 0
-18771 304 305 0
-304 18771 0
-305 18771 0
-18766 18772 0
-18773 0
-18767 18774 0
-18772 18774 0
-18767 -18772 18775 0
-18773 18775 0
-18767 -18773 0
-18768 18776 0
-18774 18776 0
-18768 -18774 18777 0
-18775 18777 0
-18768 -18775 0
-18769 18778 0
-18776 18778 0
-18769 -18776 18779 0
-18777 18779 0
-18769 -18777 0
-18770 18780 0
-18778 18780 0
-18770 -18778 18781 0
-18779 18781 0
-18770 -18779 0
-18771 -18781 0
-18784 94 95 96 0
-94 18784 0
-95 18784 0
-96 18784 0
-18785 136 137 138 0
-136 18785 0
-137 18785 0
-138 18785 0
-18786 178 179 180 0
-178 18786 0
-179 18786 0
-180 18786 0
-18787 220 221 222 0
-220 18787 0
-221 18787 0
-222 18787 0
-18788 262 263 264 0
-262 18788 0
-263 18788 0
-264 18788 0
-18789 304 305 306 0
-304 18789 0
-305 18789 0
-306 18789 0
-18784 18790 0
-18791 0
-18792 0
-18785 18793 0
-18790 18793 0
-18785 -18790 18794 0
-18791 18794 0
-18785 -18791 18795 0
-18792 18795 0
-18785 -18792 0
-18786 18796 0
-18793 18796 0
-18786 -18793 18797 0
-18794 18797 0
-18786 -18794 18798 0
-18795 18798 0
-18786 -18795 0
-18787 18799 0
-18796 18799 0
-18787 -18796 18800 0
-18797 18800 0
-18787 -18797 18801 0
-18798 18801 0
-18787 -18798 0
-18788 18802 0
-18799 18802 0
-18788 -18799 18803 0
-18800 18803 0
-18788 -18800 18804 0
-18801 18804 0
-18788 -18801 0
-18789 -18804 0
-18808 94 95 96 97 0
-94 18808 0
-95 18808 0
-96 18808 0
-97 18808 0
-18809 136 137 138 139 0
-136 18809 0
-137 18809 0
-138 18809 0
-139 18809 0
-18810 178 179 180 181 0
-178 18810 0
-179 18810 0
-180 18810 0
-181 18810 0
-18811 220 221 222 223 0
-220 18811 0
-221 18811 0
-222 18811 0
-223 18811 0
-18812 262 263 264 265 0
-262 18812 0
-263 18812 0
-264 18812 0
-265 18812 0
-18813 304 305 306 307 0
-304 18813 0
-305 18813 0
-306 18813 0
-307 18813 0
-18808 18814 0
-18815 0
-18816 0
-18817 0
-18809 18818 0
-18814 18818 0
-18809 -18814 18819 0
-18815 18819 0
-18809 -18815 18820 0
-18816 18820 0
-18809 -18816 18821 0
-18817 18821 0
-18809 -18817 0
-18810 18822 0
-18818 18822 0
-18810 -18818 18823 0
-18819 18823 0
-18810 -18819 18824 0
-18820 18824 0
-18810 -18820 18825 0
-18821 18825 0
-18810 -18821 0
-18811 18826 0
-18822 18826 0
-18811 -18822 18827 0
-18823 18827 0
-18811 -18823 18828 0
-18824 18828 0
-18811 -18824 18829 0
-18825 18829 0
-18811 -18825 0
-18812 18830 0
-18826 18830 0
-18812 -18826 18831 0
-18827 18831 0
-18812 -18827 18832 0
-18828 18832 0
-18812 -18828 18833 0
-18829 18833 0
-18812 -18829 0
-18813 -18833 0
-18838 94 95 96 97 98 0
-94 18838 0
-95 18838 0
-96 18838 0
-97 18838 0
-98 18838 0
-18839 136 137 138 139 140 0
-136 18839 0
-137 18839 0
-138 18839 0
-139 18839 0
-140 18839 0
-18840 178 179 180 181 182 0
-178 18840 0
-179 18840 0
-180 18840 0
-181 18840 0
-182 18840 0
-18841 220 221 222 223 224 0
-220 18841 0
-221 18841 0
-222 18841 0
-223 18841 0
-224 18841 0
-18842 262 263 264 265 266 0
-262 18842 0
-263 18842 0
-264 18842 0
-265 18842 0
-266 18842 0
-18843 304 305 306 307 308 0
-304 18843 0
-305 18843 0
-306 18843 0
-307 18843 0
-308 18843 0
-18838 18844 0
-18845 0
-18846 0
-18847 0
-18848 0
-18839 18849 0
-18844 18849 0
-18839 -18844 18850 0
-18845 18850 0
-18839 -18845 18851 0
-18846 18851 0
-18839 -18846 18852 0
-18847 18852 0
-18839 -18847 18853 0
-18848 18853 0
-18839 -18848 0
-18840 18854 0
-18849 18854 0
-18840 -18849 18855 0
-18850 18855 0
-18840 -18850 18856 0
-18851 18856 0
-18840 -18851 18857 0
-18852 18857 0
-18840 -18852 18858 0
-18853 18858 0
-18840 -18853 0
-18841 18859 0
-18854 18859 0
-18841 -18854 18860 0
-18855 18860 0
-18841 -18855 18861 0
-18856 18861 0
-18841 -18856 18862 0
-18857 18862 0
-18841 -18857 18863 0
-18858 18863 0
-18841 -18858 0
-18842 18864 0
-18859 18864 0
-18842 -18859 18865 0
-18860 18865 0
-18842 -18860 18866 0
-18861 18866 0
-18842 -18861 18867 0
-18862 18867 0
-18842 -18862 18868 0
-18863 18868 0
-18842 -18863 0
-18843 -18868 0
-18874 95 0
-95 18874 0
-18875 137 0
-137 18875 0
-18876 179 0
-179 18876 0
-18877 221 0
-221 18877 0
-18878 263 0
-263 18878 0
-18879 305 0
-305 18879 0
-18874 18880 0
-18875 18881 0
-18880 18881 0
-18875 -18880 0
-18876 18882 0
-18881 18882 0
-18876 -18881 0
-18877 18883 0
-18882 18883 0
-18877 -18882 0
-18878 18884 0
-18883 18884 0
-18878 -18883 0
-18879 -18884 0
-18886 95 96 0
-95 18886 0
-96 18886 0
-18887 137 138 0
-137 18887 0
-138 18887 0
-18888 179 180 0
-179 18888 0
-180 18888 0
-18889 221 222 0
-221 18889 0
-222 18889 0
-18890 263 264 0
-263 18890 0
-264 18890 0
-18891 305 306 0
-305 18891 0
-306 18891 0
-18886 18892 0
-18893 0
-18887 18894 0
-18892 18894 0
-18887 -18892 18895 0
-18893 18895 0
-18887 -18893 0
-18888 18896 0
-18894 18896 0
-18888 -18894 18897 0
-18895 18897 0
-18888 -18895 0
-18889 18898 0
-18896 18898 0
-18889 -18896 18899 0
-18897 18899 0
-18889 -18897 0
-18890 18900 0
-18898 18900 0
-18890 -18898 18901 0
-18899 18901 0
-18890 -18899 0
-18891 -18901 0
-18904 95 96 97 0
-95 18904 0
-96 18904 0
-97 18904 0
-18905 137 138 139 0
-137 18905 0
-138 18905 0
-139 18905 0
-18906 179 180 181 0
-179 18906 0
-180 18906 0
-181 18906 0
-18907 221 222 223 0
-221 18907 0
-222 18907 0
-223 18907 0
-18908 263 264 265 0
-263 18908 0
-264 18908 0
-265 18908 0
-18909 305 306 307 0
-305 18909 0
-306 18909 0
-307 18909 0
-18904 18910 0
-18911 0
-18912 0
-18905 18913 0
-18910 18913 0
-18905 -18910 18914 0
-18911 18914 0
-18905 -18911 18915 0
-18912 18915 0
-18905 -18912 0
-18906 18916 0
-18913 18916 0
-18906 -18913 18917 0
-18914 18917 0
-18906 -18914 18918 0
-18915 18918 0
-18906 -18915 0
-18907 18919 0
-18916 18919 0
-18907 -18916 18920 0
-18917 18920 0
-18907 -18917 18921 0
-18918 18921 0
-18907 -18918 0
-18908 18922 0
-18919 18922 0
-18908 -18919 18923 0
-18920 18923 0
-18908 -18920 18924 0
-18921 18924 0
-18908 -18921 0
-18909 -18924 0
-18928 95 96 97 98 0
-95 18928 0
-96 18928 0
-97 18928 0
-98 18928 0
-18929 137 138 139 140 0
-137 18929 0
-138 18929 0
-139 18929 0
-140 18929 0
-18930 179 180 181 182 0
-179 18930 0
-180 18930 0
-181 18930 0
-182 18930 0
-18931 221 222 223 224 0
-221 18931 0
-222 18931 0
-223 18931 0
-224 18931 0
-18932 263 264 265 266 0
-263 18932 0
-264 18932 0
-265 18932 0
-266 18932 0
-18933 305 306 307 308 0
-305 18933 0
-306 18933 0
-307 18933 0
-308 18933 0
-18928 18934 0
-18935 0
-18936 0
-18937 0
-18929 18938 0
-18934 18938 0
-18929 -18934 18939 0
-18935 18939 0
-18929 -18935 18940 0
-18936 18940 0
-18929 -18936 18941 0
-18937 18941 0
-18929 -18937 0
-18930 18942 0
-18938 18942 0
-18930 -18938 18943 0
-18939 18943 0
-18930 -18939 18944 0
-18940 18944 0
-18930 -18940 18945 0
-18941 18945 0
-18930 -18941 0
-18931 18946 0
-18942 18946 0
-18931 -18942 18947 0
-18943 18947 0
-18931 -18943 18948 0
-18944 18948 0
-18931 -18944 18949 0
-18945 18949 0
-18931 -18945 0
-18932 18950 0
-18946 18950 0
-18932 -18946 18951 0
-18947 18951 0
-18932 -18947 18952 0
-18948 18952 0
-18932 -18948 18953 0
-18949 18953 0
-18932 -18949 0
-18933 -18953 0
-18958 96 0
-96 18958 0
-18959 138 0
-138 18959 0
-18960 180 0
-180 18960 0
-18961 222 0
-222 18961 0
-18962 264 0
-264 18962 0
-18963 306 0
-306 18963 0
-18958 18964 0
-18959 18965 0
-18964 18965 0
-18959 -18964 0
-18960 18966 0
-18965 18966 0
-18960 -18965 0
-18961 18967 0
-18966 18967 0
-18961 -18966 0
-18962 18968 0
-18967 18968 0
-18962 -18967 0
-18963 -18968 0
-18970 96 97 0
-96 18970 0
-97 18970 0
-18971 138 139 0
-138 18971 0
-139 18971 0
-18972 180 181 0
-180 18972 0
-181 18972 0
-18973 222 223 0
-222 18973 0
-223 18973 0
-18974 264 265 0
-264 18974 0
-265 18974 0
-18975 306 307 0
-306 18975 0
-307 18975 0
-18970 18976 0
-18977 0
-18971 18978 0
-18976 18978 0
-18971 -18976 18979 0
-18977 18979 0
-18971 -18977 0
-18972 18980 0
-18978 18980 0
-18972 -18978 18981 0
-18979 18981 0
-18972 -18979 0
-18973 18982 0
-18980 18982 0
-18973 -18980 18983 0
-18981 18983 0
-18973 -18981 0
-18974 18984 0
-18982 18984 0
-18974 -18982 18985 0
-18983 18985 0
-18974 -18983 0
-18975 -18985 0
-18988 96 97 98 0
-96 18988 0
-97 18988 0
-98 18988 0
-18989 138 139 140 0
-138 18989 0
-139 18989 0
-140 18989 0
-18990 180 181 182 0
-180 18990 0
-181 18990 0
-182 18990 0
-18991 222 223 224 0
-222 18991 0
-223 18991 0
-224 18991 0
-18992 264 265 266 0
-264 18992 0
-265 18992 0
-266 18992 0
-18993 306 307 308 0
-306 18993 0
-307 18993 0
-308 18993 0
-18988 18994 0
-18995 0
-18996 0
-18989 18997 0
-18994 18997 0
-18989 -18994 18998 0
-18995 18998 0
-18989 -18995 18999 0
-18996 18999 0
-18989 -18996 0
-18990 19000 0
-18997 19000 0
-18990 -18997 19001 0
-18998 19001 0
-18990 -18998 19002 0
-18999 19002 0
-18990 -18999 0
-18991 19003 0
-19000 19003 0
-18991 -19000 19004 0
-19001 19004 0
-18991 -19001 19005 0
-19002 19005 0
-18991 -19002 0
-18992 19006 0
-19003 19006 0
-18992 -19003 19007 0
-19004 19007 0
-18992 -19004 19008 0
-19005 19008 0
-18992 -19005 0
-18993 -19008 0
-19012 97 0
-97 19012 0
-19013 139 0
-139 19013 0
-19014 181 0
-181 19014 0
-19015 223 0
-223 19015 0
-19016 265 0
-265 19016 0
-19017 307 0
-307 19017 0
-19012 19018 0
-19013 19019 0
-19018 19019 0
-19013 -19018 0
-19014 19020 0
-19019 19020 0
-19014 -19019 0
-19015 19021 0
-19020 19021 0
-19015 -19020 0
-19016 19022 0
-19021 19022 0
-19016 -19021 0
-19017 -19022 0
-19024 97 98 0
-97 19024 0
-98 19024 0
-19025 139 140 0
-139 19025 0
-140 19025 0
-19026 181 182 0
-181 19026 0
-182 19026 0
-19027 223 224 0
-223 19027 0
-224 19027 0
-19028 265 266 0
-265 19028 0
-266 19028 0
-19029 307 308 0
-307 19029 0
-308 19029 0
-19024 19030 0
-19031 0
-19025 19032 0
-19030 19032 0
-19025 -19030 19033 0
-19031 19033 0
-19025 -19031 0
-19026 19034 0
-19032 19034 0
-19026 -19032 19035 0
-19033 19035 0
-19026 -19033 0
-19027 19036 0
-19034 19036 0
-19027 -19034 19037 0
-19035 19037 0
-19027 -19035 0
-19028 19038 0
-19036 19038 0
-19028 -19036 19039 0
-19037 19039 0
-19028 -19037 0
-19029 -19039 0
-19042 98 0
-98 19042 0
-19043 140 0
-140 19043 0
-19044 182 0
-182 19044 0
-19045 224 0
-224 19045 0
-19046 266 0
-266 19046 0
-19047 308 0
-308 19047 0
-19042 19048 0
-19043 19049 0
-19048 19049 0
-19043 -19048 0
-19044 19050 0
-19049 19050 0
-19044 -19049 0
-19045 19051 0
-19050 19051 0
-19045 -19050 0
-19046 19052 0
-19051 19052 0
-19046 -19051 0
-19047 -19052 0
-19054 19061 0
-19055 19062 0
-19061 19062 0
-19055 -19061 0
-19056 19063 0
-19062 19063 0
-19056 -19062 0
-19057 19064 0
-19063 19064 0
-19057 -19063 0
-19058 19065 0
-19064 19065 0
-19058 -19064 0
-19059 19066 0
-19065 19066 0
-19059 -19065 0
-19060 -19066 0
19054 19068 0
-19069 0
-19070 0
-19071 0
-19072 0
-19073 0
19055 19074 0
-19068 19074 0
19055 -19068 19075 0
-19069 19075 0
19055 -19069 19076 0
-19070 19076 0
19055 -19070 19077 0
-19071 19077 0
19055 -19071 19078 0
-19072 19078 0
19055 -19072 19079 0
-19073 19079 0
19055 -19073 0
19056 19080 0
-19074 19080 0
19056 -19074 19081 0
-19075 19081 0
19056 -19075 19082 0
-19076 19082 0
19056 -19076 19083 0
-19077 19083 0
19056 -19077 19084 0
-19078 19084 0
19056 -19078 19085 0
-19079 19085 0
19056 -19079 0
19057 19086 0
-19080 19086 0
19057 -19080 19087 0
-19081 19087 0
19057 -19081 19088 0
-19082 19088 0
19057 -19082 19089 0
-19083 19089 0
19057 -19083 19090 0
-19084 19090 0
19057 -19084 19091 0
-19085 19091 0
19057 -19085 0
19058 19092 0
-19086 19092 0
19058 -19086 19093 0
-19087 19093 0
19058 -19087 19094 0
-19088 19094 0
19058 -19088 19095 0
-19089 19095 0
19058 -19089 19096 0
-19090 19096 0
19058 -19090 19097 0
-19091 19097 0
19058 -19091 0
19059 19098 0
-19092 19098 0
19059 -19092 19099 0
-19093 19099 0
19059 -19093 19100 0
-19094 19100 0
19059 -19094 19101 0
-19095 19101 0
19059 -19095 19102 0
-19096 19102 0
19059 -19096 19103 0
-19097 19103 0
19059 -19097 0
19060 -19103 0
-92 19110 0
-134 19111 0
-19110 19111 0
-134 -19110 0
-176 19112 0
-19111 19112 0
-176 -19111 0
-218 19113 0
-19112 19113 0
-218 -19112 0
-260 19114 0
-19113 19114 0
-260 -19113 0
-302 19115 0
-19114 19115 0
-302 -19114 0
-19054 -19115 0
92 134 176 218 260 302 19054 0
-93 19117 0
-135 19118 0
-19117 19118 0
-135 -19117 0
-177 19119 0
-19118 19119 0
-177 -19118 0
-219 19120 0
-19119 19120 0
-219 -19119 0
-261 19121 0
-19120 19121 0
-261 -19120 0
-303 19122 0
-19121 19122 0
-303 -19121 0
-19055 -19122 0
93 135 177 219 261 303 19055 0
-94 19124 0
-136 19125 0
-19124 19125 0
-136 -19124 0
-178 19126 0
-19125 19126 0
-178 -19125 0
-220 19127 0
-19126 19127 0
-220 -19126 0
-262 19128 0
-19127 19128 0
-262 -19127 0
-304 19129 0
-19128 19129 0
-304 -19128 0
-19056 -19129 0
94 136 178 220 262 304 19056 0
-95 19131 0
-137 19132 0
-19131 19132 0
-137 -19131 0
-179 19133 0
-19132 19133 0
-179 -19132 0
-221 19134 0
-19133 19134 0
-221 -19133 0
-263 19135 0
-19134 19135 0
-263 -19134 0
-305 19136 0
-19135 19136 0
-305 -19135 0
-19057 -19136 0
95 137 179 221 263 305 19057 0
-96 19138 0
-138 19139 0
-19138 19139 0
-138 -19138 0
-180 19140 0
-19139 19140 0
-180 -19139 0
-222 19141 0
-19140 19141 0
-222 -19140 0
-264 19142 0
-19141 19142 0
-264 -19141 0
-306 19143 0
-19142 19143 0
-306 -19142 0
-19058 -19143 0
96 138 180 222 264 306 19058 0
-97 19145 0
-139 19146 0
-19145 19146 0
-139 -19145 0
-181 19147 0
-19146 19147 0
-181 -19146 0
-223 19148 0
-19147 19148 0
-223 -19147 0
-265 19149 0
-19148 19149 0
-265 -19148 0
-307 19150 0
-19149 19150 0
-307 -19149 0
-19059 -19150 0
97 139 181 223 265 307 19059 0
-98 19152 0
-140 19153 0
-19152 19153 0
-140 -19152 0
-182 19154 0
-19153 19154 0
-182 -19153 0
-224 19155 0
-19154 19155 0
-224 -19154 0
-266 19156 0
-19155 19156 0
-266 -19155 0
-308 19157 0
-19156 19157 0
-308 -19156 0
-19060 -19157 0
98 140 182 224 266 308 19060 0
-19159 141 0
-141 19159 0
-19160 183 0
-183 19160 0
-19161 225 0
-225 19161 0
-19162 267 0
-267 19162 0
-19163 309 0
-309 19163 0
-19159 19164 0
-19160 19165 0
-19164 19165 0
-19160 -19164 0
-19161 19166 0
-19165 19166 0
-19161 -19165 0
-19162 19167 0
-19166 19167 0
-19162 -19166 0
-19163 -19167 0
-19169 141 142 0
-141 19169 0
-142 19169 0
-19170 183 184 0
-183 19170 0
-184 19170 0
-19171 225 226 0
-225 19171 0
-226 19171 0
-19172 267 268 0
-267 19172 0
-268 19172 0
-19173 309 310 0
-309 19173 0
-310 19173 0
-19169 19174 0
-19175 0
-19170 19176 0
-19174 19176 0
-19170 -19174 19177 0
-19175 19177 0
-19170 -19175 0
-19171 19178 0
-19176 19178 0
-19171 -19176 19179 0
-19177 19179 0
-19171 -19177 0
-19172 19180 0
-19178 19180 0
-19172 -19178 19181 0
-19179 19181 0
-19172 -19179 0
-19173 -19181 0
-19184 141 142 143 0
-141 19184 0
-142 19184 0
-143 19184 0
-19185 183 184 185 0
-183 19185 0
-184 19185 0
-185 19185 0
-19186 225 226 227 0
-225 19186 0
-226 19186 0
-227 19186 0
-19187 267 268 269 0
-267 19187 0
-268 19187 0
-269 19187 0
-19188 309 310 311 0
-309 19188 0
-310 19188 0
-311 19188 0
-19184 19189 0
-19190 0
-19191 0
-19185 19192 0
-19189 19192 0
-19185 -19189 19193 0
-19190 19193 0
-19185 -19190 19194 0
-19191 19194 0
-19185 -19191 0
-19186 19195 0
-19192 19195 0
-19186 -19192 19196 0
-19193 19196 0
-19186 -19193 19197 0
-19194 19197 0
-19186 -19194 0
-19187 19198 0
-19195 19198 0
-19187 -19195 19199 0
-19196 19199 0
-19187 -19196 19200 0
-19197 19200 0
-19187 -19197 0
-19188 -19200 0
-19204 141 142 143 144 0
-141 19204 0
-142 19204 0
-143 19204 0
-144 19204 0
-19205 183 184 185 186 0
-183 19205 0
-184 19205 0
-185 19205 0
-186 19205 0
-19206 225 226 227 228 0
-225 19206 0
-226 19206 0
-227 19206 0
-228 19206 0
-19207 267 268 269 270 0
-267 19207 0
-268 19207 0
-269 19207 0
-270 19207 0
-19208 309 310 311 312 0
-309 19208 0
-310 19208 0
-311 19208 0
-312 19208 0
-19204 19209 0
-19210 0
-19211 0
-19212 0
-19205 19213 0
-19209 19213 0
-19205 -19209 19214 0
-19210 19214 0
-19205 -19210 19215 0
-19211 19215 0
-19205 -19211 19216 0
-19212 19216 0
-19205 -19212 0
-19206 19217 0
-19213 19217 0
-19206 -19213 19218 0
-19214 19218 0
-19206 -19214 19219 0
-19215 19219 0
-19206 -19215 19220 0
-19216 19220 0
-19206 -19216 0
-19207 19221 0
-19217 19221 0
-19207 -19217 19222 0
-19218 19222 0
-19207 -19218 19223 0
-19219 19223 0
-19207 -19219 19224 0
-19220 19224 0
-19207 -19220 0
-19208 -19224 0
-19229 141 142 143 144 145 0
-141 19229 0
-142 19229 0
-143 19229 0
-144 19229 0
-145 19229 0
-19230 183 184 185 186 187 0
-183 19230 0
-184 19230 0
-185 19230 0
-186 19230 0
-187 19230 0
-19231 225 226 227 228 229 0
-225 19231 0
-226 19231 0
-227 19231 0
-228 19231 0
-229 19231 0
-19232 267 268 269 270 271 0
-267 19232 0
-268 19232 0
-269 19232 0
-270 19232 0
-271 19232 0
-19233 309 310 311 312 313 0
-309 19233 0
-310 19233 0
-311 19233 0
-312 19233 0
-313 19233 0
-19234 142 0
-142 19234 0
-19235 184 0
-184 19235 0
-19236 226 0
-226 19236 0
-19237 268 0
-268 19237 0
-19238 310 0
-310 19238 0
-19234 19239 0
-19235 19240 0
-19239 19240 0
-19235 -19239 0
-19236 19241 0
-19240 19241 0
-19236 -19240 0
-19237 19242 0
-19241 19242 0
-19237 -19241 0
-19238 -19242 0
-19244 142 143 0
-142 19244 0
-143 19244 0
-19245 184 185 0
-184 19245 0
-185 19245 0
-19246 226 227 0
-226 19246 0
-227 19246 0
-19247 268 269 0
-268 19247 0
-269 19247 0
-19248 310 311 0
-310 19248 0
-311 19248 0
-19244 19249 0
-19250 0
-19245 19251 0
-19249 19251 0
-19245 -19249 19252 0
-19250 19252 0
-19245 -19250 0
-19246 19253 0
-19251 19253 0
-19246 -19251 19254 0
-19252 19254 0
-19246 -19252 0
-19247 19255 0
-19253 19255 0
-19247 -19253 19256 0
-19254 19256 0
-19247 -19254 0
-19248 -19256 0
-19259 142 143 144 0
-142 19259 0
-143 19259 0
-144 19259 0
-19260 184 185 186 0
-184 19260 0
-185 19260 0
-186 19260 0
-19261 226 227 228 0
-226 19261 0
-227 19261 0
-228 19261 0
-19262 268 269 270 0
-268 19262 0
-269 19262 0
-270 19262 0
-19263 310 311 312 0
-310 19263 0
-311 19263 0
-312 19263 0
-19259 19264 0
-19265 0
-19266 0
-19260 19267 0
-19264 19267 0
-19260 -19264 19268 0
-19265 19268 0
-19260 -19265 19269 0
-19266 19269 0
-19260 -19266 0
-19261 19270 0
-19267 19270 0
-19261 -19267 19271 0
-19268 19271 0
-19261 -19268 19272 0
-19269 19272 0
-19261 -19269 0
-19262 19273 0
-19270 19273 0
-19262 -19270 19274 0
-19271 19274 0
-19262 -19271 19275 0
-19272 19275 0
-19262 -19272 0
-19263 -19275 0
-19279 142 143 144 145 0
-142 19279 0
-143 19279 0
-144 19279 0
-145 19279 0
-19280 184 185 186 187 0
-184 19280 0
-185 19280 0
-186 19280 0
-187 19280 0
-19281 226 227 228 229 0
-226 19281 0
-227 19281 0
-228 19281 0
-229 19281 0
-19282 268 269 270 271 0
-268 19282 0
-269 19282 0
-270 19282 0
-271 19282 0
-19283 310 311 312 313 0
-310 19283 0
-311 19283 0
-312 19283 0
-313 19283 0
-19279 19284 0
-19285 0
-19286 0
-19287 0
-19280 19288 0
-19284 19288 0
-19280 -19284 19289 0
-19285 19289 0
-19280 -19285 19290 0
-19286 19290 0
-19280 -19286 19291 0
-19287 19291 0
-19280 -19287 0
-19281 19292 0
-19288 19292 0
-19281 -19288 19293 0
-19289 19293 0
-19281 -19289 19294 0
-19290 19294 0
-19281 -19290 19295 0
-19291 19295 0
-19281 -19291 0
-19282 19296 0
-19292 19296 0
-19282 -19292 19297 0
-19293 19297 0
-19282 -19293 19298 0
-19294 19298 0
-19282 -19294 19299 0
-19295 19299 0
-19282 -19295 0
-19283 -19299 0
-19304 142 143 144 145 146 0
-142 19304 0
-143 19304 0
-144 19304 0
-145 19304 0
-146 19304 0
-19305 184 185 186 187 188 0
-184 19305 0
-185 19305 0
-186 19305 0
-187 19305 0
-188 19305 0
-19306 226 227 228 229 230 0
-226 19306 0
-227 19306 0
-228 19306 0
-229 19306 0
-230 19306 0
-19307 268 269 270 271 272 0
-268 19307 0
-269 19307 0
-270 19307 0
-271 19307 0
-272 19307 0
-19308 310 311 312 313 314 0
-310 19308 0
-311 19308 0
-312 19308 0
-313 19308 0
-314 19308 0
-19309 143 0
-143 19309 0
-19310 185 0
-185 19310 0
-19311 227 0
-227 19311 0
-19312 269 0
-269 19312 0
-19313 311 0
-311 19313 0
-19309 19314 0
-19310 19315 0
-19314 19315 0
-19310 -19314 0
-19311 19316 0
-19315 19316 0
-19311 -19315 0
-19312 19317 0
-19316 19317 0
-19312 -19316 0
-19313 -19317 0
-19319 143 144 0
-143 19319 0
-144 19319 0
-19320 185 186 0
-185 19320 0
-186 19320 0
-19321 227 228 0
-227 19321 0
-228 19321 0
-19322 269 270 0
-269 19322 0
-270 19322 0
-19323 311 312 0
-311 19323 0
-312 19323 0
-19319 19324 0
-19325 0
-19320 19326 0
-19324 19326 0
-19320 -19324 19327 0
-19325 19327 0
-19320 -19325 0
-19321 19328 0
-19326 19328 0
-19321 -19326 19329 0
-19327 19329 0
-19321 -19327 0
-19322 19330 0
-19328 19330 0
-19322 -19328 19331 0
-19329 19331 0
-19322 -19329 0
-19323 -19331 0
-19334 143 144 145 0
-143 19334 0
-144 19334 0
-145 19334 0
-19335 185 186 187 0
-185 19335 0
-186 19335 0
-187 19335 0
-19336 227 228 229 0
-227 19336 0
-228 19336 0
-229 19336 0
-19337 269 270 271 0
-269 19337 0
-270 19337 0
-271 19337 0
-19338 311 312 313 0
-311 19338 0
-312 19338 0
-313 19338 0
-19334 19339 0
-19340 0
-19341 0
-19335 19342 0
-19339 19342 0
-19335 -19339 19343 0
-19340 19343 0
-19335 -19340 19344 0
-19341 19344 0
-19335 -19341 0
-19336 19345 0
-19342 19345 0
-19336 -19342 19346 0
-19343 19346 0
-19336 -19343 19347 0
-19344 19347 0
-19336 -19344 0
-19337 19348 0
-19345 19348 0
-19337 -19345 19349 0
-19346 19349 0
-19337 -19346 19350 0
-19347 19350 0
-19337 -19347 0
-19338 -19350 0
-19354 143 144 145 146 0
-143 19354 0
-144 19354 0
-145 19354 0
-146 19354 0
-19355 185 186 187 188 0
-185 19355 0
-186 19355 0
-187 19355 0
-188 19355 0
-19356 227 228 229 230 0
-227 19356 0
-228 19356 0
-229 19356 0
-230 19356 0
-19357 269 270 271 272 0
-269 19357 0
-270 19357 0
-271 19357 0
-272 19357 0
-19358 311 312 313 314 0
-311 19358 0
-312 19358 0
-313 19358 0
-314 19358 0
-19354 19359 0
-19360 0
-19361 0
-19362 0
-19355 19363 0
-19359 19363 0
-19355 -19359 19364 0
-19360 19364 0
-19355 -19360 19365 0
-19361 19365 0
-19355 -19361 19366 0
-19362 19366 0
-19355 -19362 0
-19356 19367 0
-19363 19367 0
-19356 -19363 19368 0
-19364 19368 0
-19356 -19364 19369 0
-19365 19369 0
-19356 -19365 19370 0
-19366 19370 0
-19356 -19366 0
-19357 19371 0
-19367 19371 0
-19357 -19367 19372 0
-19368 19372 0
-19357 -19368 19373 0
-19369 19373 0
-19357 -19369 19374 0
-19370 19374 0
-19357 -19370 0
-19358 -19374 0
-19379 143 144 145 146 147 0
-143 19379 0
-144 19379 0
-145 19379 0
-146 19379 0
-147 19379 0
-19380 185 186 187 188 189 0
-185 19380 0
-186 19380 0
-187 19380 0
-188 19380 0
-189 19380 0
-19381 227 228 229 230 231 0
-227 19381 0
-228 19381 0
-229 19381 0
-230 19381 0
-231 19381 0
-19382 269 270 271 272 273 0
-269 19382 0
-270 19382 0
-271 19382 0
-272 19382 0
-273 19382 0
-19383 311 312 313 314 315 0
-311 19383 0
-312 19383 0
-313 19383 0
-314 19383 0
-315 19383 0
-19384 144 0
-144 19384 0
-19385 186 0
-186 19385 0
-19386 228 0
-228 19386 0
-19387 270 0
-270 19387 0
-19388 312 0
-312 19388 0
-19384 19389 0
-19385 19390 0
-19389 19390 0
-19385 -19389 0
-19386 19391 0
-19390 19391 0
-19386 -19390 0
-19387 19392 0
-19391 19392 0
-19387 -19391 0
-19388 -19392 0
-19394 144 145 0
-144 19394 0
-145 19394 0
-19395 186 187 0
-186 19395 0
-187 19395 0
-19396 228 229 0
-228 19396 0
-229 19396 0
-19397 270 271 0
-270 19397 0
-271 19397 0
-19398 312 313 0
-312 19398 0
-313 19398 0
-19394 19399 0
-19400 0
-19395 19401 0
-19399 19401 0
-19395 -19399 19402 0
-19400 19402 0
-19395 -19400 0
-19396 19403 0
-19401 19403 0
-19396 -19401 19404 0
-19402 19404 0
-19396 -19402 0
-19397 19405 0
-19403 19405 0
-19397 -19403 19406 0
-19404 19406 0
-19397 -19404 0
-19398 -19406 0
-19409 144 145 146 0
-144 19409 0
-145 19409 0
-146 19409 0
-19410 186 187 188 0
-186 19410 0
-187 19410 0
-188 19410 0
-19411 228 229 230 0
-228 19411 0
-229 19411 0
-230 19411 0
-19412 270 271 272 0
-270 19412 0
-271 19412 0
-272 19412 0
-19413 312 313 314 0
-312 19413 0
-313 19413 0
-314 19413 0
-19409 19414 0
-19415 0
-19416 0
-19410 19417 0
-19414 19417 0
-19410 -19414 19418 0
-19415 19418 0
-19410 -19415 19419 0
-19416 19419 0
-19410 -19416 0
-19411 19420 0
-19417 19420 0
-19411 -19417 19421 0
-19418 19421 0
-19411 -19418 19422 0
-19419 19422 0
-19411 -19419 0
-19412 19423 0
-19420 19423 0
-19412 -19420 19424 0
-19421 19424 0
-19412 -19421 19425 0
-19422 19425 0
-19412 -19422 0
-19413 -19425 0
-19429 144 145 146 147 0
-144 19429 0
-145 19429 0
-146 19429 0
-147 19429 0
-19430 186 187 188 189 0
-186 19430 0
-187 19430 0
-188 19430 0
-189 19430 0
-19431 228 229 230 231 0
-228 19431 0
-229 19431 0
-230 19431 0
-231 19431 0
-19432 270 271 272 273 0
-270 19432 0
-271 19432 0
-272 19432 0
-273 19432 0
-19433 312 313 314 315 0
-312 19433 0
-313 19433 0
-314 19433 0
-315 19433 0
-19429 19434 0
-19435 0
-19436 0
-19437 0
-19430 19438 0
-19434 19438 0
-19430 -19434 19439 0
-19435 19439 0
-19430 -19435 19440 0
-19436 19440 0
-19430 -19436 19441 0
-19437 19441 0
-19430 -19437 0
-19431 19442 0
-19438 19442 0
-19431 -19438 19443 0
-19439 19443 0
-19431 -19439 19444 0
-19440 19444 0
-19431 -19440 19445 0
-19441 19445 0
-19431 -19441 0
-19432 19446 0
-19442 19446 0
-19432 -19442 19447 0
-19443 19447 0
-19432 -19443 19448 0
-19444 19448 0
-19432 -19444 19449 0
-19445 19449 0
-19432 -19445 0
-19433 -19449 0
-19454 145 0
-145 19454 0
-19455 187 0
-187 19455 0
-19456 229 0
-229 19456 0
-19457 271 0
-271 19457 0
-19458 313 0
-313 19458 0
-19454 19459 0
-19455 19460 0
-19459 19460 0
-19455 -19459 0
-19456 19461 0
-19460 19461 0
-19456 -19460 0
-19457 19462 0
-19461 19462 0
-19457 -19461 0
-19458 -19462 0
-19464 145 146 0
-145 19464 0
-146 19464 0
-19465 187 188 0
-187 19465 0
-188 19465 0
-19466 229 230 0
-229 19466 0
-230 19466 0
-19467 271 272 0
-271 19467 0
-272 19467 0
-19468 313 314 0
-313 19468 0
-314 19468 0
-19464 19469 0
-19470 0
-19465 19471 0
-19469 19471 0
-19465 -19469 19472 0
-19470 19472 0
-19465 -19470 0
-19466 19473 0
-19471 19473 0
-19466 -19471 19474 0
-19472 19474 0
-19466 -19472 0
-19467 19475 0
-19473 19475 0
-19467 -19473 19476 0
-19474 19476 0
-19467 -19474 0
-19468 -19476 0
-19479 145 146 147 0
-145 19479 0
-146 19479 0
-147 19479 0
-19480 187 188 189 0
-187 19480 0
-188 19480 0
-189 19480 0
-19481 229 230 231 0
-229 19481 0
-230 19481 0
-231 19481 0
-19482 271 272 273 0
-271 19482 0
-272 19482 0
-273 19482 0
-19483 313 314 315 0
-313 19483 0
-314 19483 0
-315 19483 0
-19479 19484 0
-19485 0
-19486 0
-19480 19487 0
-19484 19487 0
-19480 -19484 19488 0
-19485 19488 0
-19480 -19485 19489 0
-19486 19489 0
-19480 -19486 0
-19481 19490 0
-19487 19490 0
-19481 -19487 19491 0
-19488 19491 0
-19481 -19488 19492 0
-19489 19492 0
-19481 -19489 0
-19482 19493 0
-19490 19493 0
-19482 -19490 19494 0
-19491 19494 0
-19482 -19491 19495 0
-19492 19495 0
-19482 -19492 0
-19483 -19495 0
-19499 146 0
-146 19499 0
-19500 188 0
-188 19500 0
-19501 230 0
-230 19501 0
-19502 272 0
-272 19502 0
-19503 314 0
-314 19503 0
-19499 19504 0
-19500 19505 0
-19504 19505 0
-19500 -19504 0
-19501 19506 0
-19505 19506 0
-19501 -19505 0
-19502 19507 0
-19506 19507 0
-19502 -19506 0
-19503 -19507 0
-19509 146 147 0
-146 19509 0
-147 19509 0
-19510 188 189 0
-188 19510 0
-189 19510 0
-19511 230 231 0
-230 19511 0
-231 19511 0
-19512 272 273 0
-272 19512 0
-273 19512 0
-19513 314 315 0
-314 19513 0
-315 19513 0
-19509 19514 0
-19515 0
-19510 19516 0
-19514 19516 0
-19510 -19514 19517 0
-19515 19517 0
-19510 -19515 0
-19511 19518 0
-19516 19518 0
-19511 -19516 19519 0
-19517 19519 0
-19511 -19517 0
-19512 19520 0
-19518 19520 0
-19512 -19518 19521 0
-19519 19521 0
-19512 -19519 0
-19513 -19521 0
-19524 147 0
-147 19524 0
-19525 189 0
-189 19525 0
-19526 231 0
-231 19526 0
-19527 273 0
-273 19527 0
-19528 315 0
-315 19528 0
-19524 19529 0
-19525 19530 0
-19529 19530 0
-19525 -19529 0
-19526 19531 0
-19530 19531 0
-19526 -19530 0
-19527 19532 0
-19531 19532 0
-19527 -19531 0
-19528 -19532 0
-19534 19541 0
-19542 0
-19535 19543 0
-19541 19543 0
-19535 -19541 19544 0
-19542 19544 0
-19535 -19542 0
-19536 19545 0
-19543 19545 0
-19536 -19543 19546 0
-19544 19546 0
-19536 -19544 0
-19537 19547 0
-19545 19547 0
-19537 -19545 19548 0
-19546 19548 0
-19537 -19546 0
-19538 19549 0
-19547 19549 0
-19538 -19547 19550 0
-19548 19550 0
-19538 -19548 0
-19539 19551 0
-19549 19551 0
-19539 -19549 19552 0
-19550 19552 0
-19539 -19550 0
-19540 -19552 0
19534 19555 0
-19556 0
-19557 0
-19558 0
-19559 0
19535 19560 0
-19555 19560 0
19535 -19555 19561 0
-19556 19561 0
19535 -19556 19562 0
-19557 19562 0
19535 -19557 19563 0
-19558 19563 0
19535 -19558 19564 0
-19559 19564 0
19535 -19559 0
19536 19565 0
-19560 19565 0
19536 -19560 19566 0
-19561 19566 0
19536 -19561 19567 0
-19562 19567 0
19536 -19562 19568 0
-19563 19568 0
19536 -19563 19569 0
-19564 19569 0
19536 -19564 0
19537 19570 0
-19565 19570 0
19537 -19565 19571 0
-19566 19571 0
19537 -19566 19572 0
-19567 19572 0
19537 -19567 19573 0
-19568 19573 0
19537 -19568 19574 0
-19569 19574 0
19537 -19569 0
19538 19575 0
-19570 19575 0
19538 -19570 19576 0
-19571 19576 0
19538 -19571 19577 0
-19572 19577 0
19538 -19572 19578 0
-19573 19578 0
19538 -19573 19579 0
-19574 19579 0
19538 -19574 0
19539 19580 0
-19575 19580 0
19539 -19575 19581 0
-19576 19581 0
19539 -19576 19582 0
-19577 19582 0
19539 -19577 19583 0
-19578 19583 0
19539 -19578 19584 0
-19579 19584 0
19539 -19579 0
19540 -19584 0
-141 19590 0
-183 19591 0
-19590 19591 0
-183 -19590 0
-225 19592 0
-19591 19592 0
-225 -19591 0
-267 19593 0
-19592 19593 0
-267 -19592 0
-309 19594 0
-19593 19594 0
-309 -19593 0
-19534 -19594 0
141 183 225 267 309 19534 0
-142 19596 0
-184 19597 0
-19596 19597 0
-184 -19596 0
-226 19598 0
-19597 19598 0
-226 -19597 0
-268 19599 0
-19598 19599 0
-268 -19598 0
-310 19600 0
-19599 19600 0
-310 -19599 0
-19535 -19600 0
142 184 226 268 310 19535 0
-143 19602 0
-185 19603 0
-19602 19603 0
-185 -19602 0
-227 19604 0
-19603 19604 0
-227 -19603 0
-269 19605 0
-19604 19605 0
-269 -19604 0
-311 19606 0
-19605 19606 0
-311 -19605 0
-19536 -19606 0
143 185 227 269 311 19536 0
-144 19608 0
-186 19609 0
-19608 19609 0
-186 -19608 0
-228 19610 0
-19609 19610 0
-228 -19609 0
-270 19611 0
-19610 19611 0
-270 -19610 0
-312 19612 0
-19611 19612 0
-312 -19611 0
-19537 -19612 0
144 186 228 270 312 19537 0
-145 19614 0
-187 19615 0
-19614 19615 0
-187 -19614 0
-229 19616 0
-19615 19616 0
-229 -19615 0
-271 19617 0
-19616 19617 0
-271 -19616 0
-313 19618 0
-19617 19618 0
-313 -19617 0
-19538 -19618 0
145 187 229 271 313 19538 0
-146 19620 0
-188 19621 0
-19620 19621 0
-188 -19620 0
-230 19622 0
-19621 19622 0
-230 -19621 0
-272 19623 0
-19622 19623 0
-272 -19622 0
-314 19624 0
-19623 19624 0
-314 -19623 0
-19539 -19624 0
146 188 230 272 314 19539 0
-147 19626 0
-189 19627 0
-19626 19627 0
-189 -19626 0
-231 19628 0
-19627 19628 0
-231 -19627 0
-273 19629 0
-19628 19629 0
-273 -19628 0
-315 19630 0
-19629 19630 0
-315 -19629 0
-19540 -19630 0
147 189 231 273 315 19540 0
-19632 190 0
-190 19632 0
-19633 232 0
-232 19633 0
-19634 274 0
-274 19634 0
-19635 316 0
-316 19635 0
-19632 19636 0
-19633 19637 0
-19636 19637 0
-19633 -19636 0
-19634 19638 0
-19637 19638 0
-19634 -19637 0
-19635 -19638 0
-19640 190 191 0
-190 19640 0
-191 19640 0
-19641 232 233 0
-232 19641 0
-233 19641 0
-19642 274 275 0
-274 19642 0
-275 19642 0
-19643 316 317 0
-316 19643 0
-317 19643 0
-19640 19644 0
-19645 0
-19641 19646 0
-19644 19646 0
-19641 -19644 19647 0
-19645 19647 0
-19641 -19645 0
-19642 19648 0
-19646 19648 0
-19642 -19646 19649 0
-19647 19649 0
-19642 -19647 0
-19643 -19649 0
-19652 190 191 192 0
-190 19652 0
-191 19652 0
-192 19652 0
-19653 232 233 234 0
-232 19653 0
-233 19653 0
-234 19653 0
-19654 274 275 276 0
-274 19654 0
-275 19654 0
-276 19654 0
-19655 316 317 318 0
-316 19655 0
-317 19655 0
-318 19655 0
-19652 19656 0
-19657 0
-19658 0
-19653 19659 0
-19656 19659 0
-19653 -19656 19660 0
-19657 19660 0
-19653 -19657 19661 0
-19658 19661 0
-19653 -19658 0
-19654 19662 0
-19659 19662 0
-19654 -19659 19663 0
-19660 19663 0
-19654 -19660 19664 0
-19661 19664 0
-19654 -19661 0
-19655 -19664 0
-19668 190 191 192 193 0
-190 19668 0
-191 19668 0
-192 19668 0
-193 19668 0
-19669 232 233 234 235 0
-232 19669 0
-233 19669 0
-234 19669 0
-235 19669 0
-19670 274 275 276 277 0
-274 19670 0
-275 19670 0
-276 19670 0
-277 19670 0
-19671 316 317 318 319 0
-316 19671 0
-317 19671 0
-318 19671 0
-319 19671 0
-19672 191 0
-191 19672 0
-19673 233 0
-233 19673 0
-19674 275 0
-275 19674 0
-19675 317 0
-317 19675 0
-19672 19676 0
-19673 19677 0
-19676 19677 0
-19673 -19676 0
-19674 19678 0
-19677 19678 0
-19674 -19677 0
-19675 -19678 0
-19680 191 192 0
-191 19680 0
-192 19680 0
-19681 233 234 0
-233 19681 0
-234 19681 0
-19682 275 276 0
-275 19682 0
-276 19682 0
-19683 317 318 0
-317 19683 0
-318 19683 0
-19680 19684 0
-19685 0
-19681 19686 0
-19684 19686 0
-19681 -19684 19687 0
-19685 19687 0
-19681 -19685 0
-19682 19688 0
-19686 19688 0
-19682 -19686 19689 0
-19687 19689 0
-19682 -19687 0
-19683 -19689 0
-19692 191 192 193 0
-191 19692 0
-192 19692 0
-193 19692 0
-19693 233 234 235 0
-233 19693 0
-234 19693 0
-235 19693 0
-19694 275 276 277 0
-275 19694 0
-276 19694 0
-277 19694 0
-19695 317 318 319 0
-317 19695 0
-318 19695 0
-319 19695 0
-19692 19696 0
-19697 0
-19698 0
-19693 19699 0
-19696 19699 0
-19693 -19696 19700 0
-19697 19700 0
-19693 -19697 19701 0
-19698 19701 0
-19693 -19698 0
-19694 19702 0
-19699 19702 0
-19694 -19699 19703 0
-19700 19703 0
-19694 -19700 19704 0
-19701 19704 0
-19694 -19701 0
-19695 -19704 0
-19708 191 192 193 194 0
-191 19708 0
-192 19708 0
-193 19708 0
-194 19708 0
-19709 233 234 235 236 0
-233 19709 0
-234 19709 0
-235 19709 0
-236 19709 0
-19710 275 276 277 278 0
-275 19710 0
-276 19710 0
-277 19710 0
-278 19710 0
-19711 317 318 319 320 0
-317 19711 0
-318 19711 0
-319 19711 0
-320 19711 0
-19712 192 0
-192 19712 0
-19713 234 0
-234 19713 0
-19714 276 0
-276 19714 0
-19715 318 0
-318 19715 0
-19712 19716 0
-19713 19717 0
-19716 19717 0
-19713 -19716 0
-19714 19718 0
-19717 19718 0
-19714 -19717 0
-19715 -19718 0
-19720 192 193 0
-192 19720 0
-193 19720 0
-19721 234 235 0
-234 19721 0
-235 19721 0
-19722 276 277 0
-276 19722 0
-277 19722 0
-19723 318 319 0
-318 19723 0
-319 19723 0
-19720 19724 0
-19725 0
-19721 19726 0
-19724 19726 0
-19721 -19724 19727 0
-19725 19727 0
-19721 -19725 0
-19722 19728 0
-19726 19728 0
-19722 -19726 19729 0
-19727 19729 0
-19722 -19727 0
-19723 -19729 0
-19732 192 193 194 0
-192 19732 0
-193 19732 0
-194 19732 0
-19733 234 235 236 0
-234 19733 0
-235 19733 0
-236 19733 0
-19734 276 277 278 0
-276 19734 0
-277 19734 0
-278 19734 0
-19735 318 319 320 0
-318 19735 0
-319 19735 0
-320 19735 0
-19732 19736 0
-19737 0
-19738 0
-19733 19739 0
-19736 19739 0
-19733 -19736 19740 0
-19737 19740 0
-19733 -19737 19741 0
-19738 19741 0
-19733 -19738 0
-19734 19742 0
-19739 19742 0
-19734 -19739 19743 0
-19740 19743 0
-19734 -19740 19744 0
-19741 19744 0
-19734 -19741 0
-19735 -19744 0
-19748 192 193 194 195 0
-192 19748 0
-193 19748 0
-194 19748 0
-195 19748 0
-19749 234 235 236 237 0
-234 19749 0
-235 19749 0
-236 19749 0
-237 19749 0
-19750 276 277 278 279 0
-276 19750 0
-277 19750 0
-278 19750 0
-279 19750 0
-19751 318 319 320 321 0
-318 19751 0
-319 19751 0
-320 19751 0
-321 19751 0
-19752 193 0
-193 19752 0
-19753 235 0
-235 19753 0
-19754 277 0
-277 19754 0
-19755 319 0
-319 19755 0
-19752 19756 0
-19753 19757 0
-19756 19757 0
-19753 -19756 0
-19754 19758 0
-19757 19758 0
-19754 -19757 0
-19755 -19758 0
-19760 193 194 0
-193 19760 0
-194 19760 0
-19761 235 236 0
-235 19761 0
-236 19761 0
-19762 277 278 0
-277 19762 0
-278 19762 0
-19763 319 320 0
-319 19763 0
-320 19763 0
-19760 19764 0
-19765 0
-19761 19766 0
-19764 19766 0
-19761 -19764 19767 0
-19765 19767 0
-19761 -19765 0
-19762 19768 0
-19766 19768 0
-19762 -19766 19769 0
-19767 19769 0
-19762 -19767 0
-19763 -19769 0
-19772 193 194 195 0
-193 19772 0
-194 19772 0
-195 19772 0
-19773 235 236 237 0
-235 19773 0
-236 19773 0
-237 19773 0
-19774 277 278 279 0
-277 19774 0
-278 19774 0
-279 19774 0
-19775 319 320 321 0
-319 19775 0
-320 19775 0
-321 19775 0
-19772 19776 0
-19777 0
-19778 0
-19773 19779 0
-19776 19779 0
-19773 -19776 19780 0
-19777 19780 0
-19773 -19777 19781 0
-19778 19781 0
-19773 -19778 0
-19774 19782 0
-19779 19782 0
-19774 -19779 19783 0
-19780 19783 0
-19774 -19780 19784 0
-19781 19784 0
-19774 -19781 0
-19775 -19784 0
-19788 193 194 195 196 0
-193 19788 0
-194 19788 0
-195 19788 0
-196 19788 0
-19789 235 236 237 238 0
-235 19789 0
-236 19789 0
-237 19789 0
-238 19789 0
-19790 277 278 279 280 0
-277 19790 0
-278 19790 0
-279 19790 0
-280 19790 0
-19791 319 320 321 322 0
-319 19791 0
-320 19791 0
-321 19791 0
-322 19791 0
-19792 194 0
-194 19792 0
-19793 236 0
-236 19793 0
-19794 278 0
-278 19794 0
-19795 320 0
-320 19795 0
-19792 19796 0
-19793 19797 0
-19796 19797 0
-19793 -19796 0
-19794 19798 0
-19797 19798 0
-19794 -19797 0
-19795 -19798 0
-19800 194 195 0
-194 19800 0
-195 19800 0
-19801 236 237 0
-236 19801 0
-237 19801 0
-19802 278 279 0
-278 19802 0
-279 19802 0
-19803 320 321 0
-320 19803 0
-321 19803 0
-19800 19804 0
-19805 0
-19801 19806 0
-19804 19806 0
-19801 -19804 19807 0
-19805 19807 0
-19801 -19805 0
-19802 19808 0
-19806 19808 0
-19802 -19806 19809 0
-19807 19809 0
-19802 -19807 0
-19803 -19809 0
-19812 194 195 196 0
-194 19812 0
-195 19812 0
-196 19812 0
-19813 236 237 238 0
-236 19813 0
-237 19813 0
-238 19813 0
-19814 278 279 280 0
-278 19814 0
-279 19814 0
-280 19814 0
-19815 320 321 322 0
-320 19815 0
-321 19815 0
-322 19815 0
-19812 19816 0
-19817 0
-19818 0
-19813 19819 0
-19816 19819 0
-19813 -19816 19820 0
-19817 19820 0
-19813 -19817 19821 0
-19818 19821 0
-19813 -19818 0
-19814 19822 0
-19819 19822 0
-19814 -19819 19823 0
-19820 19823 0
-19814 -19820 19824 0
-19821 19824 0
-19814 -19821 0
-19815 -19824 0
-19828 195 0
-195 19828 0
-19829 237 0
-237 19829 0
-19830 279 0
-279 19830 0
-19831 321 0
-321 19831 0
-19828 19832 0
-19829 19833 0
-19832 19833 0
-19829 -19832 0
-19830 19834 0
-19833 19834 0
-19830 -19833 0
-19831 -19834 0
-19836 195 196 0
-195 19836 0
-196 19836 0
-19837 237 238 0
-237 19837 0
-238 19837 0
-19838 279 280 0
-279 19838 0
-280 19838 0
-19839 321 322 0
-321 19839 0
-322 19839 0
-19836 19840 0
-19841 0
-19837 19842 0
-19840 19842 0
-19837 -19840 19843 0
-19841 19843 0
-19837 -19841 0
-19838 19844 0
-19842 19844 0
-19838 -19842 19845 0
-19843 19845 0
-19838 -19843 0
-19839 -19845 0
-19848 196 0
-196 19848 0
-19849 238 0
-238 19849 0
-19850 280 0
-280 19850 0
-19851 322 0
-322 19851 0
-19848 19852 0
-19849 19853 0
-19852 19853 0
-19849 -19852 0
-19850 19854 0
-19853 19854 0
-19850 -19853 0
-19851 -19854 0
-19856 19863 0
-19864 0
-19865 0
-19857 19866 0
-19863 19866 0
-19857 -19863 19867 0
-19864 19867 0
-19857 -19864 19868 0
-19865 19868 0
-19857 -19865 0
-19858 19869 0
-19866 19869 0
-19858 -19866 19870 0
-19867 19870 0
-19858 -19867 19871 0
-19868 19871 0
-19858 -19868 0
-19859 19872 0
-19869 19872 0
-19859 -19869 19873 0
-19870 19873 0
-19859 -19870 19874 0
-19871 19874 0
-19859 -19871 0
-19860 19875 0
-19872 19875 0
-19860 -19872 19876 0
-19873 19876 0
-19860 -19873 19877 0
-19874 19877 0
-19860 -19874 0
-19861 19878 0
-19875 19878 0
-19861 -19875 19879 0
-19876 19879 0
-19861 -19876 19880 0
-19877 19880 0
-19861 -19877 0
-19862 -19880 0
19856 19884 0
-19885 0
-19886 0
-19887 0
19857 19888 0
-19884 19888 0
19857 -19884 19889 0
-19885 19889 0
19857 -19885 19890 0
-19886 19890 0
19857 -19886 19891 0
-19887 19891 0
19857 -19887 0
19858 19892 0
-19888 19892 0
19858 -19888 19893 0
-19889 19893 0
19858 -19889 19894 0
-19890 19894 0
19858 -19890 19895 0
-19891 19895 0
19858 -19891 0
19859 19896 0
-19892 19896 0
19859 -19892 19897 0
-19893 19897 0
19859 -19893 19898 0
-19894 19898 0
19859 -19894 19899 0
-19895 19899 0
19859 -19895 0
19860 19900 0
-19896 19900 0
19860 -19896 19901 0
-19897 19901 0
19860 -19897 19902 0
-19898 19902 0
19860 -19898 19903 0
-19899 19903 0
19860 -19899 0
19861 19904 0
-19900 19904 0
19861 -19900 19905 0
-19901 19905 0
19861 -19901 19906 0
-19902 19906 0
19861 -19902 19907 0
-19903 19907 0
19861 -19903 0
19862 -19907 0
-190 19912 0
-232 19913 0
-19912 19913 0
-232 -19912 0
-274 19914 0
-19913 19914 0
-274 -19913 0
-316 19915 0
-19914 19915 0
-316 -19914 0
-19856 -19915 0
190 232 274 316 19856 0
-191 19917 0
-233 19918 0
-19917 19918 0
-233 -19917 0
-275 19919 0
-19918 19919 0
-275 -19918 0
-317 19920 0
-19919 19920 0
-317 -19919 0
-19857 -19920 0
191 233 275 317 19857 0
-192 19922 0
-234 19923 0
-19922 19923 0
-234 -19922 0
-276 19924 0
-19923 19924 0
-276 -19923 0
-318 19925 0
-19924 19925 0
-318 -19924 0
-19858 -19925 0
192 234 276 318 19858 0
-193 19927 0
-235 19928 0
-19927 19928 0
-235 -19927 0
-277 19929 0
-19928 19929 0
-277 -19928 0
-319 19930 0
-19929 19930 0
-319 -19929 0
-19859 -19930 0
193 235 277 319 19859 0
-194 19932 0
-236 19933 0
-19932 19933 0
-236 -19932 0
-278 19934 0
-19933 19934 0
-278 -19933 0
-320 19935 0
-19934 19935 0
-320 -19934 0
-19860 -19935 0
194 236 278 320 19860 0
-195 19937 0
-237 19938 0
-19937 19938 0
-237 -19937 0
-279 19939 0
-19938 19939 0
-279 -19938 0
-321 19940 0
-19939 19940 0
-321 -19939 0
-19861 -19940 0
195 237 279 321 19861 0
-196 19942 0
-238 19943 0
-19942 19943 0
-238 -19942 0
-280 19944 0
-19943 19944 0
-280 -19943 0
-322 19945 0
-19944 19945 0
-322 -19944 0
-19862 -19945 0
196 238 280 322 19862 0
-19947 239 0
-239 19947 0
-19948 281 0
-281 19948 0
-19949 323 0
-323 19949 0
-19947 19950 0
-19948 19951 0
-19950 19951 0
-19948 -19950 0
-19949 -19951 0
-19953 239 240 0
-239 19953 0
-240 19953 0
-19954 281 282 0
-281 19954 0
-282 19954 0
-19955 323 324 0
-323 19955 0
-324 19955 0
-19953 19956 0
-19957 0
-19954 19958 0
-19956 19958 0
-19954 -19956 19959 0
-19957 19959 0
-19954 -19957 0
-19955 -19959 0
-19962 239 240 241 0
-239 19962 0
-240 19962 0
-241 19962 0
-19963 281 282 283 0
-281 19963 0
-282 19963 0
-283 19963 0
-19964 323 324 325 0
-323 19964 0
-324 19964 0
-325 19964 0
-19965 240 0
-240 19965 0
-19966 282 0
-282 19966 0
-19967 324 0
-324 19967 0
-19965 19968 0
-19966 19969 0
-19968 19969 0
-19966 -19968 0
-19967 -19969 0
-19971 240 241 0
-240 19971 0
-241 19971 0
-19972 282 283 0
-282 19972 0
-283 19972 0
-19973 324 325 0
-324 19973 0
-325 19973 0
-19971 19974 0
-19975 0
-19972 19976 0
-19974 19976 0
-19972 -19974 19977 0
-19975 19977 0
-19972 -19975 0
-19973 -19977 0
-19980 240 241 242 0
-240 19980 0
-241 19980 0
-242 19980 0
-19981 282 283 284 0
-282 19981 0
-283 19981 0
-284 19981 0
-19982 324 325 326 0
-324 19982 0
-325 19982 0
-326 19982 0
-19983 241 0
-241 19983 0
-19984 283 0
-283 19984 0
-19985 325 0
-325 19985 0
-19983 19986 0
-19984 19987 0
-19986 19987 0
-19984 -19986 0
-19985 -19987 0
-19989 241 242 0
-241 19989 0
-242 19989 0
-19990 283 284 0
-283 19990 0
-284 19990 0
-19991 325 326 0
-325 19991 0
-326 19991 0
-19989 19992 0
-19993 0
-19990 19994 0
-19992 19994 0
-19990 -19992 19995 0
-19993 19995 0
-19990 -19993 0
-19991 -19995 0
-19998 241 242 243 0
-241 19998 0
-242 19998 0
-243 19998 0
-19999 283 284 285 0
-283 19999 0
-284 19999 0
-285 19999 0
-20000 325 326 327 0
-325 20000 0
-326 20000 0
-327 20000 0
-20001 242 0
-242 20001 0
-20002 284 0
-284 20002 0
-20003 326 0
-326 20003 0
-20001 20004 0
-20002 20005 0
-20004 20005 0
-20002 -20004 0
-20003 -20005 0
-20007 242 243 0
-242 20007 0
-243 20007 0
-20008 284 285 0
-284 20008 0
-285 20008 0
-20009 326 327 0
-326 20009 0
-327 20009 0
-20007 20010 0
-20011 0
-20008 20012 0
-20010 20012 0
-20008 -20010 20013 0
-20011 20013 0
-20008 -20011 0
-20009 -20013 0
-20016 242 243 244 0
-242 20016 0
-243 20016 0
-244 20016 0
-20017 284 285 286 0
-284 20017 0
-285 20017 0
-286 20017 0
-20018 326 327 328 0
-326 20018 0
-327 20018 0
-328 20018 0
-20019 243 0
-243 20019 0
-20020 285 0
-285 20020 0
-20021 327 0
-327 20021 0
-20019 20022 0
-20020 20023 0
-20022 20023 0
-20020 -20022 0
-20021 -20023 0
-20025 243 244 0
-243 20025 0
-244 20025 0
-20026 285 286 0
-285 20026 0
-286 20026 0
-20027 327 328 0
-327 20027 0
-328 20027 0
-20025 20028 0
-20029 0
-20026 20030 0
-20028 20030 0
-20026 -20028 20031 0
-20029 20031 0
-20026 -20029 0
-20027 -20031 0
-20034 243 244 245 0
-243 20034 0
-244 20034 0
-245 20034 0
-20035 285 286 287 0
-285 20035 0
-286 20035 0
-287 20035 0
-20036 327 328 329 0
-327 20036 0
-328 20036 0
-329 20036 0
-20037 244 0
-244 20037 0
-20038 286 0
-286 20038 0
-20039 328 0
-328 20039 0
-20037 20040 0
-20038 20041 0
-20040 20041 0
-20038 -20040 0
-20039 -20041 0
-20043 244 245 0
-244 20043 0
-245 20043 0
-20044 286 287 0
-286 20044 0
-287 20044 0
-20045 328 329 0
-328 20045 0
-329 20045 0
-20043 20046 0
-20047 0
-20044 20048 0
-20046 20048 0
-20044 -20046 20049 0
-20047 20049 0
-20044 -20047 0
-20045 -20049 0
-20052 245 0
-245 20052 0
-20053 287 0
-287 20053 0
-20054 329 0
-329 20054 0
-20052 20055 0
-20053 20056 0
-20055 20056 0
-20053 -20055 0
-20054 -20056 0
-20058 20065 0
-20066 0
-20067 0
-20068 0
-20059 20069 0
-20065 20069 0
-20059 -20065 20070 0
-20066 20070 0
-20059 -20066 20071 0
-20067 20071 0
-20059 -20067 20072 0
-20068 20072 0
-20059 -20068 0
-20060 20073 0
-20069 20073 0
-20060 -20069 20074 0
-20070 20074 0
-20060 -20070 20075 0
-20071 20075 0
-20060 -20071 20076 0
-20072 20076 0
-20060 -20072 0
-20061 20077 0
-20073 20077 0
-20061 -20073 20078 0
-20074 20078 0
-20061 -20074 20079 0
-20075 20079 0
-20061 -20075 20080 0
-20076 20080 0
-20061 -20076 0
-20062 20081 0
-20077 20081 0
-20062 -20077 20082 0
-20078 20082 0
-20062 -20078 20083 0
-20079 20083 0
-20062 -20079 20084 0
-20080 20084 0
-20062 -20080 0
-20063 20085 0
-20081 20085 0
-20063 -20081 20086 0
-20082 20086 0
-20063 -20082 20087 0
-20083 20087 0
-20063 -20083 20088 0
-20084 20088 0
-20063 -20084 0
-20064 -20088 0
20058 20093 0
-20094 0
-20095 0
20059 20096 0
-20093 20096 0
20059 -20093 20097 0
-20094 20097 0
20059 -20094 20098 0
-20095 20098 0
20059 -20095 0
20060 20099 0
-20096 20099 0
20060 -20096 20100 0
-20097 20100 0
20060 -20097 20101 0
-20098 20101 0
20060 -20098 0
20061 20102 0
-20099 20102 0
20061 -20099 20103 0
-20100 20103 0
20061 -20100 20104 0
-20101 20104 0
20061 -20101 0
20062 20105 0
-20102 20105 0
20062 -20102 20106 0
-20103 20106 0
20062 -20103 20107 0
-20104 20107 0
20062 -20104 0
20063 20108 0
-20105 20108 0
20063 -20105 20109 0
-20106 20109 0
20063 -20106 20110 0
-20107 20110 0
20063 -20107 0
20064 -20110 0
-239 20114 0
-281 20115 0
-20114 20115 0
-281 -20114 0
-323 20116 0
-20115 20116 0
-323 -20115 0
-20058 -20116 0
239 281 323 20058 0
-240 20118 0
-282 20119 0
-20118 20119 0
-282 -20118 0
-324 20120 0
-20119 20120 0
-324 -20119 0
-20059 -20120 0
240 282 324 20059 0
-241 20122 0
-283 20123 0
-20122 20123 0
-283 -20122 0
-325 20124 0
-20123 20124 0
-325 -20123 0
-20060 -20124 0
241 283 325 20060 0
-242 20126 0
-284 20127 0
-20126 20127 0
-284 -20126 0
-326 20128 0
-20127 20128 0
-326 -20127 0
-20061 -20128 0
242 284 326 20061 0
-243 20130 0
-285 20131 0
-20130 20131 0
-285 -20130 0
-327 20132 0
-20131 20132 0
-327 -20131 0
-20062 -20132 0
243 285 327 20062 0
-244 20134 0
-286 20135 0
-20134 20135 0
-286 -20134 0
-328 20136 0
-20135 20136 0
-328 -20135 0
-20063 -20136 0
244 286 328 20063 0
-245 20138 0
-287 20139 0
-20138 20139 0
-287 -20138 0
-329 20140 0
-20139 20140 0
-329 -20139 0
-20064 -20140 0
245 287 329 20064 0
-20142 288 0
-288 20142 0
-20143 330 0
-330 20143 0
-20142 20144 0
-20143 -20144 0
-20146 288 289 0
-288 20146 0
-289 20146 0
-20147 330 331 0
-330 20147 0
-331 20147 0
-20148 289 0
-289 20148 0
-20149 331 0
-331 20149 0
-20148 20150 0
-20149 -20150 0
-20152 289 290 0
-289 20152 0
-290 20152 0
-20153 331 332 0
-331 20153 0
-332 20153 0
-20154 290 0
-290 20154 0
-20155 332 0
-332 20155 0
-20154 20156 0
-20155 -20156 0
-20158 290 291 0
-290 20158 0
-291 20158 0
-20159 332 333 0
-332 20159 0
-333 20159 0
-20160 291 0
-291 20160 0
-20161 333 0
-333 20161 0
-20160 20162 0
-20161 -20162 0
-20164 291 292 0
-291 20164 0
-292 20164 0
-20165 333 334 0
-333 20165 0
-334 20165 0
-20166 292 0
-292 20166 0
-20167 334 0
-334 20167 0
-20166 20168 0
-20167 -20168 0
-20170 292 293 0
-292 20170 0
-293 20170 0
-20171 334 335 0
-334 20171 0
-335 20171 0
-20172 293 0
-293 20172 0
-20173 335 0
-335 20173 0
-20172 20174 0
-20173 -20174 0
-20176 293 294 0
-293 20176 0
-294 20176 0
-20177 335 336 0
-335 20177 0
-336 20177 0
-20178 294 0
-294 20178 0
-20179 336 0
-336 20179 0
-20178 20180 0
-20179 -20180 0
-20182 20189 0
-20190 0
-20191 0
-20192 0
-20193 0
-20183 20194 0
-20189 20194 0
-20183 -20189 20195 0
-20190 20195 0
-20183 -20190 20196 0
-20191 20196 0
-20183 -20191 20197 0
-20192 20197 0
-20183 -20192 20198 0
-20193 20198 0
-20183 -20193 0
-20184 20199 0
-20194 20199 0
-20184 -20194 20200 0
-20195 20200 0
-20184 -20195 20201 0
-20196 20201 0
-20184 -20196 20202 0
-20197 20202 0
-20184 -20197 20203 0
-20198 20203 0
-20184 -20198 0
-20185 20204 0
-20199 20204 0
-20185 -20199 20205 0
-20200 20205 0
-20185 -20200 20206 0
-20201 20206 0
-20185 -20201 20207 0
-20202 20207 0
-20185 -20202 20208 0
-20203 20208 0
-20185 -20203 0
-20186 20209 0
-20204 20209 0
-20186 -20204 20210 0
-20205 20210 0
-20186 -20205 20211 0
-20206 20211 0
-20186 -20206 20212 0
-20207 20212 0
-20186 -20207 20213 0
-20208 20213 0
-20186 -20208 0
-20187 20214 0
-20209 20214 0
-20187 -20209 20215 0
-20210 20215 0
-20187 -20210 20216 0
-20211 20216 0
-20187 -20211 20217 0
-20212 20217 0
-20187 -20212 20218 0
-20213 20218 0
-20187 -20213 0
-20188 -20218 0
20182 20224 0
-20225 0
20183 20226 0
-20224 20226 0
20183 -20224 20227 0
-20225 20227 0
20183 -20225 0
20184 20228 0
-20226 20228 0
20184 -20226 20229 0
-20227 20229 0
20184 -20227 0
20185 20230 0
-20228 20230 0
20185 -20228 20231 0
-20229 20231 0
20185 -20229 0
20186 20232 0
-20230 20232 0
20186 -20230 20233 0
-20231 20233 0
20186 -20231 0
20187 20234 0
-20232 20234 0
20187 -20232 20235 0
-20233 20235 0
20187 -20233 0
20188 -20235 0
-288 20238 0
-330 20239 0
-20238 20239 0
-330 -20238 0
-20182 -20239 0
288 330 20182 0
-289 20241 0
-331 20242 0
-20241 20242 0
-331 -20241 0
-20183 -20242 0
289 331 20183 0
-290 20244 0
-332 20245 0
-20244 20245 0
-332 -20244 0
-20184 -20245 0
290 332 20184 0
-291 20247 0
-333 20248 0
-20247 20248 0
-333 -20247 0
-20185 -20248 0
291 333 20185 0
-292 20250 0
-334 20251 0
-20250 20251 0
-334 -20250 0
-20186 -20251 0
292 334 20186 0
-293 20253 0
-335 20254 0
-20253 20254 0
-335 -20253 0
-20187 -20254 0
293 335 20187 0
-294 20256 0
-336 20257 0
-20256 20257 0
-336 -20256 0
-20188 -20257 0
294 336 20188 0
