p cnf 2040 3832
-1 217 0
-2 218 0
-217 218 0
-2 -217 0
-3 219 0
-218 219 0
-3 -218 0
-4 220 0
-219 220 0
-4 -219 0
-5 221 0
-220 221 0
-5 -220 0
-6 -221 0
1 2 3 4 5 6 0
-7 223 0
-8 224 0
-223 224 0
-8 -223 0
-9 225 0
-224 225 0
-9 -224 0
-10 226 0
-225 226 0
-10 -225 0
-11 227 0
-226 227 0
-11 -226 0
-12 -227 0
7 8 9 10 11 12 0
-13 229 0
-14 230 0
-229 230 0
-14 -229 0
-15 231 0
-230 231 0
-15 -230 0
-16 232 0
-231 232 0
-16 -231 0
-17 233 0
-232 233 0
-17 -232 0
-18 -233 0
13 14 15 16 17 18 0
-19 235 0
-20 236 0
-235 236 0
-20 -235 0
-21 237 0
-236 237 0
-21 -236 0
-22 238 0
-237 238 0
-22 -237 0
-23 239 0
-238 239 0
-23 -238 0
-24 -239 0
19 20 21 22 23 24 0
-25 241 0
-26 242 0
-241 242 0
-26 -241 0
-27 243 0
-242 243 0
-27 -242 0
-28 244 0
-243 244 0
-28 -243 0
-29 245 0
-244 245 0
-29 -244 0
-30 -245 0
25 26 27 28 29 30 0
-31 247 0
-32 248 0
-247 248 0
-32 -247 0
-33 249 0
-248 249 0
-33 -248 0
-34 250 0
-249 250 0
-34 -249 0
-35 251 0
-250 251 0
-35 -250 0
-36 -251 0
31 32 33 34 35 36 0
-37 253 0
-38 254 0
-253 254 0
-38 -253 0
-39 255 0
-254 255 0
-39 -254 0
-40 256 0
-255 256 0
-40 -255 0
-41 257 0
-256 257 0
-41 -256 0
-42 -257 0
37 38 39 40 41 42 0
-43 259 0
-44 260 0
-259 260 0
-44 -259 0
-45 261 0
-260 261 0
-45 -260 0
-46 262 0
-261 262 0
-46 -261 0
-47 263 0
-262 263 0
-47 -262 0
-48 -263 0
43 44 45 46 47 48 0
-49 265 0
-50 266 0
-265 266 0
-50 -265 0
-51 267 0
-266 267 0
-51 -266 0
-52 268 0
-267 268 0
-52 -267 0
-53 269 0
-268 269 0
-53 -268 0
-54 -269 0
49 50 51 52 53 54 0
-55 271 0
-56 272 0
-271 272 0
-56 -271 0
-57 273 0
-272 273 0
-57 -272 0
-58 274 0
-273 274 0
-58 -273 0
-59 275 0
-274 275 0
-59 -274 0
-60 -275 0
55 56 57 58 59 60 0
-61 277 0
-62 278 0
-277 278 0
-62 -277 0
-63 279 0
-278 279 0
-63 -278 0
-64 280 0
-279 280 0
-64 -279 0
-65 281 0
-280 281 0
-65 -280 0
-66 -281 0
61 62 63 64 65 66 0
-67 283 0
-68 284 0
-283 284 0
-68 -283 0
-69 285 0
-284 285 0
-69 -284 0
-70 286 0
-285 286 0
-70 -285 0
-71 287 0
-286 287 0
-71 -286 0
-72 -287 0
67 68 69 70 71 72 0
-73 289 0
-74 290 0
-289 290 0
-74 -289 0
-75 291 0
-290 291 0
-75 -290 0
-76 292 0
-291 292 0
-76 -291 0
-77 293 0
-292 293 0
-77 -292 0
-78 -293 0
73 74 75 76 77 78 0
-79 295 0
-80 296 0
-295 296 0
-80 -295 0
-81 297 0
-296 297 0
-81 -296 0
-82 298 0
-297 298 0
-82 -297 0
-83 299 0
-298 299 0
-83 -298 0
-84 -299 0
79 80 81 82 83 84 0
-85 301 0
-86 302 0
-301 302 0
-86 -301 0
-87 303 0
-302 303 0
-87 -302 0
-88 304 0
-303 304 0
-88 -303 0
-89 305 0
-304 305 0
-89 -304 0
-90 -305 0
85 86 87 88 89 90 0
-91 307 0
-92 308 0
-307 308 0
-92 -307 0
-93 309 0
-308 309 0
-93 -308 0
-94 310 0
-309 310 0
-94 -309 0
-95 311 0
-310 311 0
-95 -310 0
-96 -311 0
91 92 93 94 95 96 0
-97 313 0
-98 314 0
-313 314 0
-98 -313 0
-99 315 0
-314 315 0
-99 -314 0
-100 316 0
-315 316 0
-100 -315 0
-101 317 0
-316 317 0
-101 -316 0
-102 -317 0
97 98 99 100 101 102 0
-103 319 0
-104 320 0
-319 320 0
-104 -319 0
-105 321 0
-320 321 0
-105 -320 0
-106 322 0
-321 322 0
-106 -321 0
-107 323 0
-322 323 0
-107 -322 0
-108 -323 0
103 104 105 106 107 108 0
-109 325 0
-110 326 0
-325 326 0
-110 -325 0
-111 327 0
-326 327 0
-111 -326 0
-112 328 0
-327 328 0
-112 -327 0
-113 329 0
-328 329 0
-113 -328 0
-114 -329 0
109 110 111 112 113 114 0
-115 331 0
-116 332 0
-331 332 0
-116 -331 0
-117 333 0
-332 333 0
-117 -332 0
-118 334 0
-333 334 0
-118 -333 0
-119 335 0
-334 335 0
-119 -334 0
-120 -335 0
115 116 117 118 119 120 0
-121 337 0
-122 338 0
-337 338 0
-122 -337 0
-123 339 0
-338 339 0
-123 -338 0
-124 340 0
-339 340 0
-124 -339 0
-125 341 0
-340 341 0
-125 -340 0
-126 -341 0
121 122 123 124 125 126 0
-127 343 0
-128 344 0
-343 344 0
-128 -343 0
-129 345 0
-344 345 0
-129 -344 0
-130 346 0
-345 346 0
-130 -345 0
-131 347 0
-346 347 0
-131 -346 0
-132 -347 0
127 128 129 130 131 132 0
-133 349 0
-134 350 0
-349 350 0
-134 -349 0
-135 351 0
-350 351 0
-135 -350 0
-136 352 0
-351 352 0
-136 -351 0
-137 353 0
-352 353 0
-137 -352 0
-138 -353 0
133 134 135 136 137 138 0
-139 355 0
-140 356 0
-355 356 0
-140 -355 0
-141 357 0
-356 357 0
-141 -356 0
-142 358 0
-357 358 0
-142 -357 0
-143 359 0
-358 359 0
-143 -358 0
-144 -359 0
139 140 141 142 143 144 0
-145 361 0
-146 362 0
-361 362 0
-146 -361 0
-147 363 0
-362 363 0
-147 -362 0
-148 364 0
-363 364 0
-148 -363 0
-149 365 0
-364 365 0
-149 -364 0
-150 -365 0
145 146 147 148 149 150 0
-151 367 0
-152 368 0
-367 368 0
-152 -367 0
-153 369 0
-368 369 0
-153 -368 0
-154 370 0
-369 370 0
-154 -369 0
-155 371 0
-370 371 0
-155 -370 0
-156 -371 0
151 152 153 154 155 156 0
-157 373 0
-158 374 0
-373 374 0
-158 -373 0
-159 375 0
-374 375 0
-159 -374 0
-160 376 0
-375 376 0
-160 -375 0
-161 377 0
-376 377 0
-161 -376 0
-162 -377 0
157 158 159 160 161 162 0
-163 379 0
-164 380 0
-379 380 0
-164 -379 0
-165 381 0
-380 381 0
-165 -380 0
-166 382 0
-381 382 0
-166 -381 0
-167 383 0
-382 383 0
-167 -382 0
-168 -383 0
163 164 165 166 167 168 0
-169 385 0
-170 386 0
-385 386 0
-170 -385 0
-171 387 0
-386 387 0
-171 -386 0
-172 388 0
-387 388 0
-172 -387 0
-173 389 0
-388 389 0
-173 -388 0
-174 -389 0
169 170 171 172 173 174 0
-175 391 0
-176 392 0
-391 392 0
-176 -391 0
-177 393 0
-392 393 0
-177 -392 0
-178 394 0
-393 394 0
-178 -393 0
-179 395 0
-394 395 0
-179 -394 0
-180 -395 0
175 176 177 178 179 180 0
-181 397 0
-182 398 0
-397 398 0
-182 -397 0
-183 399 0
-398 399 0
-183 -398 0
-184 400 0
-399 400 0
-184 -399 0
-185 401 0
-400 401 0
-185 -400 0
-186 -401 0
181 182 183 184 185 186 0
-187 403 0
-188 404 0
-403 404 0
-188 -403 0
-189 405 0
-404 405 0
-189 -404 0
-190 406 0
-405 406 0
-190 -405 0
-191 407 0
-406 407 0
-191 -406 0
-192 -407 0
187 188 189 190 191 192 0
-193 409 0
-194 410 0
-409 410 0
-194 -409 0
-195 411 0
-410 411 0
-195 -410 0
-196 412 0
-411 412 0
-196 -411 0
-197 413 0
-412 413 0
-197 -412 0
-198 -413 0
193 194 195 196 197 198 0
-199 415 0
-200 416 0
-415 416 0
-200 -415 0
-201 417 0
-416 417 0
-201 -416 0
-202 418 0
-417 418 0
-202 -417 0
-203 419 0
-418 419 0
-203 -418 0
-204 -419 0
199 200 201 202 203 204 0
-205 421 0
-206 422 0
-421 422 0
-206 -421 0
-207 423 0
-422 423 0
-207 -422 0
-208 424 0
-423 424 0
-208 -423 0
-209 425 0
-424 425 0
-209 -424 0
-210 -425 0
205 206 207 208 209 210 0
-211 427 0
-212 428 0
-427 428 0
-212 -427 0
-213 429 0
-428 429 0
-213 -428 0
-214 430 0
-429 430 0
-214 -429 0
-215 431 0
-430 431 0
-215 -430 0
-216 -431 0
211 212 213 214 215 216 0
-1 433 0
-7 434 0
-433 434 0
-7 -433 0
-13 435 0
-434 435 0
-13 -434 0
-19 436 0
-435 436 0
-19 -435 0
-25 437 0
-436 437 0
-25 -436 0
-31 -437 0
1 7 13 19 25 31 0
-2 439 0
-8 440 0
-439 440 0
-8 -439 0
-14 441 0
-440 441 0
-14 -440 0
-20 442 0
-441 442 0
-20 -441 0
-26 443 0
-442 443 0
-26 -442 0
-32 -443 0
2 8 14 20 26 32 0
-3 445 0
-9 446 0
-445 446 0
-9 -445 0
-15 447 0
-446 447 0
-15 -446 0
-21 448 0
-447 448 0
-21 -447 0
-27 449 0
-448 449 0
-27 -448 0
-33 -449 0
3 9 15 21 27 33 0
-4 451 0
-10 452 0
-451 452 0
-10 -451 0
-16 453 0
-452 453 0
-16 -452 0
-22 454 0
-453 454 0
-22 -453 0
-28 455 0
-454 455 0
-28 -454 0
-34 -455 0
4 10 16 22 28 34 0
-5 457 0
-11 458 0
-457 458 0
-11 -457 0
-17 459 0
-458 459 0
-17 -458 0
-23 460 0
-459 460 0
-23 -459 0
-29 461 0
-460 461 0
-29 -460 0
-35 -461 0
5 11 17 23 29 35 0
-6 463 0
-12 464 0
-463 464 0
-12 -463 0
-18 465 0
-464 465 0
-18 -464 0
-24 466 0
-465 466 0
-24 -465 0
-30 467 0
-466 467 0
-30 -466 0
-36 -467 0
6 12 18 24 30 36 0
-37 469 0
-43 470 0
-469 470 0
-43 -469 0
-49 471 0
-470 471 0
-49 -470 0
-55 472 0
-471 472 0
-55 -471 0
-61 473 0
-472 473 0
-61 -472 0
-67 -473 0
37 43 49 55 61 67 0
-38 475 0
-44 476 0
-475 476 0
-44 -475 0
-50 477 0
-476 477 0
-50 -476 0
-56 478 0
-477 478 0
-56 -477 0
-62 479 0
-478 479 0
-62 -478 0
-68 -479 0
38 44 50 56 62 68 0
-39 481 0
-45 482 0
-481 482 0
-45 -481 0
-51 483 0
-482 483 0
-51 -482 0
-57 484 0
-483 484 0
-57 -483 0
-63 485 0
-484 485 0
-63 -484 0
-69 -485 0
39 45 51 57 63 69 0
-40 487 0
-46 488 0
-487 488 0
-46 -487 0
-52 489 0
-488 489 0
-52 -488 0
-58 490 0
-489 490 0
-58 -489 0
-64 491 0
-490 491 0
-64 -490 0
-70 -491 0
40 46 52 58 64 70 0
-41 493 0
-47 494 0
-493 494 0
-47 -493 0
-53 495 0
-494 495 0
-53 -494 0
-59 496 0
-495 496 0
-59 -495 0
-65 497 0
-496 497 0
-65 -496 0
-71 -497 0
41 47 53 59 65 71 0
-42 499 0
-48 500 0
-499 500 0
-48 -499 0
-54 501 0
-500 501 0
-54 -500 0
-60 502 0
-501 502 0
-60 -501 0
-66 503 0
-502 503 0
-66 -502 0
-72 -503 0
42 48 54 60 66 72 0
-73 505 0
-79 506 0
-505 506 0
-79 -505 0
-85 507 0
-506 507 0
-85 -506 0
-91 508 0
-507 508 0
-91 -507 0
-97 509 0
-508 509 0
-97 -508 0
-103 -509 0
73 79 85 91 97 103 0
-74 511 0
-80 512 0
-511 512 0
-80 -511 0
-86 513 0
-512 513 0
-86 -512 0
-92 514 0
-513 514 0
-92 -513 0
-98 515 0
-514 515 0
-98 -514 0
-104 -515 0
74 80 86 92 98 104 0
-75 517 0
-81 518 0
-517 518 0
-81 -517 0
-87 519 0
-518 519 0
-87 -518 0
-93 520 0
-519 520 0
-93 -519 0
-99 521 0
-520 521 0
-99 -520 0
-105 -521 0
75 81 87 93 99 105 0
-76 523 0
-82 524 0
-523 524 0
-82 -523 0
-88 525 0
-524 525 0
-88 -524 0
-94 526 0
-525 526 0
-94 -525 0
-100 527 0
-526 527 0
-100 -526 0
-106 -527 0
76 82 88 94 100 106 0
-77 529 0
-83 530 0
-529 530 0
-83 -529 0
-89 531 0
-530 531 0
-89 -530 0
-95 532 0
-531 532 0
-95 -531 0
-101 533 0
-532 533 0
-101 -532 0
-107 -533 0
77 83 89 95 101 107 0
-78 535 0
-84 536 0
-535 536 0
-84 -535 0
-90 537 0
-536 537 0
-90 -536 0
-96 538 0
-537 538 0
-96 -537 0
-102 539 0
-538 539 0
-102 -538 0
-108 -539 0
78 84 90 96 102 108 0
-109 541 0
-115 542 0
-541 542 0
-115 -541 0
-121 543 0
-542 543 0
-121 -542 0
-127 544 0
-543 544 0
-127 -543 0
-133 545 0
-544 545 0
-133 -544 0
-139 -545 0
109 115 121 127 133 139 0
-110 547 0
-116 548 0
-547 548 0
-116 -547 0
-122 549 0
-548 549 0
-122 -548 0
-128 550 0
-549 550 0
-128 -549 0
-134 551 0
-550 551 0
-134 -550 0
-140 -551 0
110 116 122 128 134 140 0
-111 553 0
-117 554 0
-553 554 0
-117 -553 0
-123 555 0
-554 555 0
-123 -554 0
-129 556 0
-555 556 0
-129 -555 0
-135 557 0
-556 557 0
-135 -556 0
-141 -557 0
111 117 123 129 135 141 0
-112 559 0
-118 560 0
-559 560 0
-118 -559 0
-124 561 0
-560 561 0
-124 -560 0
-130 562 0
-561 562 0
-130 -561 0
-136 563 0
-562 563 0
-136 -562 0
-142 -563 0
112 118 124 130 136 142 0
-113 565 0
-119 566 0
-565 566 0
-119 -565 0
-125 567 0
-566 567 0
-125 -566 0
-131 568 0
-567 568 0
-131 -567 0
-137 569 0
-568 569 0
-137 -568 0
-143 -569 0
113 119 125 131 137 143 0
-114 571 0
-120 572 0
-571 572 0
-120 -571 0
-126 573 0
-572 573 0
-126 -572 0
-132 574 0
-573 574 0
-132 -573 0
-138 575 0
-574 575 0
-138 -574 0
-144 -575 0
114 120 126 132 138 144 0
-145 577 0
-151 578 0
-577 578 0
-151 -577 0
-157 579 0
-578 579 0
-157 -578 0
-163 580 0
-579 580 0
-163 -579 0
-169 581 0
-580 581 0
-169 -580 0
-175 -581 0
145 151 157 163 169 175 0
-146 583 0
-152 584 0
-583 584 0
-152 -583 0
-158 585 0
-584 585 0
-158 -584 0
-164 586 0
-585 586 0
-164 -585 0
-170 587 0
-586 587 0
-170 -586 0
-176 -587 0
146 152 158 164 170 176 0
-147 589 0
-153 590 0
-589 590 0
-153 -589 0
-159 591 0
-590 591 0
-159 -590 0
-165 592 0
-591 592 0
-165 -591 0
-171 593 0
-592 593 0
-171 -592 0
-177 -593 0
147 153 159 165 171 177 0
-148 595 0
-154 596 0
-595 596 0
-154 -595 0
-160 597 0
-596 597 0
-160 -596 0
-166 598 0
-597 598 0
-166 -597 0
-172 599 0
-598 599 0
-172 -598 0
-178 -599 0
148 154 160 166 172 178 0
-149 601 0
-155 602 0
-601 602 0
-155 -601 0
-161 603 0
-602 603 0
-161 -602 0
-167 604 0
-603 604 0
-167 -603 0
-173 605 0
-604 605 0
-173 -604 0
-179 -605 0
149 155 161 167 173 179 0
-150 607 0
-156 608 0
-607 608 0
-156 -607 0
-162 609 0
-608 609 0
-162 -608 0
-168 610 0
-609 610 0
-168 -609 0
-174 611 0
-610 611 0
-174 -610 0
-180 -611 0
150 156 162 168 174 180 0
-181 613 0
-187 614 0
-613 614 0
-187 -613 0
-193 615 0
-614 615 0
-193 -614 0
-199 616 0
-615 616 0
-199 -615 0
-205 617 0
-616 617 0
-205 -616 0
-211 -617 0
181 187 193 199 205 211 0
-182 619 0
-188 620 0
-619 620 0
-188 -619 0
-194 621 0
-620 621 0
-194 -620 0
-200 622 0
-621 622 0
-200 -621 0
-206 623 0
-622 623 0
-206 -622 0
-212 -623 0
182 188 194 200 206 212 0
-183 625 0
-189 626 0
-625 626 0
-189 -625 0
-195 627 0
-626 627 0
-195 -626 0
-201 628 0
-627 628 0
-201 -627 0
-207 629 0
-628 629 0
-207 -628 0
-213 -629 0
183 189 195 201 207 213 0
-184 631 0
-190 632 0
-631 632 0
-190 -631 0
-196 633 0
-632 633 0
-196 -632 0
-202 634 0
-633 634 0
-202 -633 0
-208 635 0
-634 635 0
-208 -634 0
-214 -635 0
184 190 196 202 208 214 0
-185 637 0
-191 638 0
-637 638 0
-191 -637 0
-197 639 0
-638 639 0
-197 -638 0
-203 640 0
-639 640 0
-203 -639 0
-209 641 0
-640 641 0
-209 -640 0
-215 -641 0
185 191 197 203 209 215 0
-186 643 0
-192 644 0
-643 644 0
-192 -643 0
-198 645 0
-644 645 0
-198 -644 0
-204 646 0
-645 646 0
-204 -645 0
-210 647 0
-646 647 0
-210 -646 0
-216 -647 0
186 192 198 204 210 216 0
-1 649 0
-37 650 0
-649 650 0
-37 -649 0
-73 651 0
-650 651 0
-73 -650 0
-109 652 0
-651 652 0
-109 -651 0
-145 653 0
-652 653 0
-145 -652 0
-181 -653 0
1 37 73 109 145 181 0
-2 655 0
-38 656 0
-655 656 0
-38 -655 0
-74 657 0
-656 657 0
-74 -656 0
-110 658 0
-657 658 0
-110 -657 0
-146 659 0
-658 659 0
-146 -658 0
-182 -659 0
2 38 74 110 146 182 0
-3 661 0
-39 662 0
-661 662 0
-39 -661 0
-75 663 0
-662 663 0
-75 -662 0
-111 664 0
-663 664 0
-111 -663 0
-147 665 0
-664 665 0
-147 -664 0
-183 -665 0
3 39 75 111 147 183 0
-4 667 0
-40 668 0
-667 668 0
-40 -667 0
-76 669 0
-668 669 0
-76 -668 0
-112 670 0
-669 670 0
-112 -669 0
-148 671 0
-670 671 0
-148 -670 0
-184 -671 0
4 40 76 112 148 184 0
-5 673 0
-41 674 0
-673 674 0
-41 -673 0
-77 675 0
-674 675 0
-77 -674 0
-113 676 0
-675 676 0
-113 -675 0
-149 677 0
-676 677 0
-149 -676 0
-185 -677 0
5 41 77 113 149 185 0
-6 679 0
-42 680 0
-679 680 0
-42 -679 0
-78 681 0
-680 681 0
-78 -680 0
-114 682 0
-681 682 0
-114 -681 0
-150 683 0
-682 683 0
-150 -682 0
-186 -683 0
6 42 78 114 150 186 0
-7 685 0
-43 686 0
-685 686 0
-43 -685 0
-79 687 0
-686 687 0
-79 -686 0
-115 688 0
-687 688 0
-115 -687 0
-151 689 0
-688 689 0
-151 -688 0
-187 -689 0
7 43 79 115 151 187 0
-8 691 0
-44 692 0
-691 692 0
-44 -691 0
-80 693 0
-692 693 0
-80 -692 0
-116 694 0
-693 694 0
-116 -693 0
-152 695 0
-694 695 0
-152 -694 0
-188 -695 0
8 44 80 116 152 188 0
-9 697 0
-45 698 0
-697 698 0
-45 -697 0
-81 699 0
-698 699 0
-81 -698 0
-117 700 0
-699 700 0
-117 -699 0
-153 701 0
-700 701 0
-153 -700 0
-189 -701 0
9 45 81 117 153 189 0
-10 703 0
-46 704 0
-703 704 0
-46 -703 0
-82 705 0
-704 705 0
-82 -704 0
-118 706 0
-705 706 0
-118 -705 0
-154 707 0
-706 707 0
-154 -706 0
-190 -707 0
10 46 82 118 154 190 0
-11 709 0
-47 710 0
-709 710 0
-47 -709 0
-83 711 0
-710 711 0
-83 -710 0
-119 712 0
-711 712 0
-119 -711 0
-155 713 0
-712 713 0
-155 -712 0
-191 -713 0
11 47 83 119 155 191 0
-12 715 0
-48 716 0
-715 716 0
-48 -715 0
-84 717 0
-716 717 0
-84 -716 0
-120 718 0
-717 718 0
-120 -717 0
-156 719 0
-718 719 0
-156 -718 0
-192 -719 0
12 48 84 120 156 192 0
-13 721 0
-49 722 0
-721 722 0
-49 -721 0
-85 723 0
-722 723 0
-85 -722 0
-121 724 0
-723 724 0
-121 -723 0
-157 725 0
-724 725 0
-157 -724 0
-193 -725 0
13 49 85 121 157 193 0
-14 727 0
-50 728 0
-727 728 0
-50 -727 0
-86 729 0
-728 729 0
-86 -728 0
-122 730 0
-729 730 0
-122 -729 0
-158 731 0
-730 731 0
-158 -730 0
-194 -731 0
14 50 86 122 158 194 0
-15 733 0
-51 734 0
-733 734 0
-51 -733 0
-87 735 0
-734 735 0
-87 -734 0
-123 736 0
-735 736 0
-123 -735 0
-159 737 0
-736 737 0
-159 -736 0
-195 -737 0
15 51 87 123 159 195 0
-16 739 0
-52 740 0
-739 740 0
-52 -739 0
-88 741 0
-740 741 0
-88 -740 0
-124 742 0
-741 742 0
-124 -741 0
-160 743 0
-742 743 0
-160 -742 0
-196 -743 0
16 52 88 124 160 196 0
-17 745 0
-53 746 0
-745 746 0
-53 -745 0
-89 747 0
-746 747 0
-89 -746 0
-125 748 0
-747 748 0
-125 -747 0
-161 749 0
-748 749 0
-161 -748 0
-197 -749 0
17 53 89 125 161 197 0
-18 751 0
-54 752 0
-751 752 0
-54 -751 0
-90 753 0
-752 753 0
-90 -752 0
-126 754 0
-753 754 0
-126 -753 0
-162 755 0
-754 755 0
-162 -754 0
-198 -755 0
18 54 90 126 162 198 0
-19 757 0
-55 758 0
-757 758 0
-55 -757 0
-91 759 0
-758 759 0
-91 -758 0
-127 760 0
-759 760 0
-127 -759 0
-163 761 0
-760 761 0
-163 -760 0
-199 -761 0
19 55 91 127 163 199 0
-20 763 0
-56 764 0
-763 764 0
-56 -763 0
-92 765 0
-764 765 0
-92 -764 0
-128 766 0
-765 766 0
-128 -765 0
-164 767 0
-766 767 0
-164 -766 0
-200 -767 0
20 56 92 128 164 200 0
-21 769 0
-57 770 0
-769 770 0
-57 -769 0
-93 771 0
-770 771 0
-93 -770 0
-129 772 0
-771 772 0
-129 -771 0
-165 773 0
-772 773 0
-165 -772 0
-201 -773 0
21 57 93 129 165 201 0
-22 775 0
-58 776 0
-775 776 0
-58 -775 0
-94 777 0
-776 777 0
-94 -776 0
-130 778 0
-777 778 0
-130 -777 0
-166 779 0
-778 779 0
-166 -778 0
-202 -779 0
22 58 94 130 166 202 0
-23 781 0
-59 782 0
-781 782 0
-59 -781 0
-95 783 0
-782 783 0
-95 -782 0
-131 784 0
-783 784 0
-131 -783 0
-167 785 0
-784 785 0
-167 -784 0
-203 -785 0
23 59 95 131 167 203 0
-24 787 0
-60 788 0
-787 788 0
-60 -787 0
-96 789 0
-788 789 0
-96 -788 0
-132 790 0
-789 790 0
-132 -789 0
-168 791 0
-790 791 0
-168 -790 0
-204 -791 0
24 60 96 132 168 204 0
-25 793 0
-61 794 0
-793 794 0
-61 -793 0
-97 795 0
-794 795 0
-97 -794 0
-133 796 0
-795 796 0
-133 -795 0
-169 797 0
-796 797 0
-169 -796 0
-205 -797 0
25 61 97 133 169 205 0
-26 799 0
-62 800 0
-799 800 0
-62 -799 0
-98 801 0
-800 801 0
-98 -800 0
-134 802 0
-801 802 0
-134 -801 0
-170 803 0
-802 803 0
-170 -802 0
-206 -803 0
26 62 98 134 170 206 0
-27 805 0
-63 806 0
-805 806 0
-63 -805 0
-99 807 0
-806 807 0
-99 -806 0
-135 808 0
-807 808 0
-135 -807 0
-171 809 0
-808 809 0
-171 -808 0
-207 -809 0
27 63 99 135 171 207 0
-28 811 0
-64 812 0
-811 812 0
-64 -811 0
-100 813 0
-812 813 0
-100 -812 0
-136 814 0
-813 814 0
-136 -813 0
-172 815 0
-814 815 0
-172 -814 0
-208 -815 0
28 64 100 136 172 208 0
-29 817 0
-65 818 0
-817 818 0
-65 -817 0
-101 819 0
-818 819 0
-101 -818 0
-137 820 0
-819 820 0
-137 -819 0
-173 821 0
-820 821 0
-173 -820 0
-209 -821 0
29 65 101 137 173 209 0
-30 823 0
-66 824 0
-823 824 0
-66 -823 0
-102 825 0
-824 825 0
-102 -824 0
-138 826 0
-825 826 0
-138 -825 0
-174 827 0
-826 827 0
-174 -826 0
-210 -827 0
30 66 102 138 174 210 0
-31 829 0
-67 830 0
-829 830 0
-67 -829 0
-103 831 0
-830 831 0
-103 -830 0
-139 832 0
-831 832 0
-139 -831 0
-175 833 0
-832 833 0
-175 -832 0
-211 -833 0
31 67 103 139 175 211 0
-32 835 0
-68 836 0
-835 836 0
-68 -835 0
-104 837 0
-836 837 0
-104 -836 0
-140 838 0
-837 838 0
-140 -837 0
-176 839 0
-838 839 0
-176 -838 0
-212 -839 0
32 68 104 140 176 212 0
-33 841 0
-69 842 0
-841 842 0
-69 -841 0
-105 843 0
-842 843 0
-105 -842 0
-141 844 0
-843 844 0
-141 -843 0
-177 845 0
-844 845 0
-177 -844 0
-213 -845 0
33 69 105 141 177 213 0
-34 847 0
-70 848 0
-847 848 0
-70 -847 0
-106 849 0
-848 849 0
-106 -848 0
-142 850 0
-849 850 0
-142 -849 0
-178 851 0
-850 851 0
-178 -850 0
-214 -851 0
34 70 106 142 178 214 0
-35 853 0
-71 854 0
-853 854 0
-71 -853 0
-107 855 0
-854 855 0
-107 -854 0
-143 856 0
-855 856 0
-143 -855 0
-179 857 0
-856 857 0
-179 -856 0
-215 -857 0
35 71 107 143 179 215 0
-36 859 0
-72 860 0
-859 860 0
-72 -859 0
-108 861 0
-860 861 0
-108 -860 0
-144 862 0
-861 862 0
-144 -861 0
-180 863 0
-862 863 0
-180 -862 0
-216 -863 0
36 72 108 144 180 216 0
-865 871 0
-872 0
-873 0
-874 0
-866 875 0
-871 875 0
-866 -871 876 0
-872 876 0
-866 -872 877 0
-873 877 0
-866 -873 878 0
-874 878 0
-866 -874 0
-867 879 0
-875 879 0
-867 -875 880 0
-876 880 0
-867 -876 881 0
-877 881 0
-867 -877 882 0
-878 882 0
-867 -878 0
-868 883 0
-879 883 0
-868 -879 884 0
-880 884 0
-868 -880 885 0
-881 885 0
-868 -881 886 0
-882 886 0
-868 -882 0
-869 887 0
-883 887 0
-869 -883 888 0
-884 888 0
-869 -884 889 0
-885 889 0
-869 -885 890 0
-886 890 0
-869 -886 0
-870 -890 0
865 895 0
-896 0
866 897 0
-895 897 0
866 -895 898 0
-896 898 0
866 -896 0
867 899 0
-897 899 0
867 -897 900 0
-898 900 0
867 -898 0
868 901 0
-899 901 0
868 -899 902 0
-900 902 0
868 -900 0
869 903 0
-901 903 0
869 -901 904 0
-902 904 0
869 -902 0
870 -904 0
-25 907 0
-67 908 0
-907 908 0
-67 -907 0
-865 -908 0
25 67 865 0
-26 910 0
-68 911 0
-910 911 0
-68 -910 0
-866 -911 0
26 68 866 0
-27 913 0
-69 914 0
-913 914 0
-69 -913 0
-867 -914 0
27 69 867 0
-28 916 0
-70 917 0
-916 917 0
-70 -916 0
-868 -917 0
28 70 868 0
-29 919 0
-71 920 0
-919 920 0
-71 -919 0
-869 -920 0
29 71 869 0
-30 922 0
-72 923 0
-922 923 0
-72 -922 0
-870 -923 0
30 72 870 0
-925 931 0
-932 0
-933 0
-926 934 0
-931 934 0
-926 -931 935 0
-932 935 0
-926 -932 936 0
-933 936 0
-926 -933 0
-927 937 0
-934 937 0
-927 -934 938 0
-935 938 0
-927 -935 939 0
-936 939 0
-927 -936 0
-928 940 0
-937 940 0
-928 -937 941 0
-938 941 0
-928 -938 942 0
-939 942 0
-928 -939 0
-929 943 0
-940 943 0
-929 -940 944 0
-941 944 0
-929 -941 945 0
-942 945 0
-929 -942 0
-930 -945 0
925 949 0
-950 0
-951 0
926 952 0
-949 952 0
926 -949 953 0
-950 953 0
926 -950 954 0
-951 954 0
926 -951 0
927 955 0
-952 955 0
927 -952 956 0
-953 956 0
927 -953 957 0
-954 957 0
927 -954 0
928 958 0
-955 958 0
928 -955 959 0
-956 959 0
928 -956 960 0
-957 960 0
928 -957 0
929 961 0
-958 961 0
929 -958 962 0
-959 962 0
929 -959 963 0
-960 963 0
929 -960 0
930 -963 0
-19 967 0
-61 968 0
-967 968 0
-61 -967 0
-103 969 0
-968 969 0
-103 -968 0
-925 -969 0
19 61 103 925 0
-20 971 0
-62 972 0
-971 972 0
-62 -971 0
-104 973 0
-972 973 0
-104 -972 0
-926 -973 0
20 62 104 926 0
-21 975 0
-63 976 0
-975 976 0
-63 -975 0
-105 977 0
-976 977 0
-105 -976 0
-927 -977 0
21 63 105 927 0
-22 979 0
-64 980 0
-979 980 0
-64 -979 0
-106 981 0
-980 981 0
-106 -980 0
-928 -981 0
22 64 106 928 0
-23 983 0
-65 984 0
-983 984 0
-65 -983 0
-107 985 0
-984 985 0
-107 -984 0
-929 -985 0
23 65 107 929 0
-24 987 0
-66 988 0
-987 988 0
-66 -987 0
-108 989 0
-988 989 0
-108 -988 0
-930 -989 0
24 66 108 930 0
-991 997 0
-998 0
-992 999 0
-997 999 0
-992 -997 1000 0
-998 1000 0
-992 -998 0
-993 1001 0
-999 1001 0
-993 -999 1002 0
-1000 1002 0
-993 -1000 0
-994 1003 0
-1001 1003 0
-994 -1001 1004 0
-1002 1004 0
-994 -1002 0
-995 1005 0
-1003 1005 0
-995 -1003 1006 0
-1004 1006 0
-995 -1004 0
-996 -1006 0
991 1009 0
-1010 0
-1011 0
-1012 0
992 1013 0
-1009 1013 0
992 -1009 1014 0
-1010 1014 0
992 -1010 1015 0
-1011 1015 0
992 -1011 1016 0
-1012 1016 0
992 -1012 0
993 1017 0
-1013 1017 0
993 -1013 1018 0
-1014 1018 0
993 -1014 1019 0
-1015 1019 0
993 -1015 1020 0
-1016 1020 0
993 -1016 0
994 1021 0
-1017 1021 0
994 -1017 1022 0
-1018 1022 0
994 -1018 1023 0
-1019 1023 0
994 -1019 1024 0
-1020 1024 0
994 -1020 0
995 1025 0
-1021 1025 0
995 -1021 1026 0
-1022 1026 0
995 -1022 1027 0
-1023 1027 0
995 -1023 1028 0
-1024 1028 0
995 -1024 0
996 -1028 0
-13 1033 0
-55 1034 0
-1033 1034 0
-55 -1033 0
-97 1035 0
-1034 1035 0
-97 -1034 0
-139 1036 0
-1035 1036 0
-139 -1035 0
-991 -1036 0
13 55 97 139 991 0
-14 1038 0
-56 1039 0
-1038 1039 0
-56 -1038 0
-98 1040 0
-1039 1040 0
-98 -1039 0
-140 1041 0
-1040 1041 0
-140 -1040 0
-992 -1041 0
14 56 98 140 992 0
-15 1043 0
-57 1044 0
-1043 1044 0
-57 -1043 0
-99 1045 0
-1044 1045 0
-99 -1044 0
-141 1046 0
-1045 1046 0
-141 -1045 0
-993 -1046 0
15 57 99 141 993 0
-16 1048 0
-58 1049 0
-1048 1049 0
-58 -1048 0
-100 1050 0
-1049 1050 0
-100 -1049 0
-142 1051 0
-1050 1051 0
-142 -1050 0
-994 -1051 0
16 58 100 142 994 0
-17 1053 0
-59 1054 0
-1053 1054 0
-59 -1053 0
-101 1055 0
-1054 1055 0
-101 -1054 0
-143 1056 0
-1055 1056 0
-143 -1055 0
-995 -1056 0
17 59 101 143 995 0
-18 1058 0
-60 1059 0
-1058 1059 0
-60 -1058 0
-102 1060 0
-1059 1060 0
-102 -1059 0
-144 1061 0
-1060 1061 0
-144 -1060 0
-996 -1061 0
18 60 102 144 996 0
-1063 1069 0
-1064 1070 0
-1069 1070 0
-1064 -1069 0
-1065 1071 0
-1070 1071 0
-1065 -1070 0
-1066 1072 0
-1071 1072 0
-1066 -1071 0
-1067 1073 0
-1072 1073 0
-1067 -1072 0
-1068 -1073 0
1063 1075 0
-1076 0
-1077 0
-1078 0
-1079 0
1064 1080 0
-1075 1080 0
1064 -1075 1081 0
-1076 1081 0
1064 -1076 1082 0
-1077 1082 0
1064 -1077 1083 0
-1078 1083 0
1064 -1078 1084 0
-1079 1084 0
1064 -1079 0
1065 1085 0
-1080 1085 0
1065 -1080 1086 0
-1081 1086 0
1065 -1081 1087 0
-1082 1087 0
1065 -1082 1088 0
-1083 1088 0
1065 -1083 1089 0
-1084 1089 0
1065 -1084 0
1066 1090 0
-1085 1090 0
1066 -1085 1091 0
-1086 1091 0
1066 -1086 1092 0
-1087 1092 0
1066 -1087 1093 0
-1088 1093 0
1066 -1088 1094 0
-1089 1094 0
1066 -1089 0
1067 1095 0
-1090 1095 0
1067 -1090 1096 0
-1091 1096 0
1067 -1091 1097 0
-1092 1097 0
1067 -1092 1098 0
-1093 1098 0
1067 -1093 1099 0
-1094 1099 0
1067 -1094 0
1068 -1099 0
-7 1105 0
-49 1106 0
-1105 1106 0
-49 -1105 0
-91 1107 0
-1106 1107 0
-91 -1106 0
-133 1108 0
-1107 1108 0
-133 -1107 0
-175 1109 0
-1108 1109 0
-175 -1108 0
-1063 -1109 0
7 49 91 133 175 1063 0
-8 1111 0
-50 1112 0
-1111 1112 0
-50 -1111 0
-92 1113 0
-1112 1113 0
-92 -1112 0
-134 1114 0
-1113 1114 0
-134 -1113 0
-176 1115 0
-1114 1115 0
-176 -1114 0
-1064 -1115 0
8 50 92 134 176 1064 0
-9 1117 0
-51 1118 0
-1117 1118 0
-51 -1117 0
-93 1119 0
-1118 1119 0
-93 -1118 0
-135 1120 0
-1119 1120 0
-135 -1119 0
-177 1121 0
-1120 1121 0
-177 -1120 0
-1065 -1121 0
9 51 93 135 177 1065 0
-10 1123 0
-52 1124 0
-1123 1124 0
-52 -1123 0
-94 1125 0
-1124 1125 0
-94 -1124 0
-136 1126 0
-1125 1126 0
-136 -1125 0
-178 1127 0
-1126 1127 0
-178 -1126 0
-1066 -1127 0
10 52 94 136 178 1066 0
-11 1129 0
-53 1130 0
-1129 1130 0
-53 -1129 0
-95 1131 0
-1130 1131 0
-95 -1130 0
-137 1132 0
-1131 1132 0
-137 -1131 0
-179 1133 0
-1132 1133 0
-179 -1132 0
-1067 -1133 0
11 53 95 137 179 1067 0
-12 1135 0
-54 1136 0
-1135 1136 0
-54 -1135 0
-96 1137 0
-1136 1137 0
-96 -1136 0
-138 1138 0
-1137 1138 0
-138 -1137 0
-180 1139 0
-1138 1139 0
-180 -1138 0
-1068 -1139 0
12 54 96 138 180 1068 0
-1 1141 0
-43 1142 0
-1141 1142 0
-43 -1141 0
-85 1143 0
-1142 1143 0
-85 -1142 0
-127 1144 0
-1143 1144 0
-127 -1143 0
-169 1145 0
-1144 1145 0
-169 -1144 0
-211 -1145 0
1 43 85 127 169 211 0
-2 1147 0
-44 1148 0
-1147 1148 0
-44 -1147 0
-86 1149 0
-1148 1149 0
-86 -1148 0
-128 1150 0
-1149 1150 0
-128 -1149 0
-170 1151 0
-1150 1151 0
-170 -1150 0
-212 -1151 0
2 44 86 128 170 212 0
-3 1153 0
-45 1154 0
-1153 1154 0
-45 -1153 0
-87 1155 0
-1154 1155 0
-87 -1154 0
-129 1156 0
-1155 1156 0
-129 -1155 0
-171 1157 0
-1156 1157 0
-171 -1156 0
-213 -1157 0
3 45 87 129 171 213 0
-4 1159 0
-46 1160 0
-1159 1160 0
-46 -1159 0
-88 1161 0
-1160 1161 0
-88 -1160 0
-130 1162 0
-1161 1162 0
-130 -1161 0
-172 1163 0
-1162 1163 0
-172 -1162 0
-214 -1163 0
4 46 88 130 172 214 0
-5 1165 0
-47 1166 0
-1165 1166 0
-47 -1165 0
-89 1167 0
-1166 1167 0
-89 -1166 0
-131 1168 0
-1167 1168 0
-131 -1167 0
-173 1169 0
-1168 1169 0
-173 -1168 0
-215 -1169 0
5 47 89 131 173 215 0
-6 1171 0
-48 1172 0
-1171 1172 0
-48 -1171 0
-90 1173 0
-1172 1173 0
-90 -1172 0
-132 1174 0
-1173 1174 0
-132 -1173 0
-174 1175 0
-1174 1175 0
-174 -1174 0
-216 -1175 0
6 48 90 132 174 216 0
-1177 1183 0
-1178 1184 0
-1183 1184 0
-1178 -1183 0
-1179 1185 0
-1184 1185 0
-1179 -1184 0
-1180 1186 0
-1185 1186 0
-1180 -1185 0
-1181 1187 0
-1186 1187 0
-1181 -1186 0
-1182 -1187 0
1177 1189 0
-1190 0
-1191 0
-1192 0
-1193 0
1178 1194 0
-1189 1194 0
1178 -1189 1195 0
-1190 1195 0
1178 -1190 1196 0
-1191 1196 0
1178 -1191 1197 0
-1192 1197 0
1178 -1192 1198 0
-1193 1198 0
1178 -1193 0
1179 1199 0
-1194 1199 0
1179 -1194 1200 0
-1195 1200 0
1179 -1195 1201 0
-1196 1201 0
1179 -1196 1202 0
-1197 1202 0
1179 -1197 1203 0
-1198 1203 0
1179 -1198 0
1180 1204 0
-1199 1204 0
1180 -1199 1205 0
-1200 1205 0
1180 -1200 1206 0
-1201 1206 0
1180 -1201 1207 0
-1202 1207 0
1180 -1202 1208 0
-1203 1208 0
1180 -1203 0
1181 1209 0
-1204 1209 0
1181 -1204 1210 0
-1205 1210 0
1181 -1205 1211 0
-1206 1211 0
1181 -1206 1212 0
-1207 1212 0
1181 -1207 1213 0
-1208 1213 0
1181 -1208 0
1182 -1213 0
-37 1219 0
-79 1220 0
-1219 1220 0
-79 -1219 0
-121 1221 0
-1220 1221 0
-121 -1220 0
-163 1222 0
-1221 1222 0
-163 -1221 0
-205 1223 0
-1222 1223 0
-205 -1222 0
-1177 -1223 0
37 79 121 163 205 1177 0
-38 1225 0
-80 1226 0
-1225 1226 0
-80 -1225 0
-122 1227 0
-1226 1227 0
-122 -1226 0
-164 1228 0
-1227 1228 0
-164 -1227 0
-206 1229 0
-1228 1229 0
-206 -1228 0
-1178 -1229 0
38 80 122 164 206 1178 0
-39 1231 0
-81 1232 0
-1231 1232 0
-81 -1231 0
-123 1233 0
-1232 1233 0
-123 -1232 0
-165 1234 0
-1233 1234 0
-165 -1233 0
-207 1235 0
-1234 1235 0
-207 -1234 0
-1179 -1235 0
39 81 123 165 207 1179 0
-40 1237 0
-82 1238 0
-1237 1238 0
-82 -1237 0
-124 1239 0
-1238 1239 0
-124 -1238 0
-166 1240 0
-1239 1240 0
-166 -1239 0
-208 1241 0
-1240 1241 0
-208 -1240 0
-1180 -1241 0
40 82 124 166 208 1180 0
-41 1243 0
-83 1244 0
-1243 1244 0
-83 -1243 0
-125 1245 0
-1244 1245 0
-125 -1244 0
-167 1246 0
-1245 1246 0
-167 -1245 0
-209 1247 0
-1246 1247 0
-209 -1246 0
-1181 -1247 0
41 83 125 167 209 1181 0
-42 1249 0
-84 1250 0
-1249 1250 0
-84 -1249 0
-126 1251 0
-1250 1251 0
-126 -1250 0
-168 1252 0
-1251 1252 0
-168 -1251 0
-210 1253 0
-1252 1253 0
-210 -1252 0
-1182 -1253 0
42 84 126 168 210 1182 0
-1255 1261 0
-1262 0
-1256 1263 0
-1261 1263 0
-1256 -1261 1264 0
-1262 1264 0
-1256 -1262 0
-1257 1265 0
-1263 1265 0
-1257 -1263 1266 0
-1264 1266 0
-1257 -1264 0
-1258 1267 0
-1265 1267 0
-1258 -1265 1268 0
-1266 1268 0
-1258 -1266 0
-1259 1269 0
-1267 1269 0
-1259 -1267 1270 0
-1268 1270 0
-1259 -1268 0
-1260 -1270 0
1255 1273 0
-1274 0
-1275 0
-1276 0
1256 1277 0
-1273 1277 0
1256 -1273 1278 0
-1274 1278 0
1256 -1274 1279 0
-1275 1279 0
1256 -1275 1280 0
-1276 1280 0
1256 -1276 0
1257 1281 0
-1277 1281 0
1257 -1277 1282 0
-1278 1282 0
1257 -1278 1283 0
-1279 1283 0
1257 -1279 1284 0
-1280 1284 0
1257 -1280 0
1258 1285 0
-1281 1285 0
1258 -1281 1286 0
-1282 1286 0
1258 -1282 1287 0
-1283 1287 0
1258 -1283 1288 0
-1284 1288 0
1258 -1284 0
1259 1289 0
-1285 1289 0
1259 -1285 1290 0
-1286 1290 0
1259 -1286 1291 0
-1287 1291 0
1259 -1287 1292 0
-1288 1292 0
1259 -1288 0
1260 -1292 0
-73 1297 0
-115 1298 0
-1297 1298 0
-115 -1297 0
-157 1299 0
-1298 1299 0
-157 -1298 0
-199 1300 0
-1299 1300 0
-199 -1299 0
-1255 -1300 0
73 115 157 199 1255 0
-74 1302 0
-116 1303 0
-1302 1303 0
-116 -1302 0
-158 1304 0
-1303 1304 0
-158 -1303 0
-200 1305 0
-1304 1305 0
-200 -1304 0
-1256 -1305 0
74 116 158 200 1256 0
-75 1307 0
-117 1308 0
-1307 1308 0
-117 -1307 0
-159 1309 0
-1308 1309 0
-159 -1308 0
-201 1310 0
-1309 1310 0
-201 -1309 0
-1257 -1310 0
75 117 159 201 1257 0
-76 1312 0
-118 1313 0
-1312 1313 0
-118 -1312 0
-160 1314 0
-1313 1314 0
-160 -1313 0
-202 1315 0
-1314 1315 0
-202 -1314 0
-1258 -1315 0
76 118 160 202 1258 0
-77 1317 0
-119 1318 0
-1317 1318 0
-119 -1317 0
-161 1319 0
-1318 1319 0
-161 -1318 0
-203 1320 0
-1319 1320 0
-203 -1319 0
-1259 -1320 0
77 119 161 203 1259 0
-78 1322 0
-120 1323 0
-1322 1323 0
-120 -1322 0
-162 1324 0
-1323 1324 0
-162 -1323 0
-204 1325 0
-1324 1325 0
-204 -1324 0
-1260 -1325 0
78 120 162 204 1260 0
-1327 1333 0
-1334 0
-1335 0
-1328 1336 0
-1333 1336 0
-1328 -1333 1337 0
-1334 1337 0
-1328 -1334 1338 0
-1335 1338 0
-1328 -1335 0
-1329 1339 0
-1336 1339 0
-1329 -1336 1340 0
-1337 1340 0
-1329 -1337 1341 0
-1338 1341 0
-1329 -1338 0
-1330 1342 0
-1339 1342 0
-1330 -1339 1343 0
-1340 1343 0
-1330 -1340 1344 0
-1341 1344 0
-1330 -1341 0
-1331 1345 0
-1342 1345 0
-1331 -1342 1346 0
-1343 1346 0
-1331 -1343 1347 0
-1344 1347 0
-1331 -1344 0
-1332 -1347 0
1327 1351 0
-1352 0
-1353 0
1328 1354 0
-1351 1354 0
1328 -1351 1355 0
-1352 1355 0
1328 -1352 1356 0
-1353 1356 0
1328 -1353 0
1329 1357 0
-1354 1357 0
1329 -1354 1358 0
-1355 1358 0
1329 -1355 1359 0
-1356 1359 0
1329 -1356 0
1330 1360 0
-1357 1360 0
1330 -1357 1361 0
-1358 1361 0
1330 -1358 1362 0
-1359 1362 0
1330 -1359 0
1331 1363 0
-1360 1363 0
1331 -1360 1364 0
-1361 1364 0
1331 -1361 1365 0
-1362 1365 0
1331 -1362 0
1332 -1365 0
-109 1369 0
-151 1370 0
-1369 1370 0
-151 -1369 0
-193 1371 0
-1370 1371 0
-193 -1370 0
-1327 -1371 0
109 151 193 1327 0
-110 1373 0
-152 1374 0
-1373 1374 0
-152 -1373 0
-194 1375 0
-1374 1375 0
-194 -1374 0
-1328 -1375 0
110 152 194 1328 0
-111 1377 0
-153 1378 0
-1377 1378 0
-153 -1377 0
-195 1379 0
-1378 1379 0
-195 -1378 0
-1329 -1379 0
111 153 195 1329 0
-112 1381 0
-154 1382 0
-1381 1382 0
-154 -1381 0
-196 1383 0
-1382 1383 0
-196 -1382 0
-1330 -1383 0
112 154 196 1330 0
-113 1385 0
-155 1386 0
-1385 1386 0
-155 -1385 0
-197 1387 0
-1386 1387 0
-197 -1386 0
-1331 -1387 0
113 155 197 1331 0
-114 1389 0
-156 1390 0
-1389 1390 0
-156 -1389 0
-198 1391 0
-1390 1391 0
-198 -1390 0
-1332 -1391 0
114 156 198 1332 0
-1393 1399 0
-1400 0
-1401 0
-1402 0
-1394 1403 0
-1399 1403 0
-1394 -1399 1404 0
-1400 1404 0
-1394 -1400 1405 0
-1401 1405 0
-1394 -1401 1406 0
-1402 1406 0
-1394 -1402 0
-1395 1407 0
-1403 1407 0
-1395 -1403 1408 0
-1404 1408 0
-1395 -1404 1409 0
-1405 1409 0
-1395 -1405 1410 0
-1406 1410 0
-1395 -1406 0
-1396 1411 0
-1407 1411 0
-1396 -1407 1412 0
-1408 1412 0
-1396 -1408 1413 0
-1409 1413 0
-1396 -1409 1414 0
-1410 1414 0
-1396 -1410 0
-1397 1415 0
-1411 1415 0
-1397 -1411 1416 0
-1412 1416 0
-1397 -1412 1417 0
-1413 1417 0
-1397 -1413 1418 0
-1414 1418 0
-1397 -1414 0
-1398 -1418 0
1393 1423 0
-1424 0
1394 1425 0
-1423 1425 0
1394 -1423 1426 0
-1424 1426 0
1394 -1424 0
1395 1427 0
-1425 1427 0
1395 -1425 1428 0
-1426 1428 0
1395 -1426 0
1396 1429 0
-1427 1429 0
1396 -1427 1430 0
-1428 1430 0
1396 -1428 0
1397 1431 0
-1429 1431 0
1397 -1429 1432 0
-1430 1432 0
1397 -1430 0
1398 -1432 0
-145 1435 0
-187 1436 0
-1435 1436 0
-187 -1435 0
-1393 -1436 0
145 187 1393 0
-146 1438 0
-188 1439 0
-1438 1439 0
-188 -1438 0
-1394 -1439 0
146 188 1394 0
-147 1441 0
-189 1442 0
-1441 1442 0
-189 -1441 0
-1395 -1442 0
147 189 1395 0
-148 1444 0
-190 1445 0
-1444 1445 0
-190 -1444 0
-1396 -1445 0
148 190 1396 0
-149 1447 0
-191 1448 0
-1447 1448 0
-191 -1447 0
-1397 -1448 0
149 191 1397 0
-150 1450 0
-192 1451 0
-1450 1451 0
-192 -1450 0
-1398 -1451 0
150 192 1398 0
-1453 1459 0
-1460 0
-1461 0
-1462 0
-1454 1463 0
-1459 1463 0
-1454 -1459 1464 0
-1460 1464 0
-1454 -1460 1465 0
-1461 1465 0
-1454 -1461 1466 0
-1462 1466 0
-1454 -1462 0
-1455 1467 0
-1463 1467 0
-1455 -1463 1468 0
-1464 1468 0
-1455 -1464 1469 0
-1465 1469 0
-1455 -1465 1470 0
-1466 1470 0
-1455 -1466 0
-1456 1471 0
-1467 1471 0
-1456 -1467 1472 0
-1468 1472 0
-1456 -1468 1473 0
-1469 1473 0
-1456 -1469 1474 0
-1470 1474 0
-1456 -1470 0
-1457 1475 0
-1471 1475 0
-1457 -1471 1476 0
-1472 1476 0
-1457 -1472 1477 0
-1473 1477 0
-1457 -1473 1478 0
-1474 1478 0
-1457 -1474 0
-1458 -1478 0
1453 1483 0
-1484 0
1454 1485 0
-1483 1485 0
1454 -1483 1486 0
-1484 1486 0
1454 -1484 0
1455 1487 0
-1485 1487 0
1455 -1485 1488 0
-1486 1488 0
1455 -1486 0
1456 1489 0
-1487 1489 0
1456 -1487 1490 0
-1488 1490 0
1456 -1488 0
1457 1491 0
-1489 1491 0
1457 -1489 1492 0
-1490 1492 0
1457 -1490 0
1458 -1492 0
-7 1495 0
-37 1496 0
-1495 1496 0
-37 -1495 0
-1453 -1496 0
7 37 1453 0
-8 1498 0
-38 1499 0
-1498 1499 0
-38 -1498 0
-1454 -1499 0
8 38 1454 0
-9 1501 0
-39 1502 0
-1501 1502 0
-39 -1501 0
-1455 -1502 0
9 39 1455 0
-10 1504 0
-40 1505 0
-1504 1505 0
-40 -1504 0
-1456 -1505 0
10 40 1456 0
-11 1507 0
-41 1508 0
-1507 1508 0
-41 -1507 0
-1457 -1508 0
11 41 1457 0
-12 1510 0
-42 1511 0
-1510 1511 0
-42 -1510 0
-1458 -1511 0
12 42 1458 0
-1513 1519 0
-1520 0
-1521 0
-1514 1522 0
-1519 1522 0
-1514 -1519 1523 0
-1520 1523 0
-1514 -1520 1524 0
-1521 1524 0
-1514 -1521 0
-1515 1525 0
-1522 1525 0
-1515 -1522 1526 0
-1523 1526 0
-1515 -1523 1527 0
-1524 1527 0
-1515 -1524 0
-1516 1528 0
-1525 1528 0
-1516 -1525 1529 0
-1526 1529 0
-1516 -1526 1530 0
-1527 1530 0
-1516 -1527 0
-1517 1531 0
-1528 1531 0
-1517 -1528 1532 0
-1529 1532 0
-1517 -1529 1533 0
-1530 1533 0
-1517 -1530 0
-1518 -1533 0
1513 1537 0
-1538 0
-1539 0
1514 1540 0
-1537 1540 0
1514 -1537 1541 0
-1538 1541 0
1514 -1538 1542 0
-1539 1542 0
1514 -1539 0
1515 1543 0
-1540 1543 0
1515 -1540 1544 0
-1541 1544 0
1515 -1541 1545 0
-1542 1545 0
1515 -1542 0
1516 1546 0
-1543 1546 0
1516 -1543 1547 0
-1544 1547 0
1516 -1544 1548 0
-1545 1548 0
1516 -1545 0
1517 1549 0
-1546 1549 0
1517 -1546 1550 0
-1547 1550 0
1517 -1547 1551 0
-1548 1551 0
1517 -1548 0
1518 -1551 0
-13 1555 0
-43 1556 0
-1555 1556 0
-43 -1555 0
-73 1557 0
-1556 1557 0
-73 -1556 0
-1513 -1557 0
13 43 73 1513 0
-14 1559 0
-44 1560 0
-1559 1560 0
-44 -1559 0
-74 1561 0
-1560 1561 0
-74 -1560 0
-1514 -1561 0
14 44 74 1514 0
-15 1563 0
-45 1564 0
-1563 1564 0
-45 -1563 0
-75 1565 0
-1564 1565 0
-75 -1564 0
-1515 -1565 0
15 45 75 1515 0
-16 1567 0
-46 1568 0
-1567 1568 0
-46 -1567 0
-76 1569 0
-1568 1569 0
-76 -1568 0
-1516 -1569 0
16 46 76 1516 0
-17 1571 0
-47 1572 0
-1571 1572 0
-47 -1571 0
-77 1573 0
-1572 1573 0
-77 -1572 0
-1517 -1573 0
17 47 77 1517 0
-18 1575 0
-48 1576 0
-1575 1576 0
-48 -1575 0
-78 1577 0
-1576 1577 0
-78 -1576 0
-1518 -1577 0
18 48 78 1518 0
-1579 1585 0
-1586 0
-1580 1587 0
-1585 1587 0
-1580 -1585 1588 0
-1586 1588 0
-1580 -1586 0
-1581 1589 0
-1587 1589 0
-1581 -1587 1590 0
-1588 1590 0
-1581 -1588 0
-1582 1591 0
-1589 1591 0
-1582 -1589 1592 0
-1590 1592 0
-1582 -1590 0
-1583 1593 0
-1591 1593 0
-1583 -1591 1594 0
-1592 1594 0
-1583 -1592 0
-1584 -1594 0
1579 1597 0
-1598 0
-1599 0
-1600 0
1580 1601 0
-1597 1601 0
1580 -1597 1602 0
-1598 1602 0
1580 -1598 1603 0
-1599 1603 0
1580 -1599 1604 0
-1600 1604 0
1580 -1600 0
1581 1605 0
-1601 1605 0
1581 -1601 1606 0
-1602 1606 0
1581 -1602 1607 0
-1603 1607 0
1581 -1603 1608 0
-1604 1608 0
1581 -1604 0
1582 1609 0
-1605 1609 0
1582 -1605 1610 0
-1606 1610 0
1582 -1606 1611 0
-1607 1611 0
1582 -1607 1612 0
-1608 1612 0
1582 -1608 0
1583 1613 0
-1609 1613 0
1583 -1609 1614 0
-1610 1614 0
1583 -1610 1615 0
-1611 1615 0
1583 -1611 1616 0
-1612 1616 0
1583 -1612 0
1584 -1616 0
-19 1621 0
-49 1622 0
-1621 1622 0
-49 -1621 0
-79 1623 0
-1622 1623 0
-79 -1622 0
-109 1624 0
-1623 1624 0
-109 -1623 0
-1579 -1624 0
19 49 79 109 1579 0
-20 1626 0
-50 1627 0
-1626 1627 0
-50 -1626 0
-80 1628 0
-1627 1628 0
-80 -1627 0
-110 1629 0
-1628 1629 0
-110 -1628 0
-1580 -1629 0
20 50 80 110 1580 0
-21 1631 0
-51 1632 0
-1631 1632 0
-51 -1631 0
-81 1633 0
-1632 1633 0
-81 -1632 0
-111 1634 0
-1633 1634 0
-111 -1633 0
-1581 -1634 0
21 51 81 111 1581 0
-22 1636 0
-52 1637 0
-1636 1637 0
-52 -1636 0
-82 1638 0
-1637 1638 0
-82 -1637 0
-112 1639 0
-1638 1639 0
-112 -1638 0
-1582 -1639 0
22 52 82 112 1582 0
-23 1641 0
-53 1642 0
-1641 1642 0
-53 -1641 0
-83 1643 0
-1642 1643 0
-83 -1642 0
-113 1644 0
-1643 1644 0
-113 -1643 0
-1583 -1644 0
23 53 83 113 1583 0
-24 1646 0
-54 1647 0
-1646 1647 0
-54 -1646 0
-84 1648 0
-1647 1648 0
-84 -1647 0
-114 1649 0
-1648 1649 0
-114 -1648 0
-1584 -1649 0
24 54 84 114 1584 0
-1651 1657 0
-1652 1658 0
-1657 1658 0
-1652 -1657 0
-1653 1659 0
-1658 1659 0
-1653 -1658 0
-1654 1660 0
-1659 1660 0
-1654 -1659 0
-1655 1661 0
-1660 1661 0
-1655 -1660 0
-1656 -1661 0
1651 1663 0
-1664 0
-1665 0
-1666 0
-1667 0
1652 1668 0
-1663 1668 0
1652 -1663 1669 0
-1664 1669 0
1652 -1664 1670 0
-1665 1670 0
1652 -1665 1671 0
-1666 1671 0
1652 -1666 1672 0
-1667 1672 0
1652 -1667 0
1653 1673 0
-1668 1673 0
1653 -1668 1674 0
-1669 1674 0
1653 -1669 1675 0
-1670 1675 0
1653 -1670 1676 0
-1671 1676 0
1653 -1671 1677 0
-1672 1677 0
1653 -1672 0
1654 1678 0
-1673 1678 0
1654 -1673 1679 0
-1674 1679 0
1654 -1674 1680 0
-1675 1680 0
1654 -1675 1681 0
-1676 1681 0
1654 -1676 1682 0
-1677 1682 0
1654 -1677 0
1655 1683 0
-1678 1683 0
1655 -1678 1684 0
-1679 1684 0
1655 -1679 1685 0
-1680 1685 0
1655 -1680 1686 0
-1681 1686 0
1655 -1681 1687 0
-1682 1687 0
1655 -1682 0
1656 -1687 0
-25 1693 0
-55 1694 0
-1693 1694 0
-55 -1693 0
-85 1695 0
-1694 1695 0
-85 -1694 0
-115 1696 0
-1695 1696 0
-115 -1695 0
-145 1697 0
-1696 1697 0
-145 -1696 0
-1651 -1697 0
25 55 85 115 145 1651 0
-26 1699 0
-56 1700 0
-1699 1700 0
-56 -1699 0
-86 1701 0
-1700 1701 0
-86 -1700 0
-116 1702 0
-1701 1702 0
-116 -1701 0
-146 1703 0
-1702 1703 0
-146 -1702 0
-1652 -1703 0
26 56 86 116 146 1652 0
-27 1705 0
-57 1706 0
-1705 1706 0
-57 -1705 0
-87 1707 0
-1706 1707 0
-87 -1706 0
-117 1708 0
-1707 1708 0
-117 -1707 0
-147 1709 0
-1708 1709 0
-147 -1708 0
-1653 -1709 0
27 57 87 117 147 1653 0
-28 1711 0
-58 1712 0
-1711 1712 0
-58 -1711 0
-88 1713 0
-1712 1713 0
-88 -1712 0
-118 1714 0
-1713 1714 0
-118 -1713 0
-148 1715 0
-1714 1715 0
-148 -1714 0
-1654 -1715 0
28 58 88 118 148 1654 0
-29 1717 0
-59 1718 0
-1717 1718 0
-59 -1717 0
-89 1719 0
-1718 1719 0
-89 -1718 0
-119 1720 0
-1719 1720 0
-119 -1719 0
-149 1721 0
-1720 1721 0
-149 -1720 0
-1655 -1721 0
29 59 89 119 149 1655 0
-30 1723 0
-60 1724 0
-1723 1724 0
-60 -1723 0
-90 1725 0
-1724 1725 0
-90 -1724 0
-120 1726 0
-1725 1726 0
-120 -1725 0
-150 1727 0
-1726 1727 0
-150 -1726 0
-1656 -1727 0
30 60 90 120 150 1656 0
-31 1729 0
-61 1730 0
-1729 1730 0
-61 -1729 0
-91 1731 0
-1730 1731 0
-91 -1730 0
-121 1732 0
-1731 1732 0
-121 -1731 0
-151 1733 0
-1732 1733 0
-151 -1732 0
-181 -1733 0
31 61 91 121 151 181 0
-32 1735 0
-62 1736 0
-1735 1736 0
-62 -1735 0
-92 1737 0
-1736 1737 0
-92 -1736 0
-122 1738 0
-1737 1738 0
-122 -1737 0
-152 1739 0
-1738 1739 0
-152 -1738 0
-182 -1739 0
32 62 92 122 152 182 0
-33 1741 0
-63 1742 0
-1741 1742 0
-63 -1741 0
-93 1743 0
-1742 1743 0
-93 -1742 0
-123 1744 0
-1743 1744 0
-123 -1743 0
-153 1745 0
-1744 1745 0
-153 -1744 0
-183 -1745 0
33 63 93 123 153 183 0
-34 1747 0
-64 1748 0
-1747 1748 0
-64 -1747 0
-94 1749 0
-1748 1749 0
-94 -1748 0
-124 1750 0
-1749 1750 0
-124 -1749 0
-154 1751 0
-1750 1751 0
-154 -1750 0
-184 -1751 0
34 64 94 124 154 184 0
-35 1753 0
-65 1754 0
-1753 1754 0
-65 -1753 0
-95 1755 0
-1754 1755 0
-95 -1754 0
-125 1756 0
-1755 1756 0
-125 -1755 0
-155 1757 0
-1756 1757 0
-155 -1756 0
-185 -1757 0
35 65 95 125 155 185 0
-36 1759 0
-66 1760 0
-1759 1760 0
-66 -1759 0
-96 1761 0
-1760 1761 0
-96 -1760 0
-126 1762 0
-1761 1762 0
-126 -1761 0
-156 1763 0
-1762 1763 0
-156 -1762 0
-186 -1763 0
36 66 96 126 156 186 0
-1765 1771 0
-1766 1772 0
-1771 1772 0
-1766 -1771 0
-1767 1773 0
-1772 1773 0
-1767 -1772 0
-1768 1774 0
-1773 1774 0
-1768 -1773 0
-1769 1775 0
-1774 1775 0
-1769 -1774 0
-1770 -1775 0
1765 1777 0
-1778 0
-1779 0
-1780 0
-1781 0
1766 1782 0
-1777 1782 0
1766 -1777 1783 0
-1778 1783 0
1766 -1778 1784 0
-1779 1784 0
1766 -1779 1785 0
-1780 1785 0
1766 -1780 1786 0
-1781 1786 0
1766 -1781 0
1767 1787 0
-1782 1787 0
1767 -1782 1788 0
-1783 1788 0
1767 -1783 1789 0
-1784 1789 0
1767 -1784 1790 0
-1785 1790 0
1767 -1785 1791 0
-1786 1791 0
1767 -1786 0
1768 1792 0
-1787 1792 0
1768 -1787 1793 0
-1788 1793 0
1768 -1788 1794 0
-1789 1794 0
1768 -1789 1795 0
-1790 1795 0
1768 -1790 1796 0
-1791 1796 0
1768 -1791 0
1769 1797 0
-1792 1797 0
1769 -1792 1798 0
-1793 1798 0
1769 -1793 1799 0
-1794 1799 0
1769 -1794 1800 0
-1795 1800 0
1769 -1795 1801 0
-1796 1801 0
1769 -1796 0
1770 -1801 0
-67 1807 0
-97 1808 0
-1807 1808 0
-97 -1807 0
-127 1809 0
-1808 1809 0
-127 -1808 0
-157 1810 0
-1809 1810 0
-157 -1809 0
-187 1811 0
-1810 1811 0
-187 -1810 0
-1765 -1811 0
67 97 127 157 187 1765 0
-68 1813 0
-98 1814 0
-1813 1814 0
-98 -1813 0
-128 1815 0
-1814 1815 0
-128 -1814 0
-158 1816 0
-1815 1816 0
-158 -1815 0
-188 1817 0
-1816 1817 0
-188 -1816 0
-1766 -1817 0
68 98 128 158 188 1766 0
-69 1819 0
-99 1820 0
-1819 1820 0
-99 -1819 0
-129 1821 0
-1820 1821 0
-129 -1820 0
-159 1822 0
-1821 1822 0
-159 -1821 0
-189 1823 0
-1822 1823 0
-189 -1822 0
-1767 -1823 0
69 99 129 159 189 1767 0
-70 1825 0
-100 1826 0
-1825 1826 0
-100 -1825 0
-130 1827 0
-1826 1827 0
-130 -1826 0
-160 1828 0
-1827 1828 0
-160 -1827 0
-190 1829 0
-1828 1829 0
-190 -1828 0
-1768 -1829 0
70 100 130 160 190 1768 0
-71 1831 0
-101 1832 0
-1831 1832 0
-101 -1831 0
-131 1833 0
-1832 1833 0
-131 -1832 0
-161 1834 0
-1833 1834 0
-161 -1833 0
-191 1835 0
-1834 1835 0
-191 -1834 0
-1769 -1835 0
71 101 131 161 191 1769 0
-72 1837 0
-102 1838 0
-1837 1838 0
-102 -1837 0
-132 1839 0
-1838 1839 0
-132 -1838 0
-162 1840 0
-1839 1840 0
-162 -1839 0
-192 1841 0
-1840 1841 0
-192 -1840 0
-1770 -1841 0
72 102 132 162 192 1770 0
-1843 1849 0
-1850 0
-1844 1851 0
-1849 1851 0
-1844 -1849 1852 0
-1850 1852 0
-1844 -1850 0
-1845 1853 0
-1851 1853 0
-1845 -1851 1854 0
-1852 1854 0
-1845 -1852 0
-1846 1855 0
-1853 1855 0
-1846 -1853 1856 0
-1854 1856 0
-1846 -1854 0
-1847 1857 0
-1855 1857 0
-1847 -1855 1858 0
-1856 1858 0
-1847 -1856 0
-1848 -1858 0
1843 1861 0
-1862 0
-1863 0
-1864 0
1844 1865 0
-1861 1865 0
1844 -1861 1866 0
-1862 1866 0
1844 -1862 1867 0
-1863 1867 0
1844 -1863 1868 0
-1864 1868 0
1844 -1864 0
1845 1869 0
-1865 1869 0
1845 -1865 1870 0
-1866 1870 0
1845 -1866 1871 0
-1867 1871 0
1845 -1867 1872 0
-1868 1872 0
1845 -1868 0
1846 1873 0
-1869 1873 0
1846 -1869 1874 0
-1870 1874 0
1846 -1870 1875 0
-1871 1875 0
1846 -1871 1876 0
-1872 1876 0
1846 -1872 0
1847 1877 0
-1873 1877 0
1847 -1873 1878 0
-1874 1878 0
1847 -1874 1879 0
-1875 1879 0
1847 -1875 1880 0
-1876 1880 0
1847 -1876 0
1848 -1880 0
-103 1885 0
-133 1886 0
-1885 1886 0
-133 -1885 0
-163 1887 0
-1886 1887 0
-163 -1886 0
-193 1888 0
-1887 1888 0
-193 -1887 0
-1843 -1888 0
103 133 163 193 1843 0
-104 1890 0
-134 1891 0
-1890 1891 0
-134 -1890 0
-164 1892 0
-1891 1892 0
-164 -1891 0
-194 1893 0
-1892 1893 0
-194 -1892 0
-1844 -1893 0
104 134 164 194 1844 0
-105 1895 0
-135 1896 0
-1895 1896 0
-135 -1895 0
-165 1897 0
-1896 1897 0
-165 -1896 0
-195 1898 0
-1897 1898 0
-195 -1897 0
-1845 -1898 0
105 135 165 195 1845 0
-106 1900 0
-136 1901 0
-1900 1901 0
-136 -1900 0
-166 1902 0
-1901 1902 0
-166 -1901 0
-196 1903 0
-1902 1903 0
-196 -1902 0
-1846 -1903 0
106 136 166 196 1846 0
-107 1905 0
-137 1906 0
-1905 1906 0
-137 -1905 0
-167 1907 0
-1906 1907 0
-167 -1906 0
-197 1908 0
-1907 1908 0
-197 -1907 0
-1847 -1908 0
107 137 167 197 1847 0
-108 1910 0
-138 1911 0
-1910 1911 0
-138 -1910 0
-168 1912 0
-1911 1912 0
-168 -1911 0
-198 1913 0
-1912 1913 0
-198 -1912 0
-1848 -1913 0
108 138 168 198 1848 0
-1915 1921 0
-1922 0
-1923 0
-1916 1924 0
-1921 1924 0
-1916 -1921 1925 0
-1922 1925 0
-1916 -1922 1926 0
-1923 1926 0
-1916 -1923 0
-1917 1927 0
-1924 1927 0
-1917 -1924 1928 0
-1925 1928 0
-1917 -1925 1929 0
-1926 1929 0
-1917 -1926 0
-1918 1930 0
-1927 1930 0
-1918 -1927 1931 0
-1928 1931 0
-1918 -1928 1932 0
-1929 1932 0
-1918 -1929 0
-1919 1933 0
-1930 1933 0
-1919 -1930 1934 0
-1931 1934 0
-1919 -1931 1935 0
-1932 1935 0
-1919 -1932 0
-1920 -1935 0
1915 1939 0
-1940 0
-1941 0
1916 1942 0
-1939 1942 0
1916 -1939 1943 0
-1940 1943 0
1916 -1940 1944 0
-1941 1944 0
1916 -1941 0
1917 1945 0
-1942 1945 0
1917 -1942 1946 0
-1943 1946 0
1917 -1943 1947 0
-1944 1947 0
1917 -1944 0
1918 1948 0
-1945 1948 0
1918 -1945 1949 0
-1946 1949 0
1918 -1946 1950 0
-1947 1950 0
1918 -1947 0
1919 1951 0
-1948 1951 0
1919 -1948 1952 0
-1949 1952 0
1919 -1949 1953 0
-1950 1953 0
1919 -1950 0
1920 -1953 0
-139 1957 0
-169 1958 0
-1957 1958 0
-169 -1957 0
-199 1959 0
-1958 1959 0
-199 -1958 0
-1915 -1959 0
139 169 199 1915 0
-140 1961 0
-170 1962 0
-1961 1962 0
-170 -1961 0
-200 1963 0
-1962 1963 0
-200 -1962 0
-1916 -1963 0
140 170 200 1916 0
-141 1965 0
-171 1966 0
-1965 1966 0
-171 -1965 0
-201 1967 0
-1966 1967 0
-201 -1966 0
-1917 -1967 0
141 171 201 1917 0
-142 1969 0
-172 1970 0
-1969 1970 0
-172 -1969 0
-202 1971 0
-1970 1971 0
-202 -1970 0
-1918 -1971 0
142 172 202 1918 0
-143 1973 0
-173 1974 0
-1973 1974 0
-173 -1973 0
-203 1975 0
-1974 1975 0
-203 -1974 0
-1919 -1975 0
143 173 203 1919 0
-144 1977 0
-174 1978 0
-1977 1978 0
-174 -1977 0
-204 1979 0
-1978 1979 0
-204 -1978 0
-1920 -1979 0
144 174 204 1920 0
-1981 1987 0
-1988 0
-1989 0
-1990 0
-1982 1991 0
-1987 1991 0
-1982 -1987 1992 0
-1988 1992 0
-1982 -1988 1993 0
-1989 1993 0
-1982 -1989 1994 0
-1990 1994 0
-1982 -1990 0
-1983 1995 0
-1991 1995 0
-1983 -1991 1996 0
-1992 1996 0
-1983 -1992 1997 0
-1993 1997 0
-1983 -1993 1998 0
-1994 1998 0
-1983 -1994 0
-1984 1999 0
-1995 1999 0
-1984 -1995 2000 0
-1996 2000 0
-1984 -1996 2001 0
-1997 2001 0
-1984 -1997 2002 0
-1998 2002 0
-1984 -1998 0
-1985 2003 0
-1999 2003 0
-1985 -1999 2004 0
-2000 2004 0
-1985 -2000 2005 0
-2001 2005 0
-1985 -2001 2006 0
-2002 2006 0
-1985 -2002 0
-1986 -2006 0
1981 2011 0
-2012 0
1982 2013 0
-2011 2013 0
1982 -2011 2014 0
-2012 2014 0
1982 -2012 0
1983 2015 0
-2013 2015 0
1983 -2013 2016 0
-2014 2016 0
1983 -2014 0
1984 2017 0
-2015 2017 0
1984 -2015 2018 0
-2016 2018 0
1984 -2016 0
1985 2019 0
-2017 2019 0
1985 -2017 2020 0
-2018 2020 0
1985 -2018 0
1986 -2020 0
-175 2023 0
-205 2024 0
-2023 2024 0
-205 -2023 0
-1981 -2024 0
175 205 1981 0
-176 2026 0
-206 2027 0
-2026 2027 0
-206 -2026 0
-1982 -2027 0
176 206 1982 0
-177 2029 0
-207 2030 0
-2029 2030 0
-207 -2029 0
-1983 -2030 0
177 207 1983 0
-178 2032 0
-208 2033 0
-2032 2033 0
-208 -2032 0
-1984 -2033 0
178 208 1984 0
-179 2035 0
-209 2036 0
-2035 2036 0
-209 -2035 0
-1985 -2036 0
179 209 1985 0
-180 2038 0
-210 2039 0
-2038 2039 0
-210 -2038 0
-1986 -2039 0
180 210 1986 0
