p cnf 7110 14344
-1 730 0
-2 731 0
-730 731 0
-2 -730 0
-3 732 0
-731 732 0
-3 -731 0
-4 733 0
-732 733 0
-4 -732 0
-5 734 0
-733 734 0
-5 -733 0
-6 735 0
-734 735 0
-6 -734 0
-7 736 0
-735 736 0
-7 -735 0
-8 737 0
-736 737 0
-8 -736 0
-9 -737 0
1 2 3 4 5 6 7 8 9 0
-10 739 0
-11 740 0
-739 740 0
-11 -739 0
-12 741 0
-740 741 0
-12 -740 0
-13 742 0
-741 742 0
-13 -741 0
-14 743 0
-742 743 0
-14 -742 0
-15 744 0
-743 744 0
-15 -743 0
-16 745 0
-744 745 0
-16 -744 0
-17 746 0
-745 746 0
-17 -745 0
-18 -746 0
10 11 12 13 14 15 16 17 18 0
-19 748 0
-20 749 0
-748 749 0
-20 -748 0
-21 750 0
-749 750 0
-21 -749 0
-22 751 0
-750 751 0
-22 -750 0
-23 752 0
-751 752 0
-23 -751 0
-24 753 0
-752 753 0
-24 -752 0
-25 754 0
-753 754 0
-25 -753 0
-26 755 0
-754 755 0
-26 -754 0
-27 -755 0
19 20 21 22 23 24 25 26 27 0
-28 757 0
-29 758 0
-757 758 0
-29 -757 0
-30 759 0
-758 759 0
-30 -758 0
-31 760 0
-759 760 0
-31 -759 0
-32 761 0
-760 761 0
-32 -760 0
-33 762 0
-761 762 0
-33 -761 0
-34 763 0
-762 763 0
-34 -762 0
-35 764 0
-763 764 0
-35 -763 0
-36 -764 0
28 29 30 31 32 33 34 35 36 0
-37 766 0
-38 767 0
-766 767 0
-38 -766 0
-39 768 0
-767 768 0
-39 -767 0
-40 769 0
-768 769 0
-40 -768 0
-41 770 0
-769 770 0
-41 -769 0
-42 771 0
-770 771 0
-42 -770 0
-43 772 0
-771 772 0
-43 -771 0
-44 773 0
-772 773 0
-44 -772 0
-45 -773 0
37 38 39 40 41 42 43 44 45 0
-46 775 0
-47 776 0
-775 776 0
-47 -775 0
-48 777 0
-776 777 0
-48 -776 0
-49 778 0
-777 778 0
-49 -777 0
-50 779 0
-778 779 0
-50 -778 0
-51 780 0
-779 780 0
-51 -779 0
-52 781 0
-780 781 0
-52 -780 0
-53 782 0
-781 782 0
-53 -781 0
-54 -782 0
46 47 48 49 50 51 52 53 54 0
-55 784 0
-56 785 0
-784 785 0
-56 -784 0
-57 786 0
-785 786 0
-57 -785 0
-58 787 0
-786 787 0
-58 -786 0
-59 788 0
-787 788 0
-59 -787 0
-60 789 0
-788 789 0
-60 -788 0
-61 790 0
-789 790 0
-61 -789 0
-62 791 0
-790 791 0
-62 -790 0
-63 -791 0
55 56 57 58 59 60 61 62 63 0
-64 793 0
-65 794 0
-793 794 0
-65 -793 0
-66 795 0
-794 795 0
-66 -794 0
-67 796 0
-795 796 0
-67 -795 0
-68 797 0
-796 797 0
-68 -796 0
-69 798 0
-797 798 0
-69 -797 0
-70 799 0
-798 799 0
-70 -798 0
-71 800 0
-799 800 0
-71 -799 0
-72 -800 0
64 65 66 67 68 69 70 71 72 0
-73 802 0
-74 803 0
-802 803 0
-74 -802 0
-75 804 0
-803 804 0
-75 -803 0
-76 805 0
-804 805 0
-76 -804 0
-77 806 0
-805 806 0
-77 -805 0
-78 807 0
-806 807 0
-78 -806 0
-79 808 0
-807 808 0
-79 -807 0
-80 809 0
-808 809 0
-80 -808 0
-81 -809 0
73 74 75 76 77 78 79 80 81 0
-82 811 0
-83 812 0
-811 812 0
-83 -811 0
-84 813 0
-812 813 0
-84 -812 0
-85 814 0
-813 814 0
-85 -813 0
-86 815 0
-814 815 0
-86 -814 0
-87 816 0
-815 816 0
-87 -815 0
-88 817 0
-816 817 0
-88 -816 0
-89 818 0
-817 818 0
-89 -817 0
-90 -818 0
82 83 84 85 86 87 88 89 90 0
-91 820 0
-92 821 0
-820 821 0
-92 -820 0
-93 822 0
-821 822 0
-93 -821 0
-94 823 0
-822 823 0
-94 -822 0
-95 824 0
-823 824 0
-95 -823 0
-96 825 0
-824 825 0
-96 -824 0
-97 826 0
-825 826 0
-97 -825 0
-98 827 0
-826 827 0
-98 -826 0
-99 -827 0
91 92 93 94 95 96 97 98 99 0
-100 829 0
-101 830 0
-829 830 0
-101 -829 0
-102 831 0
-830 831 0
-102 -830 0
-103 832 0
-831 832 0
-103 -831 0
-104 833 0
-832 833 0
-104 -832 0
-105 834 0
-833 834 0
-105 -833 0
-106 835 0
-834 835 0
-106 -834 0
-107 836 0
-835 836 0
-107 -835 0
-108 -836 0
100 101 102 103 104 105 106 107 108 0
-109 838 0
-110 839 0
-838 839 0
-110 -838 0
-111 840 0
-839 840 0
-111 -839 0
-112 841 0
-840 841 0
-112 -840 0
-113 842 0
-841 842 0
-113 -841 0
-114 843 0
-842 843 0
-114 -842 0
-115 844 0
-843 844 0
-115 -843 0
-116 845 0
-844 845 0
-116 -844 0
-117 -845 0
109 110 111 112 113 114 115 116 117 0
-118 847 0
-119 848 0
-847 848 0
-119 -847 0
-120 849 0
-848 849 0
-120 -848 0
-121 850 0
-849 850 0
-121 -849 0
-122 851 0
-850 851 0
-122 -850 0
-123 852 0
-851 852 0
-123 -851 0
-124 853 0
-852 853 0
-124 -852 0
-125 854 0
-853 854 0
-125 -853 0
-126 -854 0
118 119 120 121 122 123 124 125 126 0
-127 856 0
-128 857 0
-856 857 0
-128 -856 0
-129 858 0
-857 858 0
-129 -857 0
-130 859 0
-858 859 0
-130 -858 0
-131 860 0
-859 860 0
-131 -859 0
-132 861 0
-860 861 0
-132 -860 0
-133 862 0
-861 862 0
-133 -861 0
-134 863 0
-862 863 0
-134 -862 0
-135 -863 0
127 128 129 130 131 132 133 134 135 0
-136 865 0
-137 866 0
-865 866 0
-137 -865 0
-138 867 0
-866 867 0
-138 -866 0
-139 868 0
-867 868 0
-139 -867 0
-140 869 0
-868 869 0
-140 -868 0
-141 870 0
-869 870 0
-141 -869 0
-142 871 0
-870 871 0
-142 -870 0
-143 872 0
-871 872 0
-143 -871 0
-144 -872 0
136 137 138 139 140 141 142 143 144 0
-145 874 0
-146 875 0
-874 875 0
-146 -874 0
-147 876 0
-875 876 0
-147 -875 0
-148 877 0
-876 877 0
-148 -876 0
-149 878 0
-877 878 0
-149 -877 0
-150 879 0
-878 879 0
-150 -878 0
-151 880 0
-879 880 0
-151 -879 0
-152 881 0
-880 881 0
-152 -880 0
-153 -881 0
145 146 147 148 149 150 151 152 153 0
-154 883 0
-155 884 0
-883 884 0
-155 -883 0
-156 885 0
-884 885 0
-156 -884 0
-157 886 0
-885 886 0
-157 -885 0
-158 887 0
-886 887 0
-158 -886 0
-159 888 0
-887 888 0
-159 -887 0
-160 889 0
-888 889 0
-160 -888 0
-161 890 0
-889 890 0
-161 -889 0
-162 -890 0
154 155 156 157 158 159 160 161 162 0
-163 892 0
-164 893 0
-892 893 0
-164 -892 0
-165 894 0
-893 894 0
-165 -893 0
-166 895 0
-894 895 0
-166 -894 0
-167 896 0
-895 896 0
-167 -895 0
-168 897 0
-896 897 0
-168 -896 0
-169 898 0
-897 898 0
-169 -897 0
-170 899 0
-898 899 0
-170 -898 0
-171 -899 0
163 164 165 166 167 168 169 170 171 0
-172 901 0
-173 902 0
-901 902 0
-173 -901 0
-174 903 0
-902 903 0
-174 -902 0
-175 904 0
-903 904 0
-175 -903 0
-176 905 0
-904 905 0
-176 -904 0
-177 906 0
-905 906 0
-177 -905 0
-178 907 0
-906 907 0
-178 -906 0
-179 908 0
-907 908 0
-179 -907 0
-180 -908 0
172 173 174 175 176 177 178 179 180 0
-181 910 0
-182 911 0
-910 911 0
-182 -910 0
-183 912 0
-911 912 0
-183 -911 0
-184 913 0
-912 913 0
-184 -912 0
-185 914 0
-913 914 0
-185 -913 0
-186 915 0
-914 915 0
-186 -914 0
-187 916 0
-915 916 0
-187 -915 0
-188 917 0
-916 917 0
-188 -916 0
-189 -917 0
181 182 183 184 185 186 187 188 189 0
-190 919 0
-191 920 0
-919 920 0
-191 -919 0
-192 921 0
-920 921 0
-192 -920 0
-193 922 0
-921 922 0
-193 -921 0
-194 923 0
-922 923 0
-194 -922 0
-195 924 0
-923 924 0
-195 -923 0
-196 925 0
-924 925 0
-196 -924 0
-197 926 0
-925 926 0
-197 -925 0
-198 -926 0
190 191 192 193 194 195 196 197 198 0
-199 928 0
-200 929 0
-928 929 0
-200 -928 0
-201 930 0
-929 930 0
-201 -929 0
-202 931 0
-930 931 0
-202 -930 0
-203 932 0
-931 932 0
-203 -931 0
-204 933 0
-932 933 0
-204 -932 0
-205 934 0
-933 934 0
-205 -933 0
-206 935 0
-934 935 0
-206 -934 0
-207 -935 0
199 200 201 202 203 204 205 206 207 0
-208 937 0
-209 938 0
-937 938 0
-209 -937 0
-210 939 0
-938 939 0
-210 -938 0
-211 940 0
-939 940 0
-211 -939 0
-212 941 0
-940 941 0
-212 -940 0
-213 942 0
-941 942 0
-213 -941 0
-214 943 0
-942 943 0
-214 -942 0
-215 944 0
-943 944 0
-215 -943 0
-216 -944 0
208 209 210 211 212 213 214 215 216 0
-217 946 0
-218 947 0
-946 947 0
-218 -946 0
-219 948 0
-947 948 0
-219 -947 0
-220 949 0
-948 949 0
-220 -948 0
-221 950 0
-949 950 0
-221 -949 0
-222 951 0
-950 951 0
-222 -950 0
-223 952 0
-951 952 0
-223 -951 0
-224 953 0
-952 953 0
-224 -952 0
-225 -953 0
217 218 219 220 221 222 223 224 225 0
-226 955 0
-227 956 0
-955 956 0
-227 -955 0
-228 957 0
-956 957 0
-228 -956 0
-229 958 0
-957 958 0
-229 -957 0
-230 959 0
-958 959 0
-230 -958 0
-231 960 0
-959 960 0
-231 -959 0
-232 961 0
-960 961 0
-232 -960 0
-233 962 0
-961 962 0
-233 -961 0
-234 -962 0
226 227 228 229 230 231 232 233 234 0
-235 964 0
-236 965 0
-964 965 0
-236 -964 0
-237 966 0
-965 966 0
-237 -965 0
-238 967 0
-966 967 0
-238 -966 0
-239 968 0
-967 968 0
-239 -967 0
-240 969 0
-968 969 0
-240 -968 0
-241 970 0
-969 970 0
-241 -969 0
-242 971 0
-970 971 0
-242 -970 0
-243 -971 0
235 236 237 238 239 240 241 242 243 0
-244 973 0
-245 974 0
-973 974 0
-245 -973 0
-246 975 0
-974 975 0
-246 -974 0
-247 976 0
-975 976 0
-247 -975 0
-248 977 0
-976 977 0
-248 -976 0
-249 978 0
-977 978 0
-249 -977 0
-250 979 0
-978 979 0
-250 -978 0
-251 980 0
-979 980 0
-251 -979 0
-252 -980 0
244 245 246 247 248 249 250 251 252 0
-253 982 0
-254 983 0
-982 983 0
-254 -982 0
-255 984 0
-983 984 0
-255 -983 0
-256 985 0
-984 985 0
-256 -984 0
-257 986 0
-985 986 0
-257 -985 0
-258 987 0
-986 987 0
-258 -986 0
-259 988 0
-987 988 0
-259 -987 0
-260 989 0
-988 989 0
-260 -988 0
-261 -989 0
253 254 255 256 257 258 259 260 261 0
-262 991 0
-263 992 0
-991 992 0
-263 -991 0
-264 993 0
-992 993 0
-264 -992 0
-265 994 0
-993 994 0
-265 -993 0
-266 995 0
-994 995 0
-266 -994 0
-267 996 0
-995 996 0
-267 -995 0
-268 997 0
-996 997 0
-268 -996 0
-269 998 0
-997 998 0
-269 -997 0
-270 -998 0
262 263 264 265 266 267 268 269 270 0
-271 1000 0
-272 1001 0
-1000 1001 0
-272 -1000 0
-273 1002 0
-1001 1002 0
-273 -1001 0
-274 1003 0
-1002 1003 0
-274 -1002 0
-275 1004 0
-1003 1004 0
-275 -1003 0
-276 1005 0
-1004 1005 0
-276 -1004 0
-277 1006 0
-1005 1006 0
-277 -1005 0
-278 1007 0
-1006 1007 0
-278 -1006 0
-279 -1007 0
271 272 273 274 275 276 277 278 279 0
-280 1009 0
-281 1010 0
-1009 1010 0
-281 -1009 0
-282 1011 0
-1010 1011 0
-282 -1010 0
-283 1012 0
-1011 1012 0
-283 -1011 0
-284 1013 0
-1012 1013 0
-284 -1012 0
-285 1014 0
-1013 1014 0
-285 -1013 0
-286 1015 0
-1014 1015 0
-286 -1014 0
-287 1016 0
-1015 1016 0
-287 -1015 0
-288 -1016 0
280 281 282 283 284 285 286 287 288 0
-289 1018 0
-290 1019 0
-1018 1019 0
-290 -1018 0
-291 1020 0
-1019 1020 0
-291 -1019 0
-292 1021 0
-1020 1021 0
-292 -1020 0
-293 1022 0
-1021 1022 0
-293 -1021 0
-294 1023 0
-1022 1023 0
-294 -1022 0
-295 1024 0
-1023 1024 0
-295 -1023 0
-296 1025 0
-1024 1025 0
-296 -1024 0
-297 -1025 0
289 290 291 292 293 294 295 296 297 0
-298 1027 0
-299 1028 0
-1027 1028 0
-299 -1027 0
-300 1029 0
-1028 1029 0
-300 -1028 0
-301 1030 0
-1029 1030 0
-301 -1029 0
-302 1031 0
-1030 1031 0
-302 -1030 0
-303 1032 0
-1031 1032 0
-303 -1031 0
-304 1033 0
-1032 1033 0
-304 -1032 0
-305 1034 0
-1033 1034 0
-305 -1033 0
-306 -1034 0
298 299 300 301 302 303 304 305 306 0
-307 1036 0
-308 1037 0
-1036 1037 0
-308 -1036 0
-309 1038 0
-1037 1038 0
-309 -1037 0
-310 1039 0
-1038 1039 0
-310 -1038 0
-311 1040 0
-1039 1040 0
-311 -1039 0
-312 1041 0
-1040 1041 0
-312 -1040 0
-313 1042 0
-1041 1042 0
-313 -1041 0
-314 1043 0
-1042 1043 0
-314 -1042 0
-315 -1043 0
307 308 309 310 311 312 313 314 315 0
-316 1045 0
-317 1046 0
-1045 1046 0
-317 -1045 0
-318 1047 0
-1046 1047 0
-318 -1046 0
-319 1048 0
-1047 1048 0
-319 -1047 0
-320 1049 0
-1048 1049 0
-320 -1048 0
-321 1050 0
-1049 1050 0
-321 -1049 0
-322 1051 0
-1050 1051 0
-322 -1050 0
-323 1052 0
-1051 1052 0
-323 -1051 0
-324 -1052 0
316 317 318 319 320 321 322 323 324 0
-325 1054 0
-326 1055 0
-1054 1055 0
-326 -1054 0
-327 1056 0
-1055 1056 0
-327 -1055 0
-328 1057 0
-1056 1057 0
-328 -1056 0
-329 1058 0
-1057 1058 0
-329 -1057 0
-330 1059 0
-1058 1059 0
-330 -1058 0
-331 1060 0
-1059 1060 0
-331 -1059 0
-332 1061 0
-1060 1061 0
-332 -1060 0
-333 -1061 0
325 326 327 328 329 330 331 332 333 0
-334 1063 0
-335 1064 0
-1063 1064 0
-335 -1063 0
-336 1065 0
-1064 1065 0
-336 -1064 0
-337 1066 0
-1065 1066 0
-337 -1065 0
-338 1067 0
-1066 1067 0
-338 -1066 0
-339 1068 0
-1067 1068 0
-339 -1067 0
-340 1069 0
-1068 1069 0
-340 -1068 0
-341 1070 0
-1069 1070 0
-341 -1069 0
-342 -1070 0
334 335 336 337 338 339 340 341 342 0
-343 1072 0
-344 1073 0
-1072 1073 0
-344 -1072 0
-345 1074 0
-1073 1074 0
-345 -1073 0
-346 1075 0
-1074 1075 0
-346 -1074 0
-347 1076 0
-1075 1076 0
-347 -1075 0
-348 1077 0
-1076 1077 0
-348 -1076 0
-349 1078 0
-1077 1078 0
-349 -1077 0
-350 1079 0
-1078 1079 0
-350 -1078 0
-351 -1079 0
343 344 345 346 347 348 349 350 351 0
-352 1081 0
-353 1082 0
-1081 1082 0
-353 -1081 0
-354 1083 0
-1082 1083 0
-354 -1082 0
-355 1084 0
-1083 1084 0
-355 -1083 0
-356 1085 0
-1084 1085 0
-356 -1084 0
-357 1086 0
-1085 1086 0
-357 -1085 0
-358 1087 0
-1086 1087 0
-358 -1086 0
-359 1088 0
-1087 1088 0
-359 -1087 0
-360 -1088 0
352 353 354 355 356 357 358 359 360 0
-361 1090 0
-362 1091 0
-1090 1091 0
-362 -1090 0
-363 1092 0
-1091 1092 0
-363 -1091 0
-364 1093 0
-1092 1093 0
-364 -1092 0
-365 1094 0
-1093 1094 0
-365 -1093 0
-366 1095 0
-1094 1095 0
-366 -1094 0
-367 1096 0
-1095 1096 0
-367 -1095 0
-368 1097 0
-1096 1097 0
-368 -1096 0
-369 -1097 0
361 362 363 364 365 366 367 368 369 0
-370 1099 0
-371 1100 0
-1099 1100 0
-371 -1099 0
-372 1101 0
-1100 1101 0
-372 -1100 0
-373 1102 0
-1101 1102 0
-373 -1101 0
-374 1103 0
-1102 1103 0
-374 -1102 0
-375 1104 0
-1103 1104 0
-375 -1103 0
-376 1105 0
-1104 1105 0
-376 -1104 0
-377 1106 0
-1105 1106 0
-377 -1105 0
-378 -1106 0
370 371 372 373 374 375 376 377 378 0
-379 1108 0
-380 1109 0
-1108 1109 0
-380 -1108 0
-381 1110 0
-1109 1110 0
-381 -1109 0
-382 1111 0
-1110 1111 0
-382 -1110 0
-383 1112 0
-1111 1112 0
-383 -1111 0
-384 1113 0
-1112 1113 0
-384 -1112 0
-385 1114 0
-1113 1114 0
-385 -1113 0
-386 1115 0
-1114 1115 0
-386 -1114 0
-387 -1115 0
379 380 381 382 383 384 385 386 387 0
-388 1117 0
-389 1118 0
-1117 1118 0
-389 -1117 0
-390 1119 0
-1118 1119 0
-390 -1118 0
-391 1120 0
-1119 1120 0
-391 -1119 0
-392 1121 0
-1120 1121 0
-392 -1120 0
-393 1122 0
-1121 1122 0
-393 -1121 0
-394 1123 0
-1122 1123 0
-394 -1122 0
-395 1124 0
-1123 1124 0
-395 -1123 0
-396 -1124 0
388 389 390 391 392 393 394 395 396 0
-397 1126 0
-398 1127 0
-1126 1127 0
-398 -1126 0
-399 1128 0
-1127 1128 0
-399 -1127 0
-400 1129 0
-1128 1129 0
-400 -1128 0
-401 1130 0
-1129 1130 0
-401 -1129 0
-402 1131 0
-1130 1131 0
-402 -1130 0
-403 1132 0
-1131 1132 0
-403 -1131 0
-404 1133 0
-1132 1133 0
-404 -1132 0
-405 -1133 0
397 398 399 400 401 402 403 404 405 0
-406 1135 0
-407 1136 0
-1135 1136 0
-407 -1135 0
-408 1137 0
-1136 1137 0
-408 -1136 0
-409 1138 0
-1137 1138 0
-409 -1137 0
-410 1139 0
-1138 1139 0
-410 -1138 0
-411 1140 0
-1139 1140 0
-411 -1139 0
-412 1141 0
-1140 1141 0
-412 -1140 0
-413 1142 0
-1141 1142 0
-413 -1141 0
-414 -1142 0
406 407 408 409 410 411 412 413 414 0
-415 1144 0
-416 1145 0
-1144 1145 0
-416 -1144 0
-417 1146 0
-1145 1146 0
-417 -1145 0
-418 1147 0
-1146 1147 0
-418 -1146 0
-419 1148 0
-1147 1148 0
-419 -1147 0
-420 1149 0
-1148 1149 0
-420 -1148 0
-421 1150 0
-1149 1150 0
-421 -1149 0
-422 1151 0
-1150 1151 0
-422 -1150 0
-423 -1151 0
415 416 417 418 419 420 421 422 423 0
-424 1153 0
-425 1154 0
-1153 1154 0
-425 -1153 0
-426 1155 0
-1154 1155 0
-426 -1154 0
-427 1156 0
-1155 1156 0
-427 -1155 0
-428 1157 0
-1156 1157 0
-428 -1156 0
-429 1158 0
-1157 1158 0
-429 -1157 0
-430 1159 0
-1158 1159 0
-430 -1158 0
-431 1160 0
-1159 1160 0
-431 -1159 0
-432 -1160 0
424 425 426 427 428 429 430 431 432 0
-433 1162 0
-434 1163 0
-1162 1163 0
-434 -1162 0
-435 1164 0
-1163 1164 0
-435 -1163 0
-436 1165 0
-1164 1165 0
-436 -1164 0
-437 1166 0
-1165 1166 0
-437 -1165 0
-438 1167 0
-1166 1167 0
-438 -1166 0
-439 1168 0
-1167 1168 0
-439 -1167 0
-440 1169 0
-1168 1169 0
-440 -1168 0
-441 -1169 0
433 434 435 436 437 438 439 440 441 0
-442 1171 0
-443 1172 0
-1171 1172 0
-443 -1171 0
-444 1173 0
-1172 1173 0
-444 -1172 0
-445 1174 0
-1173 1174 0
-445 -1173 0
-446 1175 0
-1174 1175 0
-446 -1174 0
-447 1176 0
-1175 1176 0
-447 -1175 0
-448 1177 0
-1176 1177 0
-448 -1176 0
-449 1178 0
-1177 1178 0
-449 -1177 0
-450 -1178 0
442 443 444 445 446 447 448 449 450 0
-451 1180 0
-452 1181 0
-1180 1181 0
-452 -1180 0
-453 1182 0
-1181 1182 0
-453 -1181 0
-454 1183 0
-1182 1183 0
-454 -1182 0
-455 1184 0
-1183 1184 0
-455 -1183 0
-456 1185 0
-1184 1185 0
-456 -1184 0
-457 1186 0
-1185 1186 0
-457 -1185 0
-458 1187 0
-1186 1187 0
-458 -1186 0
-459 -1187 0
451 452 453 454 455 456 457 458 459 0
-460 1189 0
-461 1190 0
-1189 1190 0
-461 -1189 0
-462 1191 0
-1190 1191 0
-462 -1190 0
-463 1192 0
-1191 1192 0
-463 -1191 0
-464 1193 0
-1192 1193 0
-464 -1192 0
-465 1194 0
-1193 1194 0
-465 -1193 0
-466 1195 0
-1194 1195 0
-466 -1194 0
-467 1196 0
-1195 1196 0
-467 -1195 0
-468 -1196 0
460 461 462 463 464 465 466 467 468 0
-469 1198 0
-470 1199 0
-1198 1199 0
-470 -1198 0
-471 1200 0
-1199 1200 0
-471 -1199 0
-472 1201 0
-1200 1201 0
-472 -1200 0
-473 1202 0
-1201 1202 0
-473 -1201 0
-474 1203 0
-1202 1203 0
-474 -1202 0
-475 1204 0
-1203 1204 0
-475 -1203 0
-476 1205 0
-1204 1205 0
-476 -1204 0
-477 -1205 0
469 470 471 472 473 474 475 476 477 0
-478 1207 0
-479 1208 0
-1207 1208 0
-479 -1207 0
-480 1209 0
-1208 1209 0
-480 -1208 0
-481 1210 0
-1209 1210 0
-481 -1209 0
-482 1211 0
-1210 1211 0
-482 -1210 0
-483 1212 0
-1211 1212 0
-483 -1211 0
-484 1213 0
-1212 1213 0
-484 -1212 0
-485 1214 0
-1213 1214 0
-485 -1213 0
-486 -1214 0
478 479 480 481 482 483 484 485 486 0
-487 1216 0
-488 1217 0
-1216 1217 0
-488 -1216 0
-489 1218 0
-1217 1218 0
-489 -1217 0
-490 1219 0
-1218 1219 0
-490 -1218 0
-491 1220 0
-1219 1220 0
-491 -1219 0
-492 1221 0
-1220 1221 0
-492 -1220 0
-493 1222 0
-1221 1222 0
-493 -1221 0
-494 1223 0
-1222 1223 0
-494 -1222 0
-495 -1223 0
487 488 489 490 491 492 493 494 495 0
-496 1225 0
-497 1226 0
-1225 1226 0
-497 -1225 0
-498 1227 0
-1226 1227 0
-498 -1226 0
-499 1228 0
-1227 1228 0
-499 -1227 0
-500 1229 0
-1228 1229 0
-500 -1228 0
-501 1230 0
-1229 1230 0
-501 -1229 0
-502 1231 0
-1230 1231 0
-502 -1230 0
-503 1232 0
-1231 1232 0
-503 -1231 0
-504 -1232 0
496 497 498 499 500 501 502 503 504 0
-505 1234 0
-506 1235 0
-1234 1235 0
-506 -1234 0
-507 1236 0
-1235 1236 0
-507 -1235 0
-508 1237 0
-1236 1237 0
-508 -1236 0
-509 1238 0
-1237 1238 0
-509 -1237 0
-510 1239 0
-1238 1239 0
-510 -1238 0
-511 1240 0
-1239 1240 0
-511 -1239 0
-512 1241 0
-1240 1241 0
-512 -1240 0
-513 -1241 0
505 506 507 508 509 510 511 512 513 0
-514 1243 0
-515 1244 0
-1243 1244 0
-515 -1243 0
-516 1245 0
-1244 1245 0
-516 -1244 0
-517 1246 0
-1245 1246 0
-517 -1245 0
-518 1247 0
-1246 1247 0
-518 -1246 0
-519 1248 0
-1247 1248 0
-519 -1247 0
-520 1249 0
-1248 1249 0
-520 -1248 0
-521 1250 0
-1249 1250 0
-521 -1249 0
-522 -1250 0
514 515 516 517 518 519 520 521 522 0
-523 1252 0
-524 1253 0
-1252 1253 0
-524 -1252 0
-525 1254 0
-1253 1254 0
-525 -1253 0
-526 1255 0
-1254 1255 0
-526 -1254 0
-527 1256 0
-1255 1256 0
-527 -1255 0
-528 1257 0
-1256 1257 0
-528 -1256 0
-529 1258 0
-1257 1258 0
-529 -1257 0
-530 1259 0
-1258 1259 0
-530 -1258 0
-531 -1259 0
523 524 525 526 527 528 529 530 531 0
-532 1261 0
-533 1262 0
-1261 1262 0
-533 -1261 0
-534 1263 0
-1262 1263 0
-534 -1262 0
-535 1264 0
-1263 1264 0
-535 -1263 0
-536 1265 0
-1264 1265 0
-536 -1264 0
-537 1266 0
-1265 1266 0
-537 -1265 0
-538 1267 0
-1266 1267 0
-538 -1266 0
-539 1268 0
-1267 1268 0
-539 -1267 0
-540 -1268 0
532 533 534 535 536 537 538 539 540 0
-541 1270 0
-542 1271 0
-1270 1271 0
-542 -1270 0
-543 1272 0
-1271 1272 0
-543 -1271 0
-544 1273 0
-1272 1273 0
-544 -1272 0
-545 1274 0
-1273 1274 0
-545 -1273 0
-546 1275 0
-1274 1275 0
-546 -1274 0
-547 1276 0
-1275 1276 0
-547 -1275 0
-548 1277 0
-1276 1277 0
-548 -1276 0
-549 -1277 0
541 542 543 544 545 546 547 548 549 0
-550 1279 0
-551 1280 0
-1279 1280 0
-551 -1279 0
-552 1281 0
-1280 1281 0
-552 -1280 0
-553 1282 0
-1281 1282 0
-553 -1281 0
-554 1283 0
-1282 1283 0
-554 -1282 0
-555 1284 0
-1283 1284 0
-555 -1283 0
-556 1285 0
-1284 1285 0
-556 -1284 0
-557 1286 0
-1285 1286 0
-557 -1285 0
-558 -1286 0
550 551 552 553 554 555 556 557 558 0
-559 1288 0
-560 1289 0
-1288 1289 0
-560 -1288 0
-561 1290 0
-1289 1290 0
-561 -1289 0
-562 1291 0
-1290 1291 0
-562 -1290 0
-563 1292 0
-1291 1292 0
-563 -1291 0
-564 1293 0
-1292 1293 0
-564 -1292 0
-565 1294 0
-1293 1294 0
-565 -1293 0
-566 1295 0
-1294 1295 0
-566 -1294 0
-567 -1295 0
559 560 561 562 563 564 565 566 567 0
-568 1297 0
-569 1298 0
-1297 1298 0
-569 -1297 0
-570 1299 0
-1298 1299 0
-570 -1298 0
-571 1300 0
-1299 1300 0
-571 -1299 0
-572 1301 0
-1300 1301 0
-572 -1300 0
-573 1302 0
-1301 1302 0
-573 -1301 0
-574 1303 0
-1302 1303 0
-574 -1302 0
-575 1304 0
-1303 1304 0
-575 -1303 0
-576 -1304 0
568 569 570 571 572 573 574 575 576 0
-577 1306 0
-578 1307 0
-1306 1307 0
-578 -1306 0
-579 1308 0
-1307 1308 0
-579 -1307 0
-580 1309 0
-1308 1309 0
-580 -1308 0
-581 1310 0
-1309 1310 0
-581 -1309 0
-582 1311 0
-1310 1311 0
-582 -1310 0
-583 1312 0
-1311 1312 0
-583 -1311 0
-584 1313 0
-1312 1313 0
-584 -1312 0
-585 -1313 0
577 578 579 580 581 582 583 584 585 0
-586 1315 0
-587 1316 0
-1315 1316 0
-587 -1315 0
-588 1317 0
-1316 1317 0
-588 -1316 0
-589 1318 0
-1317 1318 0
-589 -1317 0
-590 1319 0
-1318 1319 0
-590 -1318 0
-591 1320 0
-1319 1320 0
-591 -1319 0
-592 1321 0
-1320 1321 0
-592 -1320 0
-593 1322 0
-1321 1322 0
-593 -1321 0
-594 -1322 0
586 587 588 589 590 591 592 593 594 0
-595 1324 0
-596 1325 0
-1324 1325 0
-596 -1324 0
-597 1326 0
-1325 1326 0
-597 -1325 0
-598 1327 0
-1326 1327 0
-598 -1326 0
-599 1328 0
-1327 1328 0
-599 -1327 0
-600 1329 0
-1328 1329 0
-600 -1328 0
-601 1330 0
-1329 1330 0
-601 -1329 0
-602 1331 0
-1330 1331 0
-602 -1330 0
-603 -1331 0
595 596 597 598 599 600 601 602 603 0
-604 1333 0
-605 1334 0
-1333 1334 0
-605 -1333 0
-606 1335 0
-1334 1335 0
-606 -1334 0
-607 1336 0
-1335 1336 0
-607 -1335 0
-608 1337 0
-1336 1337 0
-608 -1336 0
-609 1338 0
-1337 1338 0
-609 -1337 0
-610 1339 0
-1338 1339 0
-610 -1338 0
-611 1340 0
-1339 1340 0
-611 -1339 0
-612 -1340 0
604 605 606 607 608 609 610 611 612 0
-613 1342 0
-614 1343 0
-1342 1343 0
-614 -1342 0
-615 1344 0
-1343 1344 0
-615 -1343 0
-616 1345 0
-1344 1345 0
-616 -1344 0
-617 1346 0
-1345 1346 0
-617 -1345 0
-618 1347 0
-1346 1347 0
-618 -1346 0
-619 1348 0
-1347 1348 0
-619 -1347 0
-620 1349 0
-1348 1349 0
-620 -1348 0
-621 -1349 0
613 614 615 616 617 618 619 620 621 0
-622 1351 0
-623 1352 0
-1351 1352 0
-623 -1351 0
-624 1353 0
-1352 1353 0
-624 -1352 0
-625 1354 0
-1353 1354 0
-625 -1353 0
-626 1355 0
-1354 1355 0
-626 -1354 0
-627 1356 0
-1355 1356 0
-627 -1355 0
-628 1357 0
-1356 1357 0
-628 -1356 0
-629 1358 0
-1357 1358 0
-629 -1357 0
-630 -1358 0
622 623 624 625 626 627 628 629 630 0
-631 1360 0
-632 1361 0
-1360 1361 0
-632 -1360 0
-633 1362 0
-1361 1362 0
-633 -1361 0
-634 1363 0
-1362 1363 0
-634 -1362 0
-635 1364 0
-1363 1364 0
-635 -1363 0
-636 1365 0
-1364 1365 0
-636 -1364 0
-637 1366 0
-1365 1366 0
-637 -1365 0
-638 1367 0
-1366 1367 0
-638 -1366 0
-639 -1367 0
631 632 633 634 635 636 637 638 639 0
-640 1369 0
-641 1370 0
-1369 1370 0
-641 -1369 0
-642 1371 0
-1370 1371 0
-642 -1370 0
-643 1372 0
-1371 1372 0
-643 -1371 0
-644 1373 0
-1372 1373 0
-644 -1372 0
-645 1374 0
-1373 1374 0
-645 -1373 0
-646 1375 0
-1374 1375 0
-646 -1374 0
-647 1376 0
-1375 1376 0
-647 -1375 0
-648 -1376 0
640 641 642 643 644 645 646 647 648 0
-649 1378 0
-650 1379 0
-1378 1379 0
-650 -1378 0
-651 1380 0
-1379 1380 0
-651 -1379 0
-652 1381 0
-1380 1381 0
-652 -1380 0
-653 1382 0
-1381 1382 0
-653 -1381 0
-654 1383 0
-1382 1383 0
-654 -1382 0
-655 1384 0
-1383 1384 0
-655 -1383 0
-656 1385 0
-1384 1385 0
-656 -1384 0
-657 -1385 0
649 650 651 652 653 654 655 656 657 0
-658 1387 0
-659 1388 0
-1387 1388 0
-659 -1387 0
-660 1389 0
-1388 1389 0
-660 -1388 0
-661 1390 0
-1389 1390 0
-661 -1389 0
-662 1391 0
-1390 1391 0
-662 -1390 0
-663 1392 0
-1391 1392 0
-663 -1391 0
-664 1393 0
-1392 1393 0
-664 -1392 0
-665 1394 0
-1393 1394 0
-665 -1393 0
-666 -1394 0
658 659 660 661 662 663 664 665 666 0
-667 1396 0
-668 1397 0
-1396 1397 0
-668 -1396 0
-669 1398 0
-1397 1398 0
-669 -1397 0
-670 1399 0
-1398 1399 0
-670 -1398 0
-671 1400 0
-1399 1400 0
-671 -1399 0
-672 1401 0
-1400 1401 0
-672 -1400 0
-673 1402 0
-1401 1402 0
-673 -1401 0
-674 1403 0
-1402 1403 0
-674 -1402 0
-675 -1403 0
667 668 669 670 671 672 673 674 675 0
-676 1405 0
-677 1406 0
-1405 1406 0
-677 -1405 0
-678 1407 0
-1406 1407 0
-678 -1406 0
-679 1408 0
-1407 1408 0
-679 -1407 0
-680 1409 0
-1408 1409 0
-680 -1408 0
-681 1410 0
-1409 1410 0
-681 -1409 0
-682 1411 0
-1410 1411 0
-682 -1410 0
-683 1412 0
-1411 1412 0
-683 -1411 0
-684 -1412 0
676 677 678 679 680 681 682 683 684 0
-685 1414 0
-686 1415 0
-1414 1415 0
-686 -1414 0
-687 1416 0
-1415 1416 0
-687 -1415 0
-688 1417 0
-1416 1417 0
-688 -1416 0
-689 1418 0
-1417 1418 0
-689 -1417 0
-690 1419 0
-1418 1419 0
-690 -1418 0
-691 1420 0
-1419 1420 0
-691 -1419 0
-692 1421 0
-1420 1421 0
-692 -1420 0
-693 -1421 0
685 686 687 688 689 690 691 692 693 0
-694 1423 0
-695 1424 0
-1423 1424 0
-695 -1423 0
-696 1425 0
-1424 1425 0
-696 -1424 0
-697 1426 0
-1425 1426 0
-697 -1425 0
-698 1427 0
-1426 1427 0
-698 -1426 0
-699 1428 0
-1427 1428 0
-699 -1427 0
-700 1429 0
-1428 1429 0
-700 -1428 0
-701 1430 0
-1429 1430 0
-701 -1429 0
-702 -1430 0
694 695 696 697 698 699 700 701 702 0
-703 1432 0
-704 1433 0
-1432 1433 0
-704 -1432 0
-705 1434 0
-1433 1434 0
-705 -1433 0
-706 1435 0
-1434 1435 0
-706 -1434 0
-707 1436 0
-1435 1436 0
-707 -1435 0
-708 1437 0
-1436 1437 0
-708 -1436 0
-709 1438 0
-1437 1438 0
-709 -1437 0
-710 1439 0
-1438 1439 0
-710 -1438 0
-711 -1439 0
703 704 705 706 707 708 709 710 711 0
-712 1441 0
-713 1442 0
-1441 1442 0
-713 -1441 0
-714 1443 0
-1442 1443 0
-714 -1442 0
-715 1444 0
-1443 1444 0
-715 -1443 0
-716 1445 0
-1444 1445 0
-716 -1444 0
-717 1446 0
-1445 1446 0
-717 -1445 0
-718 1447 0
-1446 1447 0
-718 -1446 0
-719 1448 0
-1447 1448 0
-719 -1447 0
-720 -1448 0
712 713 714 715 716 717 718 719 720 0
-721 1450 0
-722 1451 0
-1450 1451 0
-722 -1450 0
-723 1452 0
-1451 1452 0
-723 -1451 0
-724 1453 0
-1452 1453 0
-724 -1452 0
-725 1454 0
-1453 1454 0
-725 -1453 0
-726 1455 0
-1454 1455 0
-726 -1454 0
-727 1456 0
-1455 1456 0
-727 -1455 0
-728 1457 0
-1456 1457 0
-728 -1456 0
-729 -1457 0
721 722 723 724 725 726 727 728 729 0
-55 0
-56 0
-57 0
-58 0
-59 0
-60 0
-62 0
-63 0
-37 0
-38 0
-39 0
-40 0
-42 0
-43 0
-44 0
-45 0
-73 0
-74 0
-75 0
-76 0
-77 0
-78 0
-79 0
-80 0
-10 0
-12 0
-13 0
-14 0
-15 0
-16 0
-17 0
-18 0
-28 0
-29 0
-30 0
-32 0
-33 0
-34 0
-35 0
-36 0
-64 0
-65 0
-66 0
-67 0
-68 0
-69 0
-70 0
-72 0
-2 0
-3 0
-4 0
-5 0
-6 0
-7 0
-8 0
-9 0
-46 0
-47 0
-48 0
-49 0
-50 0
-52 0
-53 0
-54 0
-19 0
-20 0
-22 0
-23 0
-24 0
-25 0
-26 0
-27 0
-1 1459 0
-10 1460 0
-1459 1460 0
-10 -1459 0
-19 1461 0
-1460 1461 0
-19 -1460 0
-28 1462 0
-1461 1462 0
-28 -1461 0
-37 1463 0
-1462 1463 0
-37 -1462 0
-46 1464 0
-1463 1464 0
-46 -1463 0
-55 1465 0
-1464 1465 0
-55 -1464 0
-64 1466 0
-1465 1466 0
-64 -1465 0
-73 -1466 0
1 10 19 28 37 46 55 64 73 0
-2 1468 0
-11 1469 0
-1468 1469 0
-11 -1468 0
-20 1470 0
-1469 1470 0
-20 -1469 0
-29 1471 0
-1470 1471 0
-29 -1470 0
-38 1472 0
-1471 1472 0
-38 -1471 0
-47 1473 0
-1472 1473 0
-47 -1472 0
-56 1474 0
-1473 1474 0
-56 -1473 0
-65 1475 0
-1474 1475 0
-65 -1474 0
-74 -1475 0
2 11 20 29 38 47 56 65 74 0
-3 1477 0
-12 1478 0
-1477 1478 0
-12 -1477 0
-21 1479 0
-1478 1479 0
-21 -1478 0
-30 1480 0
-1479 1480 0
-30 -1479 0
-39 1481 0
-1480 1481 0
-39 -1480 0
-48 1482 0
-1481 1482 0
-48 -1481 0
-57 1483 0
-1482 1483 0
-57 -1482 0
-66 1484 0
-1483 1484 0
-66 -1483 0
-75 -1484 0
3 12 21 30 39 48 57 66 75 0
-4 1486 0
-13 1487 0
-1486 1487 0
-13 -1486 0
-22 1488 0
-1487 1488 0
-22 -1487 0
-31 1489 0
-1488 1489 0
-31 -1488 0
-40 1490 0
-1489 1490 0
-40 -1489 0
-49 1491 0
-1490 1491 0
-49 -1490 0
-58 1492 0
-1491 1492 0
-58 -1491 0
-67 1493 0
-1492 1493 0
-67 -1492 0
-76 -1493 0
4 13 22 31 40 49 58 67 76 0
-5 1495 0
-14 1496 0
-1495 1496 0
-14 -1495 0
-23 1497 0
-1496 1497 0
-23 -1496 0
-32 1498 0
-1497 1498 0
-32 -1497 0
-41 1499 0
-1498 1499 0
-41 -1498 0
-50 1500 0
-1499 1500 0
-50 -1499 0
-59 1501 0
-1500 1501 0
-59 -1500 0
-68 1502 0
-1501 1502 0
-68 -1501 0
-77 -1502 0
5 14 23 32 41 50 59 68 77 0
-6 1504 0
-15 1505 0
-1504 1505 0
-15 -1504 0
-24 1506 0
-1505 1506 0
-24 -1505 0
-33 1507 0
-1506 1507 0
-33 -1506 0
-42 1508 0
-1507 1508 0
-42 -1507 0
-51 1509 0
-1508 1509 0
-51 -1508 0
-60 1510 0
-1509 1510 0
-60 -1509 0
-69 1511 0
-1510 1511 0
-69 -1510 0
-78 -1511 0
6 15 24 33 42 51 60 69 78 0
-7 1513 0
-16 1514 0
-1513 1514 0
-16 -1513 0
-25 1515 0
-1514 1515 0
-25 -1514 0
-34 1516 0
-1515 1516 0
-34 -1515 0
-43 1517 0
-1516 1517 0
-43 -1516 0
-52 1518 0
-1517 1518 0
-52 -1517 0
-61 1519 0
-1518 1519 0
-61 -1518 0
-70 1520 0
-1519 1520 0
-70 -1519 0
-79 -1520 0
7 16 25 34 43 52 61 70 79 0
-8 1522 0
-17 1523 0
-1522 1523 0
-17 -1522 0
-26 1524 0
-1523 1524 0
-26 -1523 0
-35 1525 0
-1524 1525 0
-35 -1524 0
-44 1526 0
-1525 1526 0
-44 -1525 0
-53 1527 0
-1526 1527 0
-53 -1526 0
-62 1528 0
-1527 1528 0
-62 -1527 0
-71 1529 0
-1528 1529 0
-71 -1528 0
-80 -1529 0
8 17 26 35 44 53 62 71 80 0
-9 1531 0
-18 1532 0
-1531 1532 0
-18 -1531 0
-27 1533 0
-1532 1533 0
-27 -1532 0
-36 1534 0
-1533 1534 0
-36 -1533 0
-45 1535 0
-1534 1535 0
-45 -1534 0
-54 1536 0
-1535 1536 0
-54 -1535 0
-63 1537 0
-1536 1537 0
-63 -1536 0
-72 1538 0
-1537 1538 0
-72 -1537 0
-81 -1538 0
9 18 27 36 45 54 63 72 81 0
-82 1540 0
-91 1541 0
-1540 1541 0
-91 -1540 0
-100 1542 0
-1541 1542 0
-100 -1541 0
-109 1543 0
-1542 1543 0
-109 -1542 0
-118 1544 0
-1543 1544 0
-118 -1543 0
-127 1545 0
-1544 1545 0
-127 -1544 0
-136 1546 0
-1545 1546 0
-136 -1545 0
-145 1547 0
-1546 1547 0
-145 -1546 0
-154 -1547 0
82 91 100 109 118 127 136 145 154 0
-83 1549 0
-92 1550 0
-1549 1550 0
-92 -1549 0
-101 1551 0
-1550 1551 0
-101 -1550 0
-110 1552 0
-1551 1552 0
-110 -1551 0
-119 1553 0
-1552 1553 0
-119 -1552 0
-128 1554 0
-1553 1554 0
-128 -1553 0
-137 1555 0
-1554 1555 0
-137 -1554 0
-146 1556 0
-1555 1556 0
-146 -1555 0
-155 -1556 0
83 92 101 110 119 128 137 146 155 0
-84 1558 0
-93 1559 0
-1558 1559 0
-93 -1558 0
-102 1560 0
-1559 1560 0
-102 -1559 0
-111 1561 0
-1560 1561 0
-111 -1560 0
-120 1562 0
-1561 1562 0
-120 -1561 0
-129 1563 0
-1562 1563 0
-129 -1562 0
-138 1564 0
-1563 1564 0
-138 -1563 0
-147 1565 0
-1564 1565 0
-147 -1564 0
-156 -1565 0
84 93 102 111 120 129 138 147 156 0
-85 1567 0
-94 1568 0
-1567 1568 0
-94 -1567 0
-103 1569 0
-1568 1569 0
-103 -1568 0
-112 1570 0
-1569 1570 0
-112 -1569 0
-121 1571 0
-1570 1571 0
-121 -1570 0
-130 1572 0
-1571 1572 0
-130 -1571 0
-139 1573 0
-1572 1573 0
-139 -1572 0
-148 1574 0
-1573 1574 0
-148 -1573 0
-157 -1574 0
85 94 103 112 121 130 139 148 157 0
-86 1576 0
-95 1577 0
-1576 1577 0
-95 -1576 0
-104 1578 0
-1577 1578 0
-104 -1577 0
-113 1579 0
-1578 1579 0
-113 -1578 0
-122 1580 0
-1579 1580 0
-122 -1579 0
-131 1581 0
-1580 1581 0
-131 -1580 0
-140 1582 0
-1581 1582 0
-140 -1581 0
-149 1583 0
-1582 1583 0
-149 -1582 0
-158 -1583 0
86 95 104 113 122 131 140 149 158 0
-87 1585 0
-96 1586 0
-1585 1586 0
-96 -1585 0
-105 1587 0
-1586 1587 0
-105 -1586 0
-114 1588 0
-1587 1588 0
-114 -1587 0
-123 1589 0
-1588 1589 0
-123 -1588 0
-132 1590 0
-1589 1590 0
-132 -1589 0
-141 1591 0
-1590 1591 0
-141 -1590 0
-150 1592 0
-1591 1592 0
-150 -1591 0
-159 -1592 0
87 96 105 114 123 132 141 150 159 0
-88 1594 0
-97 1595 0
-1594 1595 0
-97 -1594 0
-106 1596 0
-1595 1596 0
-106 -1595 0
-115 1597 0
-1596 1597 0
-115 -1596 0
-124 1598 0
-1597 1598 0
-124 -1597 0
-133 1599 0
-1598 1599 0
-133 -1598 0
-142 1600 0
-1599 1600 0
-142 -1599 0
-151 1601 0
-1600 1601 0
-151 -1600 0
-160 -1601 0
88 97 106 115 124 133 142 151 160 0
-89 1603 0
-98 1604 0
-1603 1604 0
-98 -1603 0
-107 1605 0
-1604 1605 0
-107 -1604 0
-116 1606 0
-1605 1606 0
-116 -1605 0
-125 1607 0
-1606 1607 0
-125 -1606 0
-134 1608 0
-1607 1608 0
-134 -1607 0
-143 1609 0
-1608 1609 0
-143 -1608 0
-152 1610 0
-1609 1610 0
-152 -1609 0
-161 -1610 0
89 98 107 116 125 134 143 152 161 0
-90 1612 0
-99 1613 0
-1612 1613 0
-99 -1612 0
-108 1614 0
-1613 1614 0
-108 -1613 0
-117 1615 0
-1614 1615 0
-117 -1614 0
-126 1616 0
-1615 1616 0
-126 -1615 0
-135 1617 0
-1616 1617 0
-135 -1616 0
-144 1618 0
-1617 1618 0
-144 -1617 0
-153 1619 0
-1618 1619 0
-153 -1618 0
-162 -1619 0
90 99 108 117 126 135 144 153 162 0
-163 1621 0
-172 1622 0
-1621 1622 0
-172 -1621 0
-181 1623 0
-1622 1623 0
-181 -1622 0
-190 1624 0
-1623 1624 0
-190 -1623 0
-199 1625 0
-1624 1625 0
-199 -1624 0
-208 1626 0
-1625 1626 0
-208 -1625 0
-217 1627 0
-1626 1627 0
-217 -1626 0
-226 1628 0
-1627 1628 0
-226 -1627 0
-235 -1628 0
163 172 181 190 199 208 217 226 235 0
-164 1630 0
-173 1631 0
-1630 1631 0
-173 -1630 0
-182 1632 0
-1631 1632 0
-182 -1631 0
-191 1633 0
-1632 1633 0
-191 -1632 0
-200 1634 0
-1633 1634 0
-200 -1633 0
-209 1635 0
-1634 1635 0
-209 -1634 0
-218 1636 0
-1635 1636 0
-218 -1635 0
-227 1637 0
-1636 1637 0
-227 -1636 0
-236 -1637 0
164 173 182 191 200 209 218 227 236 0
-165 1639 0
-174 1640 0
-1639 1640 0
-174 -1639 0
-183 1641 0
-1640 1641 0
-183 -1640 0
-192 1642 0
-1641 1642 0
-192 -1641 0
-201 1643 0
-1642 1643 0
-201 -1642 0
-210 1644 0
-1643 1644 0
-210 -1643 0
-219 1645 0
-1644 1645 0
-219 -1644 0
-228 1646 0
-1645 1646 0
-228 -1645 0
-237 -1646 0
165 174 183 192 201 210 219 228 237 0
-166 1648 0
-175 1649 0
-1648 1649 0
-175 -1648 0
-184 1650 0
-1649 1650 0
-184 -1649 0
-193 1651 0
-1650 1651 0
-193 -1650 0
-202 1652 0
-1651 1652 0
-202 -1651 0
-211 1653 0
-1652 1653 0
-211 -1652 0
-220 1654 0
-1653 1654 0
-220 -1653 0
-229 1655 0
-1654 1655 0
-229 -1654 0
-238 -1655 0
166 175 184 193 202 211 220 229 238 0
-167 1657 0
-176 1658 0
-1657 1658 0
-176 -1657 0
-185 1659 0
-1658 1659 0
-185 -1658 0
-194 1660 0
-1659 1660 0
-194 -1659 0
-203 1661 0
-1660 1661 0
-203 -1660 0
-212 1662 0
-1661 1662 0
-212 -1661 0
-221 1663 0
-1662 1663 0
-221 -1662 0
-230 1664 0
-1663 1664 0
-230 -1663 0
-239 -1664 0
167 176 185 194 203 212 221 230 239 0
-168 1666 0
-177 1667 0
-1666 1667 0
-177 -1666 0
-186 1668 0
-1667 1668 0
-186 -1667 0
-195 1669 0
-1668 1669 0
-195 -1668 0
-204 1670 0
-1669 1670 0
-204 -1669 0
-213 1671 0
-1670 1671 0
-213 -1670 0
-222 1672 0
-1671 1672 0
-222 -1671 0
-231 1673 0
-1672 1673 0
-231 -1672 0
-240 -1673 0
168 177 186 195 204 213 222 231 240 0
-169 1675 0
-178 1676 0
-1675 1676 0
-178 -1675 0
-187 1677 0
-1676 1677 0
-187 -1676 0
-196 1678 0
-1677 1678 0
-196 -1677 0
-205 1679 0
-1678 1679 0
-205 -1678 0
-214 1680 0
-1679 1680 0
-214 -1679 0
-223 1681 0
-1680 1681 0
-223 -1680 0
-232 1682 0
-1681 1682 0
-232 -1681 0
-241 -1682 0
169 178 187 196 205 214 223 232 241 0
-170 1684 0
-179 1685 0
-1684 1685 0
-179 -1684 0
-188 1686 0
-1685 1686 0
-188 -1685 0
-197 1687 0
-1686 1687 0
-197 -1686 0
-206 1688 0
-1687 1688 0
-206 -1687 0
-215 1689 0
-1688 1689 0
-215 -1688 0
-224 1690 0
-1689 1690 0
-224 -1689 0
-233 1691 0
-1690 1691 0
-233 -1690 0
-242 -1691 0
170 179 188 197 206 215 224 233 242 0
-171 1693 0
-180 1694 0
-1693 1694 0
-180 -1693 0
-189 1695 0
-1694 1695 0
-189 -1694 0
-198 1696 0
-1695 1696 0
-198 -1695 0
-207 1697 0
-1696 1697 0
-207 -1696 0
-216 1698 0
-1697 1698 0
-216 -1697 0
-225 1699 0
-1698 1699 0
-225 -1698 0
-234 1700 0
-1699 1700 0
-234 -1699 0
-243 -1700 0
171 180 189 198 207 216 225 234 243 0
-244 1702 0
-253 1703 0
-1702 1703 0
-253 -1702 0
-262 1704 0
-1703 1704 0
-262 -1703 0
-271 1705 0
-1704 1705 0
-271 -1704 0
-280 1706 0
-1705 1706 0
-280 -1705 0
-289 1707 0
-1706 1707 0
-289 -1706 0
-298 1708 0
-1707 1708 0
-298 -1707 0
-307 1709 0
-1708 1709 0
-307 -1708 0
-316 -1709 0
244 253 262 271 280 289 298 307 316 0
-245 1711 0
-254 1712 0
-1711 1712 0
-254 -1711 0
-263 1713 0
-1712 1713 0
-263 -1712 0
-272 1714 0
-1713 1714 0
-272 -1713 0
-281 1715 0
-1714 1715 0
-281 -1714 0
-290 1716 0
-1715 1716 0
-290 -1715 0
-299 1717 0
-1716 1717 0
-299 -1716 0
-308 1718 0
-1717 1718 0
-308 -1717 0
-317 -1718 0
245 254 263 272 281 290 299 308 317 0
-246 1720 0
-255 1721 0
-1720 1721 0
-255 -1720 0
-264 1722 0
-1721 1722 0
-264 -1721 0
-273 1723 0
-1722 1723 0
-273 -1722 0
-282 1724 0
-1723 1724 0
-282 -1723 0
-291 1725 0
-1724 1725 0
-291 -1724 0
-300 1726 0
-1725 1726 0
-300 -1725 0
-309 1727 0
-1726 1727 0
-309 -1726 0
-318 -1727 0
246 255 264 273 282 291 300 309 318 0
-247 1729 0
-256 1730 0
-1729 1730 0
-256 -1729 0
-265 1731 0
-1730 1731 0
-265 -1730 0
-274 1732 0
-1731 1732 0
-274 -1731 0
-283 1733 0
-1732 1733 0
-283 -1732 0
-292 1734 0
-1733 1734 0
-292 -1733 0
-301 1735 0
-1734 1735 0
-301 -1734 0
-310 1736 0
-1735 1736 0
-310 -1735 0
-319 -1736 0
247 256 265 274 283 292 301 310 319 0
-248 1738 0
-257 1739 0
-1738 1739 0
-257 -1738 0
-266 1740 0
-1739 1740 0
-266 -1739 0
-275 1741 0
-1740 1741 0
-275 -1740 0
-284 1742 0
-1741 1742 0
-284 -1741 0
-293 1743 0
-1742 1743 0
-293 -1742 0
-302 1744 0
-1743 1744 0
-302 -1743 0
-311 1745 0
-1744 1745 0
-311 -1744 0
-320 -1745 0
248 257 266 275 284 293 302 311 320 0
-249 1747 0
-258 1748 0
-1747 1748 0
-258 -1747 0
-267 1749 0
-1748 1749 0
-267 -1748 0
-276 1750 0
-1749 1750 0
-276 -1749 0
-285 1751 0
-1750 1751 0
-285 -1750 0
-294 1752 0
-1751 1752 0
-294 -1751 0
-303 1753 0
-1752 1753 0
-303 -1752 0
-312 1754 0
-1753 1754 0
-312 -1753 0
-321 -1754 0
249 258 267 276 285 294 303 312 321 0
-250 1756 0
-259 1757 0
-1756 1757 0
-259 -1756 0
-268 1758 0
-1757 1758 0
-268 -1757 0
-277 1759 0
-1758 1759 0
-277 -1758 0
-286 1760 0
-1759 1760 0
-286 -1759 0
-295 1761 0
-1760 1761 0
-295 -1760 0
-304 1762 0
-1761 1762 0
-304 -1761 0
-313 1763 0
-1762 1763 0
-313 -1762 0
-322 -1763 0
250 259 268 277 286 295 304 313 322 0
-251 1765 0
-260 1766 0
-1765 1766 0
-260 -1765 0
-269 1767 0
-1766 1767 0
-269 -1766 0
-278 1768 0
-1767 1768 0
-278 -1767 0
-287 1769 0
-1768 1769 0
-287 -1768 0
-296 1770 0
-1769 1770 0
-296 -1769 0
-305 1771 0
-1770 1771 0
-305 -1770 0
-314 1772 0
-1771 1772 0
-314 -1771 0
-323 -1772 0
251 260 269 278 287 296 305 314 323 0
-252 1774 0
-261 1775 0
-1774 1775 0
-261 -1774 0
-270 1776 0
-1775 1776 0
-270 -1775 0
-279 1777 0
-1776 1777 0
-279 -1776 0
-288 1778 0
-1777 1778 0
-288 -1777 0
-297 1779 0
-1778 1779 0
-297 -1778 0
-306 1780 0
-1779 1780 0
-306 -1779 0
-315 1781 0
-1780 1781 0
-315 -1780 0
-324 -1781 0
252 261 270 279 288 297 306 315 324 0
-325 1783 0
-334 1784 0
-1783 1784 0
-334 -1783 0
-343 1785 0
-1784 1785 0
-343 -1784 0
-352 1786 0
-1785 1786 0
-352 -1785 0
-361 1787 0
-1786 1787 0
-361 -1786 0
-370 1788 0
-1787 1788 0
-370 -1787 0
-379 1789 0
-1788 1789 0
-379 -1788 0
-388 1790 0
-1789 1790 0
-388 -1789 0
-397 -1790 0
325 334 343 352 361 370 379 388 397 0
-326 1792 0
-335 1793 0
-1792 1793 0
-335 -1792 0
-344 1794 0
-1793 1794 0
-344 -1793 0
-353 1795 0
-1794 1795 0
-353 -1794 0
-362 1796 0
-1795 1796 0
-362 -1795 0
-371 1797 0
-1796 1797 0
-371 -1796 0
-380 1798 0
-1797 1798 0
-380 -1797 0
-389 1799 0
-1798 1799 0
-389 -1798 0
-398 -1799 0
326 335 344 353 362 371 380 389 398 0
-327 1801 0
-336 1802 0
-1801 1802 0
-336 -1801 0
-345 1803 0
-1802 1803 0
-345 -1802 0
-354 1804 0
-1803 1804 0
-354 -1803 0
-363 1805 0
-1804 1805 0
-363 -1804 0
-372 1806 0
-1805 1806 0
-372 -1805 0
-381 1807 0
-1806 1807 0
-381 -1806 0
-390 1808 0
-1807 1808 0
-390 -1807 0
-399 -1808 0
327 336 345 354 363 372 381 390 399 0
-328 1810 0
-337 1811 0
-1810 1811 0
-337 -1810 0
-346 1812 0
-1811 1812 0
-346 -1811 0
-355 1813 0
-1812 1813 0
-355 -1812 0
-364 1814 0
-1813 1814 0
-364 -1813 0
-373 1815 0
-1814 1815 0
-373 -1814 0
-382 1816 0
-1815 1816 0
-382 -1815 0
-391 1817 0
-1816 1817 0
-391 -1816 0
-400 -1817 0
328 337 346 355 364 373 382 391 400 0
-329 1819 0
-338 1820 0
-1819 1820 0
-338 -1819 0
-347 1821 0
-1820 1821 0
-347 -1820 0
-356 1822 0
-1821 1822 0
-356 -1821 0
-365 1823 0
-1822 1823 0
-365 -1822 0
-374 1824 0
-1823 1824 0
-374 -1823 0
-383 1825 0
-1824 1825 0
-383 -1824 0
-392 1826 0
-1825 1826 0
-392 -1825 0
-401 -1826 0
329 338 347 356 365 374 383 392 401 0
-330 1828 0
-339 1829 0
-1828 1829 0
-339 -1828 0
-348 1830 0
-1829 1830 0
-348 -1829 0
-357 1831 0
-1830 1831 0
-357 -1830 0
-366 1832 0
-1831 1832 0
-366 -1831 0
-375 1833 0
-1832 1833 0
-375 -1832 0
-384 1834 0
-1833 1834 0
-384 -1833 0
-393 1835 0
-1834 1835 0
-393 -1834 0
-402 -1835 0
330 339 348 357 366 375 384 393 402 0
-331 1837 0
-340 1838 0
-1837 1838 0
-340 -1837 0
-349 1839 0
-1838 1839 0
-349 -1838 0
-358 1840 0
-1839 1840 0
-358 -1839 0
-367 1841 0
-1840 1841 0
-367 -1840 0
-376 1842 0
-1841 1842 0
-376 -1841 0
-385 1843 0
-1842 1843 0
-385 -1842 0
-394 1844 0
-1843 1844 0
-394 -1843 0
-403 -1844 0
331 340 349 358 367 376 385 394 403 0
-332 1846 0
-341 1847 0
-1846 1847 0
-341 -1846 0
-350 1848 0
-1847 1848 0
-350 -1847 0
-359 1849 0
-1848 1849 0
-359 -1848 0
-368 1850 0
-1849 1850 0
-368 -1849 0
-377 1851 0
-1850 1851 0
-377 -1850 0
-386 1852 0
-1851 1852 0
-386 -1851 0
-395 1853 0
-1852 1853 0
-395 -1852 0
-404 -1853 0
332 341 350 359 368 377 386 395 404 0
-333 1855 0
-342 1856 0
-1855 1856 0
-342 -1855 0
-351 1857 0
-1856 1857 0
-351 -1856 0
-360 1858 0
-1857 1858 0
-360 -1857 0
-369 1859 0
-1858 1859 0
-369 -1858 0
-378 1860 0
-1859 1860 0
-378 -1859 0
-387 1861 0
-1860 1861 0
-387 -1860 0
-396 1862 0
-1861 1862 0
-396 -1861 0
-405 -1862 0
333 342 351 360 369 378 387 396 405 0
-406 1864 0
-415 1865 0
-1864 1865 0
-415 -1864 0
-424 1866 0
-1865 1866 0
-424 -1865 0
-433 1867 0
-1866 1867 0
-433 -1866 0
-442 1868 0
-1867 1868 0
-442 -1867 0
-451 1869 0
-1868 1869 0
-451 -1868 0
-460 1870 0
-1869 1870 0
-460 -1869 0
-469 1871 0
-1870 1871 0
-469 -1870 0
-478 -1871 0
406 415 424 433 442 451 460 469 478 0
-407 1873 0
-416 1874 0
-1873 1874 0
-416 -1873 0
-425 1875 0
-1874 1875 0
-425 -1874 0
-434 1876 0
-1875 1876 0
-434 -1875 0
-443 1877 0
-1876 1877 0
-443 -1876 0
-452 1878 0
-1877 1878 0
-452 -1877 0
-461 1879 0
-1878 1879 0
-461 -1878 0
-470 1880 0
-1879 1880 0
-470 -1879 0
-479 -1880 0
407 416 425 434 443 452 461 470 479 0
-408 1882 0
-417 1883 0
-1882 1883 0
-417 -1882 0
-426 1884 0
-1883 1884 0
-426 -1883 0
-435 1885 0
-1884 1885 0
-435 -1884 0
-444 1886 0
-1885 1886 0
-444 -1885 0
-453 1887 0
-1886 1887 0
-453 -1886 0
-462 1888 0
-1887 1888 0
-462 -1887 0
-471 1889 0
-1888 1889 0
-471 -1888 0
-480 -1889 0
408 417 426 435 444 453 462 471 480 0
-409 1891 0
-418 1892 0
-1891 1892 0
-418 -1891 0
-427 1893 0
-1892 1893 0
-427 -1892 0
-436 1894 0
-1893 1894 0
-436 -1893 0
-445 1895 0
-1894 1895 0
-445 -1894 0
-454 1896 0
-1895 1896 0
-454 -1895 0
-463 1897 0
-1896 1897 0
-463 -1896 0
-472 1898 0
-1897 1898 0
-472 -1897 0
-481 -1898 0
409 418 427 436 445 454 463 472 481 0
-410 1900 0
-419 1901 0
-1900 1901 0
-419 -1900 0
-428 1902 0
-1901 1902 0
-428 -1901 0
-437 1903 0
-1902 1903 0
-437 -1902 0
-446 1904 0
-1903 1904 0
-446 -1903 0
-455 1905 0
-1904 1905 0
-455 -1904 0
-464 1906 0
-1905 1906 0
-464 -1905 0
-473 1907 0
-1906 1907 0
-473 -1906 0
-482 -1907 0
410 419 428 437 446 455 464 473 482 0
-411 1909 0
-420 1910 0
-1909 1910 0
-420 -1909 0
-429 1911 0
-1910 1911 0
-429 -1910 0
-438 1912 0
-1911 1912 0
-438 -1911 0
-447 1913 0
-1912 1913 0
-447 -1912 0
-456 1914 0
-1913 1914 0
-456 -1913 0
-465 1915 0
-1914 1915 0
-465 -1914 0
-474 1916 0
-1915 1916 0
-474 -1915 0
-483 -1916 0
411 420 429 438 447 456 465 474 483 0
-412 1918 0
-421 1919 0
-1918 1919 0
-421 -1918 0
-430 1920 0
-1919 1920 0
-430 -1919 0
-439 1921 0
-1920 1921 0
-439 -1920 0
-448 1922 0
-1921 1922 0
-448 -1921 0
-457 1923 0
-1922 1923 0
-457 -1922 0
-466 1924 0
-1923 1924 0
-466 -1923 0
-475 1925 0
-1924 1925 0
-475 -1924 0
-484 -1925 0
412 421 430 439 448 457 466 475 484 0
-413 1927 0
-422 1928 0
-1927 1928 0
-422 -1927 0
-431 1929 0
-1928 1929 0
-431 -1928 0
-440 1930 0
-1929 1930 0
-440 -1929 0
-449 1931 0
-1930 1931 0
-449 -1930 0
-458 1932 0
-1931 1932 0
-458 -1931 0
-467 1933 0
-1932 1933 0
-467 -1932 0
-476 1934 0
-1933 1934 0
-476 -1933 0
-485 -1934 0
413 422 431 440 449 458 467 476 485 0
-414 1936 0
-423 1937 0
-1936 1937 0
-423 -1936 0
-432 1938 0
-1937 1938 0
-432 -1937 0
-441 1939 0
-1938 1939 0
-441 -1938 0
-450 1940 0
-1939 1940 0
-450 -1939 0
-459 1941 0
-1940 1941 0
-459 -1940 0
-468 1942 0
-1941 1942 0
-468 -1941 0
-477 1943 0
-1942 1943 0
-477 -1942 0
-486 -1943 0
414 423 432 441 450 459 468 477 486 0
-487 1945 0
-496 1946 0
-1945 1946 0
-496 -1945 0
-505 1947 0
-1946 1947 0
-505 -1946 0
-514 1948 0
-1947 1948 0
-514 -1947 0
-523 1949 0
-1948 1949 0
-523 -1948 0
-532 1950 0
-1949 1950 0
-532 -1949 0
-541 1951 0
-1950 1951 0
-541 -1950 0
-550 1952 0
-1951 1952 0
-550 -1951 0
-559 -1952 0
487 496 505 514 523 532 541 550 559 0
-488 1954 0
-497 1955 0
-1954 1955 0
-497 -1954 0
-506 1956 0
-1955 1956 0
-506 -1955 0
-515 1957 0
-1956 1957 0
-515 -1956 0
-524 1958 0
-1957 1958 0
-524 -1957 0
-533 1959 0
-1958 1959 0
-533 -1958 0
-542 1960 0
-1959 1960 0
-542 -1959 0
-551 1961 0
-1960 1961 0
-551 -1960 0
-560 -1961 0
488 497 506 515 524 533 542 551 560 0
-489 1963 0
-498 1964 0
-1963 1964 0
-498 -1963 0
-507 1965 0
-1964 1965 0
-507 -1964 0
-516 1966 0
-1965 1966 0
-516 -1965 0
-525 1967 0
-1966 1967 0
-525 -1966 0
-534 1968 0
-1967 1968 0
-534 -1967 0
-543 1969 0
-1968 1969 0
-543 -1968 0
-552 1970 0
-1969 1970 0
-552 -1969 0
-561 -1970 0
489 498 507 516 525 534 543 552 561 0
-490 1972 0
-499 1973 0
-1972 1973 0
-499 -1972 0
-508 1974 0
-1973 1974 0
-508 -1973 0
-517 1975 0
-1974 1975 0
-517 -1974 0
-526 1976 0
-1975 1976 0
-526 -1975 0
-535 1977 0
-1976 1977 0
-535 -1976 0
-544 1978 0
-1977 1978 0
-544 -1977 0
-553 1979 0
-1978 1979 0
-553 -1978 0
-562 -1979 0
490 499 508 517 526 535 544 553 562 0
-491 1981 0
-500 1982 0
-1981 1982 0
-500 -1981 0
-509 1983 0
-1982 1983 0
-509 -1982 0
-518 1984 0
-1983 1984 0
-518 -1983 0
-527 1985 0
-1984 1985 0
-527 -1984 0
-536 1986 0
-1985 1986 0
-536 -1985 0
-545 1987 0
-1986 1987 0
-545 -1986 0
-554 1988 0
-1987 1988 0
-554 -1987 0
-563 -1988 0
491 500 509 518 527 536 545 554 563 0
-492 1990 0
-501 1991 0
-1990 1991 0
-501 -1990 0
-510 1992 0
-1991 1992 0
-510 -1991 0
-519 1993 0
-1992 1993 0
-519 -1992 0
-528 1994 0
-1993 1994 0
-528 -1993 0
-537 1995 0
-1994 1995 0
-537 -1994 0
-546 1996 0
-1995 1996 0
-546 -1995 0
-555 1997 0
-1996 1997 0
-555 -1996 0
-564 -1997 0
492 501 510 519 528 537 546 555 564 0
-493 1999 0
-502 2000 0
-1999 2000 0
-502 -1999 0
-511 2001 0
-2000 2001 0
-511 -2000 0
-520 2002 0
-2001 2002 0
-520 -2001 0
-529 2003 0
-2002 2003 0
-529 -2002 0
-538 2004 0
-2003 2004 0
-538 -2003 0
-547 2005 0
-2004 2005 0
-547 -2004 0
-556 2006 0
-2005 2006 0
-556 -2005 0
-565 -2006 0
493 502 511 520 529 538 547 556 565 0
-494 2008 0
-503 2009 0
-2008 2009 0
-503 -2008 0
-512 2010 0
-2009 2010 0
-512 -2009 0
-521 2011 0
-2010 2011 0
-521 -2010 0
-530 2012 0
-2011 2012 0
-530 -2011 0
-539 2013 0
-2012 2013 0
-539 -2012 0
-548 2014 0
-2013 2014 0
-548 -2013 0
-557 2015 0
-2014 2015 0
-557 -2014 0
-566 -2015 0
494 503 512 521 530 539 548 557 566 0
-495 2017 0
-504 2018 0
-2017 2018 0
-504 -2017 0
-513 2019 0
-2018 2019 0
-513 -2018 0
-522 2020 0
-2019 2020 0
-522 -2019 0
-531 2021 0
-2020 2021 0
-531 -2020 0
-540 2022 0
-2021 2022 0
-540 -2021 0
-549 2023 0
-2022 2023 0
-549 -2022 0
-558 2024 0
-2023 2024 0
-558 -2023 0
-567 -2024 0
495 504 513 522 531 540 549 558 567 0
-568 2026 0
-577 2027 0
-2026 2027 0
-577 -2026 0
-586 2028 0
-2027 2028 0
-586 -2027 0
-595 2029 0
-2028 2029 0
-595 -2028 0
-604 2030 0
-2029 2030 0
-604 -2029 0
-613 2031 0
-2030 2031 0
-613 -2030 0
-622 2032 0
-2031 2032 0
-622 -2031 0
-631 2033 0
-2032 2033 0
-631 -2032 0
-640 -2033 0
568 577 586 595 604 613 622 631 640 0
-569 2035 0
-578 2036 0
-2035 2036 0
-578 -2035 0
-587 2037 0
-2036 2037 0
-587 -2036 0
-596 2038 0
-2037 2038 0
-596 -2037 0
-605 2039 0
-2038 2039 0
-605 -2038 0
-614 2040 0
-2039 2040 0
-614 -2039 0
-623 2041 0
-2040 2041 0
-623 -2040 0
-632 2042 0
-2041 2042 0
-632 -2041 0
-641 -2042 0
569 578 587 596 605 614 623 632 641 0
-570 2044 0
-579 2045 0
-2044 2045 0
-579 -2044 0
-588 2046 0
-2045 2046 0
-588 -2045 0
-597 2047 0
-2046 2047 0
-597 -2046 0
-606 2048 0
-2047 2048 0
-606 -2047 0
-615 2049 0
-2048 2049 0
-615 -2048 0
-624 2050 0
-2049 2050 0
-624 -2049 0
-633 2051 0
-2050 2051 0
-633 -2050 0
-642 -2051 0
570 579 588 597 606 615 624 633 642 0
-571 2053 0
-580 2054 0
-2053 2054 0
-580 -2053 0
-589 2055 0
-2054 2055 0
-589 -2054 0
-598 2056 0
-2055 2056 0
-598 -2055 0
-607 2057 0
-2056 2057 0
-607 -2056 0
-616 2058 0
-2057 2058 0
-616 -2057 0
-625 2059 0
-2058 2059 0
-625 -2058 0
-634 2060 0
-2059 2060 0
-634 -2059 0
-643 -2060 0
571 580 589 598 607 616 625 634 643 0
-572 2062 0
-581 2063 0
-2062 2063 0
-581 -2062 0
-590 2064 0
-2063 2064 0
-590 -2063 0
-599 2065 0
-2064 2065 0
-599 -2064 0
-608 2066 0
-2065 2066 0
-608 -2065 0
-617 2067 0
-2066 2067 0
-617 -2066 0
-626 2068 0
-2067 2068 0
-626 -2067 0
-635 2069 0
-2068 2069 0
-635 -2068 0
-644 -2069 0
572 581 590 599 608 617 626 635 644 0
-573 2071 0
-582 2072 0
-2071 2072 0
-582 -2071 0
-591 2073 0
-2072 2073 0
-591 -2072 0
-600 2074 0
-2073 2074 0
-600 -2073 0
-609 2075 0
-2074 2075 0
-609 -2074 0
-618 2076 0
-2075 2076 0
-618 -2075 0
-627 2077 0
-2076 2077 0
-627 -2076 0
-636 2078 0
-2077 2078 0
-636 -2077 0
-645 -2078 0
573 582 591 600 609 618 627 636 645 0
-574 2080 0
-583 2081 0
-2080 2081 0
-583 -2080 0
-592 2082 0
-2081 2082 0
-592 -2081 0
-601 2083 0
-2082 2083 0
-601 -2082 0
-610 2084 0
-2083 2084 0
-610 -2083 0
-619 2085 0
-2084 2085 0
-619 -2084 0
-628 2086 0
-2085 2086 0
-628 -2085 0
-637 2087 0
-2086 2087 0
-637 -2086 0
-646 -2087 0
574 583 592 601 610 619 628 637 646 0
-575 2089 0
-584 2090 0
-2089 2090 0
-584 -2089 0
-593 2091 0
-2090 2091 0
-593 -2090 0
-602 2092 0
-2091 2092 0
-602 -2091 0
-611 2093 0
-2092 2093 0
-611 -2092 0
-620 2094 0
-2093 2094 0
-620 -2093 0
-629 2095 0
-2094 2095 0
-629 -2094 0
-638 2096 0
-2095 2096 0
-638 -2095 0
-647 -2096 0
575 584 593 602 611 620 629 638 647 0
-576 2098 0
-585 2099 0
-2098 2099 0
-585 -2098 0
-594 2100 0
-2099 2100 0
-594 -2099 0
-603 2101 0
-2100 2101 0
-603 -2100 0
-612 2102 0
-2101 2102 0
-612 -2101 0
-621 2103 0
-2102 2103 0
-621 -2102 0
-630 2104 0
-2103 2104 0
-630 -2103 0
-639 2105 0
-2104 2105 0
-639 -2104 0
-648 -2105 0
576 585 594 603 612 621 630 639 648 0
-649 2107 0
-658 2108 0
-2107 2108 0
-658 -2107 0
-667 2109 0
-2108 2109 0
-667 -2108 0
-676 2110 0
-2109 2110 0
-676 -2109 0
-685 2111 0
-2110 2111 0
-685 -2110 0
-694 2112 0
-2111 2112 0
-694 -2111 0
-703 2113 0
-2112 2113 0
-703 -2112 0
-712 2114 0
-2113 2114 0
-712 -2113 0
-721 -2114 0
649 658 667 676 685 694 703 712 721 0
-650 2116 0
-659 2117 0
-2116 2117 0
-659 -2116 0
-668 2118 0
-2117 2118 0
-668 -2117 0
-677 2119 0
-2118 2119 0
-677 -2118 0
-686 2120 0
-2119 2120 0
-686 -2119 0
-695 2121 0
-2120 2121 0
-695 -2120 0
-704 2122 0
-2121 2122 0
-704 -2121 0
-713 2123 0
-2122 2123 0
-713 -2122 0
-722 -2123 0
650 659 668 677 686 695 704 713 722 0
-651 2125 0
-660 2126 0
-2125 2126 0
-660 -2125 0
-669 2127 0
-2126 2127 0
-669 -2126 0
-678 2128 0
-2127 2128 0
-678 -2127 0
-687 2129 0
-2128 2129 0
-687 -2128 0
-696 2130 0
-2129 2130 0
-696 -2129 0
-705 2131 0
-2130 2131 0
-705 -2130 0
-714 2132 0
-2131 2132 0
-714 -2131 0
-723 -2132 0
651 660 669 678 687 696 705 714 723 0
-652 2134 0
-661 2135 0
-2134 2135 0
-661 -2134 0
-670 2136 0
-2135 2136 0
-670 -2135 0
-679 2137 0
-2136 2137 0
-679 -2136 0
-688 2138 0
-2137 2138 0
-688 -2137 0
-697 2139 0
-2138 2139 0
-697 -2138 0
-706 2140 0
-2139 2140 0
-706 -2139 0
-715 2141 0
-2140 2141 0
-715 -2140 0
-724 -2141 0
652 661 670 679 688 697 706 715 724 0
-653 2143 0
-662 2144 0
-2143 2144 0
-662 -2143 0
-671 2145 0
-2144 2145 0
-671 -2144 0
-680 2146 0
-2145 2146 0
-680 -2145 0
-689 2147 0
-2146 2147 0
-689 -2146 0
-698 2148 0
-2147 2148 0
-698 -2147 0
-707 2149 0
-2148 2149 0
-707 -2148 0
-716 2150 0
-2149 2150 0
-716 -2149 0
-725 -2150 0
653 662 671 680 689 698 707 716 725 0
-654 2152 0
-663 2153 0
-2152 2153 0
-663 -2152 0
-672 2154 0
-2153 2154 0
-672 -2153 0
-681 2155 0
-2154 2155 0
-681 -2154 0
-690 2156 0
-2155 2156 0
-690 -2155 0
-699 2157 0
-2156 2157 0
-699 -2156 0
-708 2158 0
-2157 2158 0
-708 -2157 0
-717 2159 0
-2158 2159 0
-717 -2158 0
-726 -2159 0
654 663 672 681 690 699 708 717 726 0
-655 2161 0
-664 2162 0
-2161 2162 0
-664 -2161 0
-673 2163 0
-2162 2163 0
-673 -2162 0
-682 2164 0
-2163 2164 0
-682 -2163 0
-691 2165 0
-2164 2165 0
-691 -2164 0
-700 2166 0
-2165 2166 0
-700 -2165 0
-709 2167 0
-2166 2167 0
-709 -2166 0
-718 2168 0
-2167 2168 0
-718 -2167 0
-727 -2168 0
655 664 673 682 691 700 709 718 727 0
-656 2170 0
-665 2171 0
-2170 2171 0
-665 -2170 0
-674 2172 0
-2171 2172 0
-674 -2171 0
-683 2173 0
-2172 2173 0
-683 -2172 0
-692 2174 0
-2173 2174 0
-692 -2173 0
-701 2175 0
-2174 2175 0
-701 -2174 0
-710 2176 0
-2175 2176 0
-710 -2175 0
-719 2177 0
-2176 2177 0
-719 -2176 0
-728 -2177 0
656 665 674 683 692 701 710 719 728 0
-657 2179 0
-666 2180 0
-2179 2180 0
-666 -2179 0
-675 2181 0
-2180 2181 0
-675 -2180 0
-684 2182 0
-2181 2182 0
-684 -2181 0
-693 2183 0
-2182 2183 0
-693 -2182 0
-702 2184 0
-2183 2184 0
-702 -2183 0
-711 2185 0
-2184 2185 0
-711 -2184 0
-720 2186 0
-2185 2186 0
-720 -2185 0
-729 -2186 0
657 666 675 684 693 702 711 720 729 0
-1 2188 0
-82 2189 0
-2188 2189 0
-82 -2188 0
-163 2190 0
-2189 2190 0
-163 -2189 0
-244 2191 0
-2190 2191 0
-244 -2190 0
-325 2192 0
-2191 2192 0
-325 -2191 0
-406 2193 0
-2192 2193 0
-406 -2192 0
-487 2194 0
-2193 2194 0
-487 -2193 0
-568 2195 0
-2194 2195 0
-568 -2194 0
-649 -2195 0
1 82 163 244 325 406 487 568 649 0
-2 2197 0
-83 2198 0
-2197 2198 0
-83 -2197 0
-164 2199 0
-2198 2199 0
-164 -2198 0
-245 2200 0
-2199 2200 0
-245 -2199 0
-326 2201 0
-2200 2201 0
-326 -2200 0
-407 2202 0
-2201 2202 0
-407 -2201 0
-488 2203 0
-2202 2203 0
-488 -2202 0
-569 2204 0
-2203 2204 0
-569 -2203 0
-650 -2204 0
2 83 164 245 326 407 488 569 650 0
-3 2206 0
-84 2207 0
-2206 2207 0
-84 -2206 0
-165 2208 0
-2207 2208 0
-165 -2207 0
-246 2209 0
-2208 2209 0
-246 -2208 0
-327 2210 0
-2209 2210 0
-327 -2209 0
-408 2211 0
-2210 2211 0
-408 -2210 0
-489 2212 0
-2211 2212 0
-489 -2211 0
-570 2213 0
-2212 2213 0
-570 -2212 0
-651 -2213 0
3 84 165 246 327 408 489 570 651 0
-4 2215 0
-85 2216 0
-2215 2216 0
-85 -2215 0
-166 2217 0
-2216 2217 0
-166 -2216 0
-247 2218 0
-2217 2218 0
-247 -2217 0
-328 2219 0
-2218 2219 0
-328 -2218 0
-409 2220 0
-2219 2220 0
-409 -2219 0
-490 2221 0
-2220 2221 0
-490 -2220 0
-571 2222 0
-2221 2222 0
-571 -2221 0
-652 -2222 0
4 85 166 247 328 409 490 571 652 0
-5 2224 0
-86 2225 0
-2224 2225 0
-86 -2224 0
-167 2226 0
-2225 2226 0
-167 -2225 0
-248 2227 0
-2226 2227 0
-248 -2226 0
-329 2228 0
-2227 2228 0
-329 -2227 0
-410 2229 0
-2228 2229 0
-410 -2228 0
-491 2230 0
-2229 2230 0
-491 -2229 0
-572 2231 0
-2230 2231 0
-572 -2230 0
-653 -2231 0
5 86 167 248 329 410 491 572 653 0
-6 2233 0
-87 2234 0
-2233 2234 0
-87 -2233 0
-168 2235 0
-2234 2235 0
-168 -2234 0
-249 2236 0
-2235 2236 0
-249 -2235 0
-330 2237 0
-2236 2237 0
-330 -2236 0
-411 2238 0
-2237 2238 0
-411 -2237 0
-492 2239 0
-2238 2239 0
-492 -2238 0
-573 2240 0
-2239 2240 0
-573 -2239 0
-654 -2240 0
6 87 168 249 330 411 492 573 654 0
-7 2242 0
-88 2243 0
-2242 2243 0
-88 -2242 0
-169 2244 0
-2243 2244 0
-169 -2243 0
-250 2245 0
-2244 2245 0
-250 -2244 0
-331 2246 0
-2245 2246 0
-331 -2245 0
-412 2247 0
-2246 2247 0
-412 -2246 0
-493 2248 0
-2247 2248 0
-493 -2247 0
-574 2249 0
-2248 2249 0
-574 -2248 0
-655 -2249 0
7 88 169 250 331 412 493 574 655 0
-8 2251 0
-89 2252 0
-2251 2252 0
-89 -2251 0
-170 2253 0
-2252 2253 0
-170 -2252 0
-251 2254 0
-2253 2254 0
-251 -2253 0
-332 2255 0
-2254 2255 0
-332 -2254 0
-413 2256 0
-2255 2256 0
-413 -2255 0
-494 2257 0
-2256 2257 0
-494 -2256 0
-575 2258 0
-2257 2258 0
-575 -2257 0
-656 -2258 0
8 89 170 251 332 413 494 575 656 0
-9 2260 0
-90 2261 0
-2260 2261 0
-90 -2260 0
-171 2262 0
-2261 2262 0
-171 -2261 0
-252 2263 0
-2262 2263 0
-252 -2262 0
-333 2264 0
-2263 2264 0
-333 -2263 0
-414 2265 0
-2264 2265 0
-414 -2264 0
-495 2266 0
-2265 2266 0
-495 -2265 0
-576 2267 0
-2266 2267 0
-576 -2266 0
-657 -2267 0
9 90 171 252 333 414 495 576 657 0
-10 2269 0
-91 2270 0
-2269 2270 0
-91 -2269 0
-172 2271 0
-2270 2271 0
-172 -2270 0
-253 2272 0
-2271 2272 0
-253 -2271 0
-334 2273 0
-2272 2273 0
-334 -2272 0
-415 2274 0
-2273 2274 0
-415 -2273 0
-496 2275 0
-2274 2275 0
-496 -2274 0
-577 2276 0
-2275 2276 0
-577 -2275 0
-658 -2276 0
10 91 172 253 334 415 496 577 658 0
-11 2278 0
-92 2279 0
-2278 2279 0
-92 -2278 0
-173 2280 0
-2279 2280 0
-173 -2279 0
-254 2281 0
-2280 2281 0
-254 -2280 0
-335 2282 0
-2281 2282 0
-335 -2281 0
-416 2283 0
-2282 2283 0
-416 -2282 0
-497 2284 0
-2283 2284 0
-497 -2283 0
-578 2285 0
-2284 2285 0
-578 -2284 0
-659 -2285 0
11 92 173 254 335 416 497 578 659 0
-12 2287 0
-93 2288 0
-2287 2288 0
-93 -2287 0
-174 2289 0
-2288 2289 0
-174 -2288 0
-255 2290 0
-2289 2290 0
-255 -2289 0
-336 2291 0
-2290 2291 0
-336 -2290 0
-417 2292 0
-2291 2292 0
-417 -2291 0
-498 2293 0
-2292 2293 0
-498 -2292 0
-579 2294 0
-2293 2294 0
-579 -2293 0
-660 -2294 0
12 93 174 255 336 417 498 579 660 0
-13 2296 0
-94 2297 0
-2296 2297 0
-94 -2296 0
-175 2298 0
-2297 2298 0
-175 -2297 0
-256 2299 0
-2298 2299 0
-256 -2298 0
-337 2300 0
-2299 2300 0
-337 -2299 0
-418 2301 0
-2300 2301 0
-418 -2300 0
-499 2302 0
-2301 2302 0
-499 -2301 0
-580 2303 0
-2302 2303 0
-580 -2302 0
-661 -2303 0
13 94 175 256 337 418 499 580 661 0
-14 2305 0
-95 2306 0
-2305 2306 0
-95 -2305 0
-176 2307 0
-2306 2307 0
-176 -2306 0
-257 2308 0
-2307 2308 0
-257 -2307 0
-338 2309 0
-2308 2309 0
-338 -2308 0
-419 2310 0
-2309 2310 0
-419 -2309 0
-500 2311 0
-2310 2311 0
-500 -2310 0
-581 2312 0
-2311 2312 0
-581 -2311 0
-662 -2312 0
14 95 176 257 338 419 500 581 662 0
-15 2314 0
-96 2315 0
-2314 2315 0
-96 -2314 0
-177 2316 0
-2315 2316 0
-177 -2315 0
-258 2317 0
-2316 2317 0
-258 -2316 0
-339 2318 0
-2317 2318 0
-339 -2317 0
-420 2319 0
-2318 2319 0
-420 -2318 0
-501 2320 0
-2319 2320 0
-501 -2319 0
-582 2321 0
-2320 2321 0
-582 -2320 0
-663 -2321 0
15 96 177 258 339 420 501 582 663 0
-16 2323 0
-97 2324 0
-2323 2324 0
-97 -2323 0
-178 2325 0
-2324 2325 0
-178 -2324 0
-259 2326 0
-2325 2326 0
-259 -2325 0
-340 2327 0
-2326 2327 0
-340 -2326 0
-421 2328 0
-2327 2328 0
-421 -2327 0
-502 2329 0
-2328 2329 0
-502 -2328 0
-583 2330 0
-2329 2330 0
-583 -2329 0
-664 -2330 0
16 97 178 259 340 421 502 583 664 0
-17 2332 0
-98 2333 0
-2332 2333 0
-98 -2332 0
-179 2334 0
-2333 2334 0
-179 -2333 0
-260 2335 0
-2334 2335 0
-260 -2334 0
-341 2336 0
-2335 2336 0
-341 -2335 0
-422 2337 0
-2336 2337 0
-422 -2336 0
-503 2338 0
-2337 2338 0
-503 -2337 0
-584 2339 0
-2338 2339 0
-584 -2338 0
-665 -2339 0
17 98 179 260 341 422 503 584 665 0
-18 2341 0
-99 2342 0
-2341 2342 0
-99 -2341 0
-180 2343 0
-2342 2343 0
-180 -2342 0
-261 2344 0
-2343 2344 0
-261 -2343 0
-342 2345 0
-2344 2345 0
-342 -2344 0
-423 2346 0
-2345 2346 0
-423 -2345 0
-504 2347 0
-2346 2347 0
-504 -2346 0
-585 2348 0
-2347 2348 0
-585 -2347 0
-666 -2348 0
18 99 180 261 342 423 504 585 666 0
-19 2350 0
-100 2351 0
-2350 2351 0
-100 -2350 0
-181 2352 0
-2351 2352 0
-181 -2351 0
-262 2353 0
-2352 2353 0
-262 -2352 0
-343 2354 0
-2353 2354 0
-343 -2353 0
-424 2355 0
-2354 2355 0
-424 -2354 0
-505 2356 0
-2355 2356 0
-505 -2355 0
-586 2357 0
-2356 2357 0
-586 -2356 0
-667 -2357 0
19 100 181 262 343 424 505 586 667 0
-20 2359 0
-101 2360 0
-2359 2360 0
-101 -2359 0
-182 2361 0
-2360 2361 0
-182 -2360 0
-263 2362 0
-2361 2362 0
-263 -2361 0
-344 2363 0
-2362 2363 0
-344 -2362 0
-425 2364 0
-2363 2364 0
-425 -2363 0
-506 2365 0
-2364 2365 0
-506 -2364 0
-587 2366 0
-2365 2366 0
-587 -2365 0
-668 -2366 0
20 101 182 263 344 425 506 587 668 0
-21 2368 0
-102 2369 0
-2368 2369 0
-102 -2368 0
-183 2370 0
-2369 2370 0
-183 -2369 0
-264 2371 0
-2370 2371 0
-264 -2370 0
-345 2372 0
-2371 2372 0
-345 -2371 0
-426 2373 0
-2372 2373 0
-426 -2372 0
-507 2374 0
-2373 2374 0
-507 -2373 0
-588 2375 0
-2374 2375 0
-588 -2374 0
-669 -2375 0
21 102 183 264 345 426 507 588 669 0
-22 2377 0
-103 2378 0
-2377 2378 0
-103 -2377 0
-184 2379 0
-2378 2379 0
-184 -2378 0
-265 2380 0
-2379 2380 0
-265 -2379 0
-346 2381 0
-2380 2381 0
-346 -2380 0
-427 2382 0
-2381 2382 0
-427 -2381 0
-508 2383 0
-2382 2383 0
-508 -2382 0
-589 2384 0
-2383 2384 0
-589 -2383 0
-670 -2384 0
22 103 184 265 346 427 508 589 670 0
-23 2386 0
-104 2387 0
-2386 2387 0
-104 -2386 0
-185 2388 0
-2387 2388 0
-185 -2387 0
-266 2389 0
-2388 2389 0
-266 -2388 0
-347 2390 0
-2389 2390 0
-347 -2389 0
-428 2391 0
-2390 2391 0
-428 -2390 0
-509 2392 0
-2391 2392 0
-509 -2391 0
-590 2393 0
-2392 2393 0
-590 -2392 0
-671 -2393 0
23 104 185 266 347 428 509 590 671 0
-24 2395 0
-105 2396 0
-2395 2396 0
-105 -2395 0
-186 2397 0
-2396 2397 0
-186 -2396 0
-267 2398 0
-2397 2398 0
-267 -2397 0
-348 2399 0
-2398 2399 0
-348 -2398 0
-429 2400 0
-2399 2400 0
-429 -2399 0
-510 2401 0
-2400 2401 0
-510 -2400 0
-591 2402 0
-2401 2402 0
-591 -2401 0
-672 -2402 0
24 105 186 267 348 429 510 591 672 0
-25 2404 0
-106 2405 0
-2404 2405 0
-106 -2404 0
-187 2406 0
-2405 2406 0
-187 -2405 0
-268 2407 0
-2406 2407 0
-268 -2406 0
-349 2408 0
-2407 2408 0
-349 -2407 0
-430 2409 0
-2408 2409 0
-430 -2408 0
-511 2410 0
-2409 2410 0
-511 -2409 0
-592 2411 0
-2410 2411 0
-592 -2410 0
-673 -2411 0
25 106 187 268 349 430 511 592 673 0
-26 2413 0
-107 2414 0
-2413 2414 0
-107 -2413 0
-188 2415 0
-2414 2415 0
-188 -2414 0
-269 2416 0
-2415 2416 0
-269 -2415 0
-350 2417 0
-2416 2417 0
-350 -2416 0
-431 2418 0
-2417 2418 0
-431 -2417 0
-512 2419 0
-2418 2419 0
-512 -2418 0
-593 2420 0
-2419 2420 0
-593 -2419 0
-674 -2420 0
26 107 188 269 350 431 512 593 674 0
-27 2422 0
-108 2423 0
-2422 2423 0
-108 -2422 0
-189 2424 0
-2423 2424 0
-189 -2423 0
-270 2425 0
-2424 2425 0
-270 -2424 0
-351 2426 0
-2425 2426 0
-351 -2425 0
-432 2427 0
-2426 2427 0
-432 -2426 0
-513 2428 0
-2427 2428 0
-513 -2427 0
-594 2429 0
-2428 2429 0
-594 -2428 0
-675 -2429 0
27 108 189 270 351 432 513 594 675 0
-28 2431 0
-109 2432 0
-2431 2432 0
-109 -2431 0
-190 2433 0
-2432 2433 0
-190 -2432 0
-271 2434 0
-2433 2434 0
-271 -2433 0
-352 2435 0
-2434 2435 0
-352 -2434 0
-433 2436 0
-2435 2436 0
-433 -2435 0
-514 2437 0
-2436 2437 0
-514 -2436 0
-595 2438 0
-2437 2438 0
-595 -2437 0
-676 -2438 0
28 109 190 271 352 433 514 595 676 0
-29 2440 0
-110 2441 0
-2440 2441 0
-110 -2440 0
-191 2442 0
-2441 2442 0
-191 -2441 0
-272 2443 0
-2442 2443 0
-272 -2442 0
-353 2444 0
-2443 2444 0
-353 -2443 0
-434 2445 0
-2444 2445 0
-434 -2444 0
-515 2446 0
-2445 2446 0
-515 -2445 0
-596 2447 0
-2446 2447 0
-596 -2446 0
-677 -2447 0
29 110 191 272 353 434 515 596 677 0
-30 2449 0
-111 2450 0
-2449 2450 0
-111 -2449 0
-192 2451 0
-2450 2451 0
-192 -2450 0
-273 2452 0
-2451 2452 0
-273 -2451 0
-354 2453 0
-2452 2453 0
-354 -2452 0
-435 2454 0
-2453 2454 0
-435 -2453 0
-516 2455 0
-2454 2455 0
-516 -2454 0
-597 2456 0
-2455 2456 0
-597 -2455 0
-678 -2456 0
30 111 192 273 354 435 516 597 678 0
-31 2458 0
-112 2459 0
-2458 2459 0
-112 -2458 0
-193 2460 0
-2459 2460 0
-193 -2459 0
-274 2461 0
-2460 2461 0
-274 -2460 0
-355 2462 0
-2461 2462 0
-355 -2461 0
-436 2463 0
-2462 2463 0
-436 -2462 0
-517 2464 0
-2463 2464 0
-517 -2463 0
-598 2465 0
-2464 2465 0
-598 -2464 0
-679 -2465 0
31 112 193 274 355 436 517 598 679 0
-32 2467 0
-113 2468 0
-2467 2468 0
-113 -2467 0
-194 2469 0
-2468 2469 0
-194 -2468 0
-275 2470 0
-2469 2470 0
-275 -2469 0
-356 2471 0
-2470 2471 0
-356 -2470 0
-437 2472 0
-2471 2472 0
-437 -2471 0
-518 2473 0
-2472 2473 0
-518 -2472 0
-599 2474 0
-2473 2474 0
-599 -2473 0
-680 -2474 0
32 113 194 275 356 437 518 599 680 0
-33 2476 0
-114 2477 0
-2476 2477 0
-114 -2476 0
-195 2478 0
-2477 2478 0
-195 -2477 0
-276 2479 0
-2478 2479 0
-276 -2478 0
-357 2480 0
-2479 2480 0
-357 -2479 0
-438 2481 0
-2480 2481 0
-438 -2480 0
-519 2482 0
-2481 2482 0
-519 -2481 0
-600 2483 0
-2482 2483 0
-600 -2482 0
-681 -2483 0
33 114 195 276 357 438 519 600 681 0
-34 2485 0
-115 2486 0
-2485 2486 0
-115 -2485 0
-196 2487 0
-2486 2487 0
-196 -2486 0
-277 2488 0
-2487 2488 0
-277 -2487 0
-358 2489 0
-2488 2489 0
-358 -2488 0
-439 2490 0
-2489 2490 0
-439 -2489 0
-520 2491 0
-2490 2491 0
-520 -2490 0
-601 2492 0
-2491 2492 0
-601 -2491 0
-682 -2492 0
34 115 196 277 358 439 520 601 682 0
-35 2494 0
-116 2495 0
-2494 2495 0
-116 -2494 0
-197 2496 0
-2495 2496 0
-197 -2495 0
-278 2497 0
-2496 2497 0
-278 -2496 0
-359 2498 0
-2497 2498 0
-359 -2497 0
-440 2499 0
-2498 2499 0
-440 -2498 0
-521 2500 0
-2499 2500 0
-521 -2499 0
-602 2501 0
-2500 2501 0
-602 -2500 0
-683 -2501 0
35 116 197 278 359 440 521 602 683 0
-36 2503 0
-117 2504 0
-2503 2504 0
-117 -2503 0
-198 2505 0
-2504 2505 0
-198 -2504 0
-279 2506 0
-2505 2506 0
-279 -2505 0
-360 2507 0
-2506 2507 0
-360 -2506 0
-441 2508 0
-2507 2508 0
-441 -2507 0
-522 2509 0
-2508 2509 0
-522 -2508 0
-603 2510 0
-2509 2510 0
-603 -2509 0
-684 -2510 0
36 117 198 279 360 441 522 603 684 0
-37 2512 0
-118 2513 0
-2512 2513 0
-118 -2512 0
-199 2514 0
-2513 2514 0
-199 -2513 0
-280 2515 0
-2514 2515 0
-280 -2514 0
-361 2516 0
-2515 2516 0
-361 -2515 0
-442 2517 0
-2516 2517 0
-442 -2516 0
-523 2518 0
-2517 2518 0
-523 -2517 0
-604 2519 0
-2518 2519 0
-604 -2518 0
-685 -2519 0
37 118 199 280 361 442 523 604 685 0
-38 2521 0
-119 2522 0
-2521 2522 0
-119 -2521 0
-200 2523 0
-2522 2523 0
-200 -2522 0
-281 2524 0
-2523 2524 0
-281 -2523 0
-362 2525 0
-2524 2525 0
-362 -2524 0
-443 2526 0
-2525 2526 0
-443 -2525 0
-524 2527 0
-2526 2527 0
-524 -2526 0
-605 2528 0
-2527 2528 0
-605 -2527 0
-686 -2528 0
38 119 200 281 362 443 524 605 686 0
-39 2530 0
-120 2531 0
-2530 2531 0
-120 -2530 0
-201 2532 0
-2531 2532 0
-201 -2531 0
-282 2533 0
-2532 2533 0
-282 -2532 0
-363 2534 0
-2533 2534 0
-363 -2533 0
-444 2535 0
-2534 2535 0
-444 -2534 0
-525 2536 0
-2535 2536 0
-525 -2535 0
-606 2537 0
-2536 2537 0
-606 -2536 0
-687 -2537 0
39 120 201 282 363 444 525 606 687 0
-40 2539 0
-121 2540 0
-2539 2540 0
-121 -2539 0
-202 2541 0
-2540 2541 0
-202 -2540 0
-283 2542 0
-2541 2542 0
-283 -2541 0
-364 2543 0
-2542 2543 0
-364 -2542 0
-445 2544 0
-2543 2544 0
-445 -2543 0
-526 2545 0
-2544 2545 0
-526 -2544 0
-607 2546 0
-2545 2546 0
-607 -2545 0
-688 -2546 0
40 121 202 283 364 445 526 607 688 0
-41 2548 0
-122 2549 0
-2548 2549 0
-122 -2548 0
-203 2550 0
-2549 2550 0
-203 -2549 0
-284 2551 0
-2550 2551 0
-284 -2550 0
-365 2552 0
-2551 2552 0
-365 -2551 0
-446 2553 0
-2552 2553 0
-446 -2552 0
-527 2554 0
-2553 2554 0
-527 -2553 0
-608 2555 0
-2554 2555 0
-608 -2554 0
-689 -2555 0
41 122 203 284 365 446 527 608 689 0
-42 2557 0
-123 2558 0
-2557 2558 0
-123 -2557 0
-204 2559 0
-2558 2559 0
-204 -2558 0
-285 2560 0
-2559 2560 0
-285 -2559 0
-366 2561 0
-2560 2561 0
-366 -2560 0
-447 2562 0
-2561 2562 0
-447 -2561 0
-528 2563 0
-2562 2563 0
-528 -2562 0
-609 2564 0
-2563 2564 0
-609 -2563 0
-690 -2564 0
42 123 204 285 366 447 528 609 690 0
-43 2566 0
-124 2567 0
-2566 2567 0
-124 -2566 0
-205 2568 0
-2567 2568 0
-205 -2567 0
-286 2569 0
-2568 2569 0
-286 -2568 0
-367 2570 0
-2569 2570 0
-367 -2569 0
-448 2571 0
-2570 2571 0
-448 -2570 0
-529 2572 0
-2571 2572 0
-529 -2571 0
-610 2573 0
-2572 2573 0
-610 -2572 0
-691 -2573 0
43 124 205 286 367 448 529 610 691 0
-44 2575 0
-125 2576 0
-2575 2576 0
-125 -2575 0
-206 2577 0
-2576 2577 0
-206 -2576 0
-287 2578 0
-2577 2578 0
-287 -2577 0
-368 2579 0
-2578 2579 0
-368 -2578 0
-449 2580 0
-2579 2580 0
-449 -2579 0
-530 2581 0
-2580 2581 0
-530 -2580 0
-611 2582 0
-2581 2582 0
-611 -2581 0
-692 -2582 0
44 125 206 287 368 449 530 611 692 0
-45 2584 0
-126 2585 0
-2584 2585 0
-126 -2584 0
-207 2586 0
-2585 2586 0
-207 -2585 0
-288 2587 0
-2586 2587 0
-288 -2586 0
-369 2588 0
-2587 2588 0
-369 -2587 0
-450 2589 0
-2588 2589 0
-450 -2588 0
-531 2590 0
-2589 2590 0
-531 -2589 0
-612 2591 0
-2590 2591 0
-612 -2590 0
-693 -2591 0
45 126 207 288 369 450 531 612 693 0
-46 2593 0
-127 2594 0
-2593 2594 0
-127 -2593 0
-208 2595 0
-2594 2595 0
-208 -2594 0
-289 2596 0
-2595 2596 0
-289 -2595 0
-370 2597 0
-2596 2597 0
-370 -2596 0
-451 2598 0
-2597 2598 0
-451 -2597 0
-532 2599 0
-2598 2599 0
-532 -2598 0
-613 2600 0
-2599 2600 0
-613 -2599 0
-694 -2600 0
46 127 208 289 370 451 532 613 694 0
-47 2602 0
-128 2603 0
-2602 2603 0
-128 -2602 0
-209 2604 0
-2603 2604 0
-209 -2603 0
-290 2605 0
-2604 2605 0
-290 -2604 0
-371 2606 0
-2605 2606 0
-371 -2605 0
-452 2607 0
-2606 2607 0
-452 -2606 0
-533 2608 0
-2607 2608 0
-533 -2607 0
-614 2609 0
-2608 2609 0
-614 -2608 0
-695 -2609 0
47 128 209 290 371 452 533 614 695 0
-48 2611 0
-129 2612 0
-2611 2612 0
-129 -2611 0
-210 2613 0
-2612 2613 0
-210 -2612 0
-291 2614 0
-2613 2614 0
-291 -2613 0
-372 2615 0
-2614 2615 0
-372 -2614 0
-453 2616 0
-2615 2616 0
-453 -2615 0
-534 2617 0
-2616 2617 0
-534 -2616 0
-615 2618 0
-2617 2618 0
-615 -2617 0
-696 -2618 0
48 129 210 291 372 453 534 615 696 0
-49 2620 0
-130 2621 0
-2620 2621 0
-130 -2620 0
-211 2622 0
-2621 2622 0
-211 -2621 0
-292 2623 0
-2622 2623 0
-292 -2622 0
-373 2624 0
-2623 2624 0
-373 -2623 0
-454 2625 0
-2624 2625 0
-454 -2624 0
-535 2626 0
-2625 2626 0
-535 -2625 0
-616 2627 0
-2626 2627 0
-616 -2626 0
-697 -2627 0
49 130 211 292 373 454 535 616 697 0
-50 2629 0
-131 2630 0
-2629 2630 0
-131 -2629 0
-212 2631 0
-2630 2631 0
-212 -2630 0
-293 2632 0
-2631 2632 0
-293 -2631 0
-374 2633 0
-2632 2633 0
-374 -2632 0
-455 2634 0
-2633 2634 0
-455 -2633 0
-536 2635 0
-2634 2635 0
-536 -2634 0
-617 2636 0
-2635 2636 0
-617 -2635 0
-698 -2636 0
50 131 212 293 374 455 536 617 698 0
-51 2638 0
-132 2639 0
-2638 2639 0
-132 -2638 0
-213 2640 0
-2639 2640 0
-213 -2639 0
-294 2641 0
-2640 2641 0
-294 -2640 0
-375 2642 0
-2641 2642 0
-375 -2641 0
-456 2643 0
-2642 2643 0
-456 -2642 0
-537 2644 0
-2643 2644 0
-537 -2643 0
-618 2645 0
-2644 2645 0
-618 -2644 0
-699 -2645 0
51 132 213 294 375 456 537 618 699 0
-52 2647 0
-133 2648 0
-2647 2648 0
-133 -2647 0
-214 2649 0
-2648 2649 0
-214 -2648 0
-295 2650 0
-2649 2650 0
-295 -2649 0
-376 2651 0
-2650 2651 0
-376 -2650 0
-457 2652 0
-2651 2652 0
-457 -2651 0
-538 2653 0
-2652 2653 0
-538 -2652 0
-619 2654 0
-2653 2654 0
-619 -2653 0
-700 -2654 0
52 133 214 295 376 457 538 619 700 0
-53 2656 0
-134 2657 0
-2656 2657 0
-134 -2656 0
-215 2658 0
-2657 2658 0
-215 -2657 0
-296 2659 0
-2658 2659 0
-296 -2658 0
-377 2660 0
-2659 2660 0
-377 -2659 0
-458 2661 0
-2660 2661 0
-458 -2660 0
-539 2662 0
-2661 2662 0
-539 -2661 0
-620 2663 0
-2662 2663 0
-620 -2662 0
-701 -2663 0
53 134 215 296 377 458 539 620 701 0
-54 2665 0
-135 2666 0
-2665 2666 0
-135 -2665 0
-216 2667 0
-2666 2667 0
-216 -2666 0
-297 2668 0
-2667 2668 0
-297 -2667 0
-378 2669 0
-2668 2669 0
-378 -2668 0
-459 2670 0
-2669 2670 0
-459 -2669 0
-540 2671 0
-2670 2671 0
-540 -2670 0
-621 2672 0
-2671 2672 0
-621 -2671 0
-702 -2672 0
54 135 216 297 378 459 540 621 702 0
-55 2674 0
-136 2675 0
-2674 2675 0
-136 -2674 0
-217 2676 0
-2675 2676 0
-217 -2675 0
-298 2677 0
-2676 2677 0
-298 -2676 0
-379 2678 0
-2677 2678 0
-379 -2677 0
-460 2679 0
-2678 2679 0
-460 -2678 0
-541 2680 0
-2679 2680 0
-541 -2679 0
-622 2681 0
-2680 2681 0
-622 -2680 0
-703 -2681 0
55 136 217 298 379 460 541 622 703 0
-56 2683 0
-137 2684 0
-2683 2684 0
-137 -2683 0
-218 2685 0
-2684 2685 0
-218 -2684 0
-299 2686 0
-2685 2686 0
-299 -2685 0
-380 2687 0
-2686 2687 0
-380 -2686 0
-461 2688 0
-2687 2688 0
-461 -2687 0
-542 2689 0
-2688 2689 0
-542 -2688 0
-623 2690 0
-2689 2690 0
-623 -2689 0
-704 -2690 0
56 137 218 299 380 461 542 623 704 0
-57 2692 0
-138 2693 0
-2692 2693 0
-138 -2692 0
-219 2694 0
-2693 2694 0
-219 -2693 0
-300 2695 0
-2694 2695 0
-300 -2694 0
-381 2696 0
-2695 2696 0
-381 -2695 0
-462 2697 0
-2696 2697 0
-462 -2696 0
-543 2698 0
-2697 2698 0
-543 -2697 0
-624 2699 0
-2698 2699 0
-624 -2698 0
-705 -2699 0
57 138 219 300 381 462 543 624 705 0
-58 2701 0
-139 2702 0
-2701 2702 0
-139 -2701 0
-220 2703 0
-2702 2703 0
-220 -2702 0
-301 2704 0
-2703 2704 0
-301 -2703 0
-382 2705 0
-2704 2705 0
-382 -2704 0
-463 2706 0
-2705 2706 0
-463 -2705 0
-544 2707 0
-2706 2707 0
-544 -2706 0
-625 2708 0
-2707 2708 0
-625 -2707 0
-706 -2708 0
58 139 220 301 382 463 544 625 706 0
-59 2710 0
-140 2711 0
-2710 2711 0
-140 -2710 0
-221 2712 0
-2711 2712 0
-221 -2711 0
-302 2713 0
-2712 2713 0
-302 -2712 0
-383 2714 0
-2713 2714 0
-383 -2713 0
-464 2715 0
-2714 2715 0
-464 -2714 0
-545 2716 0
-2715 2716 0
-545 -2715 0
-626 2717 0
-2716 2717 0
-626 -2716 0
-707 -2717 0
59 140 221 302 383 464 545 626 707 0
-60 2719 0
-141 2720 0
-2719 2720 0
-141 -2719 0
-222 2721 0
-2720 2721 0
-222 -2720 0
-303 2722 0
-2721 2722 0
-303 -2721 0
-384 2723 0
-2722 2723 0
-384 -2722 0
-465 2724 0
-2723 2724 0
-465 -2723 0
-546 2725 0
-2724 2725 0
-546 -2724 0
-627 2726 0
-2725 2726 0
-627 -2725 0
-708 -2726 0
60 141 222 303 384 465 546 627 708 0
-61 2728 0
-142 2729 0
-2728 2729 0
-142 -2728 0
-223 2730 0
-2729 2730 0
-223 -2729 0
-304 2731 0
-2730 2731 0
-304 -2730 0
-385 2732 0
-2731 2732 0
-385 -2731 0
-466 2733 0
-2732 2733 0
-466 -2732 0
-547 2734 0
-2733 2734 0
-547 -2733 0
-628 2735 0
-2734 2735 0
-628 -2734 0
-709 -2735 0
61 142 223 304 385 466 547 628 709 0
-62 2737 0
-143 2738 0
-2737 2738 0
-143 -2737 0
-224 2739 0
-2738 2739 0
-224 -2738 0
-305 2740 0
-2739 2740 0
-305 -2739 0
-386 2741 0
-2740 2741 0
-386 -2740 0
-467 2742 0
-2741 2742 0
-467 -2741 0
-548 2743 0
-2742 2743 0
-548 -2742 0
-629 2744 0
-2743 2744 0
-629 -2743 0
-710 -2744 0
62 143 224 305 386 467 548 629 710 0
-63 2746 0
-144 2747 0
-2746 2747 0
-144 -2746 0
-225 2748 0
-2747 2748 0
-225 -2747 0
-306 2749 0
-2748 2749 0
-306 -2748 0
-387 2750 0
-2749 2750 0
-387 -2749 0
-468 2751 0
-2750 2751 0
-468 -2750 0
-549 2752 0
-2751 2752 0
-549 -2751 0
-630 2753 0
-2752 2753 0
-630 -2752 0
-711 -2753 0
63 144 225 306 387 468 549 630 711 0
-64 2755 0
-145 2756 0
-2755 2756 0
-145 -2755 0
-226 2757 0
-2756 2757 0
-226 -2756 0
-307 2758 0
-2757 2758 0
-307 -2757 0
-388 2759 0
-2758 2759 0
-388 -2758 0
-469 2760 0
-2759 2760 0
-469 -2759 0
-550 2761 0
-2760 2761 0
-550 -2760 0
-631 2762 0
-2761 2762 0
-631 -2761 0
-712 -2762 0
64 145 226 307 388 469 550 631 712 0
-65 2764 0
-146 2765 0
-2764 2765 0
-146 -2764 0
-227 2766 0
-2765 2766 0
-227 -2765 0
-308 2767 0
-2766 2767 0
-308 -2766 0
-389 2768 0
-2767 2768 0
-389 -2767 0
-470 2769 0
-2768 2769 0
-470 -2768 0
-551 2770 0
-2769 2770 0
-551 -2769 0
-632 2771 0
-2770 2771 0
-632 -2770 0
-713 -2771 0
65 146 227 308 389 470 551 632 713 0
-66 2773 0
-147 2774 0
-2773 2774 0
-147 -2773 0
-228 2775 0
-2774 2775 0
-228 -2774 0
-309 2776 0
-2775 2776 0
-309 -2775 0
-390 2777 0
-2776 2777 0
-390 -2776 0
-471 2778 0
-2777 2778 0
-471 -2777 0
-552 2779 0
-2778 2779 0
-552 -2778 0
-633 2780 0
-2779 2780 0
-633 -2779 0
-714 -2780 0
66 147 228 309 390 471 552 633 714 0
-67 2782 0
-148 2783 0
-2782 2783 0
-148 -2782 0
-229 2784 0
-2783 2784 0
-229 -2783 0
-310 2785 0
-2784 2785 0
-310 -2784 0
-391 2786 0
-2785 2786 0
-391 -2785 0
-472 2787 0
-2786 2787 0
-472 -2786 0
-553 2788 0
-2787 2788 0
-553 -2787 0
-634 2789 0
-2788 2789 0
-634 -2788 0
-715 -2789 0
67 148 229 310 391 472 553 634 715 0
-68 2791 0
-149 2792 0
-2791 2792 0
-149 -2791 0
-230 2793 0
-2792 2793 0
-230 -2792 0
-311 2794 0
-2793 2794 0
-311 -2793 0
-392 2795 0
-2794 2795 0
-392 -2794 0
-473 2796 0
-2795 2796 0
-473 -2795 0
-554 2797 0
-2796 2797 0
-554 -2796 0
-635 2798 0
-2797 2798 0
-635 -2797 0
-716 -2798 0
68 149 230 311 392 473 554 635 716 0
-69 2800 0
-150 2801 0
-2800 2801 0
-150 -2800 0
-231 2802 0
-2801 2802 0
-231 -2801 0
-312 2803 0
-2802 2803 0
-312 -2802 0
-393 2804 0
-2803 2804 0
-393 -2803 0
-474 2805 0
-2804 2805 0
-474 -2804 0
-555 2806 0
-2805 2806 0
-555 -2805 0
-636 2807 0
-2806 2807 0
-636 -2806 0
-717 -2807 0
69 150 231 312 393 474 555 636 717 0
-70 2809 0
-151 2810 0
-2809 2810 0
-151 -2809 0
-232 2811 0
-2810 2811 0
-232 -2810 0
-313 2812 0
-2811 2812 0
-313 -2811 0
-394 2813 0
-2812 2813 0
-394 -2812 0
-475 2814 0
-2813 2814 0
-475 -2813 0
-556 2815 0
-2814 2815 0
-556 -2814 0
-637 2816 0
-2815 2816 0
-637 -2815 0
-718 -2816 0
70 151 232 313 394 475 556 637 718 0
-71 2818 0
-152 2819 0
-2818 2819 0
-152 -2818 0
-233 2820 0
-2819 2820 0
-233 -2819 0
-314 2821 0
-2820 2821 0
-314 -2820 0
-395 2822 0
-2821 2822 0
-395 -2821 0
-476 2823 0
-2822 2823 0
-476 -2822 0
-557 2824 0
-2823 2824 0
-557 -2823 0
-638 2825 0
-2824 2825 0
-638 -2824 0
-719 -2825 0
71 152 233 314 395 476 557 638 719 0
-72 2827 0
-153 2828 0
-2827 2828 0
-153 -2827 0
-234 2829 0
-2828 2829 0
-234 -2828 0
-315 2830 0
-2829 2830 0
-315 -2829 0
-396 2831 0
-2830 2831 0
-396 -2830 0
-477 2832 0
-2831 2832 0
-477 -2831 0
-558 2833 0
-2832 2833 0
-558 -2832 0
-639 2834 0
-2833 2834 0
-639 -2833 0
-720 -2834 0
72 153 234 315 396 477 558 639 720 0
-73 2836 0
-154 2837 0
-2836 2837 0
-154 -2836 0
-235 2838 0
-2837 2838 0
-235 -2837 0
-316 2839 0
-2838 2839 0
-316 -2838 0
-397 2840 0
-2839 2840 0
-397 -2839 0
-478 2841 0
-2840 2841 0
-478 -2840 0
-559 2842 0
-2841 2842 0
-559 -2841 0
-640 2843 0
-2842 2843 0
-640 -2842 0
-721 -2843 0
73 154 235 316 397 478 559 640 721 0
-74 2845 0
-155 2846 0
-2845 2846 0
-155 -2845 0
-236 2847 0
-2846 2847 0
-236 -2846 0
-317 2848 0
-2847 2848 0
-317 -2847 0
-398 2849 0
-2848 2849 0
-398 -2848 0
-479 2850 0
-2849 2850 0
-479 -2849 0
-560 2851 0
-2850 2851 0
-560 -2850 0
-641 2852 0
-2851 2852 0
-641 -2851 0
-722 -2852 0
74 155 236 317 398 479 560 641 722 0
-75 2854 0
-156 2855 0
-2854 2855 0
-156 -2854 0
-237 2856 0
-2855 2856 0
-237 -2855 0
-318 2857 0
-2856 2857 0
-318 -2856 0
-399 2858 0
-2857 2858 0
-399 -2857 0
-480 2859 0
-2858 2859 0
-480 -2858 0
-561 2860 0
-2859 2860 0
-561 -2859 0
-642 2861 0
-2860 2861 0
-642 -2860 0
-723 -2861 0
75 156 237 318 399 480 561 642 723 0
-76 2863 0
-157 2864 0
-2863 2864 0
-157 -2863 0
-238 2865 0
-2864 2865 0
-238 -2864 0
-319 2866 0
-2865 2866 0
-319 -2865 0
-400 2867 0
-2866 2867 0
-400 -2866 0
-481 2868 0
-2867 2868 0
-481 -2867 0
-562 2869 0
-2868 2869 0
-562 -2868 0
-643 2870 0
-2869 2870 0
-643 -2869 0
-724 -2870 0
76 157 238 319 400 481 562 643 724 0
-77 2872 0
-158 2873 0
-2872 2873 0
-158 -2872 0
-239 2874 0
-2873 2874 0
-239 -2873 0
-320 2875 0
-2874 2875 0
-320 -2874 0
-401 2876 0
-2875 2876 0
-401 -2875 0
-482 2877 0
-2876 2877 0
-482 -2876 0
-563 2878 0
-2877 2878 0
-563 -2877 0
-644 2879 0
-2878 2879 0
-644 -2878 0
-725 -2879 0
77 158 239 320 401 482 563 644 725 0
-78 2881 0
-159 2882 0
-2881 2882 0
-159 -2881 0
-240 2883 0
-2882 2883 0
-240 -2882 0
-321 2884 0
-2883 2884 0
-321 -2883 0
-402 2885 0
-2884 2885 0
-402 -2884 0
-483 2886 0
-2885 2886 0
-483 -2885 0
-564 2887 0
-2886 2887 0
-564 -2886 0
-645 2888 0
-2887 2888 0
-645 -2887 0
-726 -2888 0
78 159 240 321 402 483 564 645 726 0
-79 2890 0
-160 2891 0
-2890 2891 0
-160 -2890 0
-241 2892 0
-2891 2892 0
-241 -2891 0
-322 2893 0
-2892 2893 0
-322 -2892 0
-403 2894 0
-2893 2894 0
-403 -2893 0
-484 2895 0
-2894 2895 0
-484 -2894 0
-565 2896 0
-2895 2896 0
-565 -2895 0
-646 2897 0
-2896 2897 0
-646 -2896 0
-727 -2897 0
79 160 241 322 403 484 565 646 727 0
-80 2899 0
-161 2900 0
-2899 2900 0
-161 -2899 0
-242 2901 0
-2900 2901 0
-242 -2900 0
-323 2902 0
-2901 2902 0
-323 -2901 0
-404 2903 0
-2902 2903 0
-404 -2902 0
-485 2904 0
-2903 2904 0
-485 -2903 0
-566 2905 0
-2904 2905 0
-566 -2904 0
-647 2906 0
-2905 2906 0
-647 -2905 0
-728 -2906 0
80 161 242 323 404 485 566 647 728 0
-81 2908 0
-162 2909 0
-2908 2909 0
-162 -2908 0
-243 2910 0
-2909 2910 0
-243 -2909 0
-324 2911 0
-2910 2911 0
-324 -2910 0
-405 2912 0
-2911 2912 0
-405 -2911 0
-486 2913 0
-2912 2913 0
-486 -2912 0
-567 2914 0
-2913 2914 0
-567 -2913 0
-648 2915 0
-2914 2915 0
-648 -2914 0
-729 -2915 0
81 162 243 324 405 486 567 648 729 0
-2917 2926 0
-2927 0
-2928 0
-2929 0
-2930 0
-2931 0
-2932 0
-2918 2933 0
-2926 2933 0
-2918 -2926 2934 0
-2927 2934 0
-2918 -2927 2935 0
-2928 2935 0
-2918 -2928 2936 0
-2929 2936 0
-2918 -2929 2937 0
-2930 2937 0
-2918 -2930 2938 0
-2931 2938 0
-2918 -2931 2939 0
-2932 2939 0
-2918 -2932 0
-2919 2940 0
-2933 2940 0
-2919 -2933 2941 0
-2934 2941 0
-2919 -2934 2942 0
-2935 2942 0
-2919 -2935 2943 0
-2936 2943 0
-2919 -2936 2944 0
-2937 2944 0
-2919 -2937 2945 0
-2938 2945 0
-2919 -2938 2946 0
-2939 2946 0
-2919 -2939 0
-2920 2947 0
-2940 2947 0
-2920 -2940 2948 0
-2941 2948 0
-2920 -2941 2949 0
-2942 2949 0
-2920 -2942 2950 0
-2943 2950 0
-2920 -2943 2951 0
-2944 2951 0
-2920 -2944 2952 0
-2945 2952 0
-2920 -2945 2953 0
-2946 2953 0
-2920 -2946 0
-2921 2954 0
-2947 2954 0
-2921 -2947 2955 0
-2948 2955 0
-2921 -2948 2956 0
-2949 2956 0
-2921 -2949 2957 0
-2950 2957 0
-2921 -2950 2958 0
-2951 2958 0
-2921 -2951 2959 0
-2952 2959 0
-2921 -2952 2960 0
-2953 2960 0
-2921 -2953 0
-2922 2961 0
-2954 2961 0
-2922 -2954 2962 0
-2955 2962 0
-2922 -2955 2963 0
-2956 2963 0
-2922 -2956 2964 0
-2957 2964 0
-2922 -2957 2965 0
-2958 2965 0
-2922 -2958 2966 0
-2959 2966 0
-2922 -2959 2967 0
-2960 2967 0
-2922 -2960 0
-2923 2968 0
-2961 2968 0
-2923 -2961 2969 0
-2962 2969 0
-2923 -2962 2970 0
-2963 2970 0
-2923 -2963 2971 0
-2964 2971 0
-2923 -2964 2972 0
-2965 2972 0
-2923 -2965 2973 0
-2966 2973 0
-2923 -2966 2974 0
-2967 2974 0
-2923 -2967 0
-2924 2975 0
-2968 2975 0
-2924 -2968 2976 0
-2969 2976 0
-2924 -2969 2977 0
-2970 2977 0
-2924 -2970 2978 0
-2971 2978 0
-2924 -2971 2979 0
-2972 2979 0
-2924 -2972 2980 0
-2973 2980 0
-2924 -2973 2981 0
-2974 2981 0
-2924 -2974 0
-2925 -2981 0
2917 2989 0
-2990 0
2918 2991 0
-2989 2991 0
2918 -2989 2992 0
-2990 2992 0
2918 -2990 0
2919 2993 0
-2991 2993 0
2919 -2991 2994 0
-2992 2994 0
2919 -2992 0
2920 2995 0
-2993 2995 0
2920 -2993 2996 0
-2994 2996 0
2920 -2994 0
2921 2997 0
-2995 2997 0
2921 -2995 2998 0
-2996 2998 0
2921 -2996 0
2922 2999 0
-2997 2999 0
2922 -2997 3000 0
-2998 3000 0
2922 -2998 0
2923 3001 0
-2999 3001 0
2923 -2999 3002 0
-3000 3002 0
2923 -3000 0
2924 3003 0
-3001 3003 0
2924 -3001 3004 0
-3002 3004 0
2924 -3002 0
2925 -3004 0
-64 3007 0
-154 3008 0
-3007 3008 0
-154 -3007 0
-2917 -3008 0
64 154 2917 0
-65 3010 0
-155 3011 0
-3010 3011 0
-155 -3010 0
-2918 -3011 0
65 155 2918 0
-66 3013 0
-156 3014 0
-3013 3014 0
-156 -3013 0
-2919 -3014 0
66 156 2919 0
-67 3016 0
-157 3017 0
-3016 3017 0
-157 -3016 0
-2920 -3017 0
67 157 2920 0
-68 3019 0
-158 3020 0
-3019 3020 0
-158 -3019 0
-2921 -3020 0
68 158 2921 0
-69 3022 0
-159 3023 0
-3022 3023 0
-159 -3022 0
-2922 -3023 0
69 159 2922 0
-70 3025 0
-160 3026 0
-3025 3026 0
-160 -3025 0
-2923 -3026 0
70 160 2923 0
-71 3028 0
-161 3029 0
-3028 3029 0
-161 -3028 0
-2924 -3029 0
71 161 2924 0
-72 3031 0
-162 3032 0
-3031 3032 0
-162 -3031 0
-2925 -3032 0
72 162 2925 0
-3034 3043 0
-3044 0
-3045 0
-3046 0
-3047 0
-3048 0
-3035 3049 0
-3043 3049 0
-3035 -3043 3050 0
-3044 3050 0
-3035 -3044 3051 0
-3045 3051 0
-3035 -3045 3052 0
-3046 3052 0
-3035 -3046 3053 0
-3047 3053 0
-3035 -3047 3054 0
-3048 3054 0
-3035 -3048 0
-3036 3055 0
-3049 3055 0
-3036 -3049 3056 0
-3050 3056 0
-3036 -3050 3057 0
-3051 3057 0
-3036 -3051 3058 0
-3052 3058 0
-3036 -3052 3059 0
-3053 3059 0
-3036 -3053 3060 0
-3054 3060 0
-3036 -3054 0
-3037 3061 0
-3055 3061 0
-3037 -3055 3062 0
-3056 3062 0
-3037 -3056 3063 0
-3057 3063 0
-3037 -3057 3064 0
-3058 3064 0
-3037 -3058 3065 0
-3059 3065 0
-3037 -3059 3066 0
-3060 3066 0
-3037 -3060 0
-3038 3067 0
-3061 3067 0
-3038 -3061 3068 0
-3062 3068 0
-3038 -3062 3069 0
-3063 3069 0
-3038 -3063 3070 0
-3064 3070 0
-3038 -3064 3071 0
-3065 3071 0
-3038 -3065 3072 0
-3066 3072 0
-3038 -3066 0
-3039 3073 0
-3067 3073 0
-3039 -3067 3074 0
-3068 3074 0
-3039 -3068 3075 0
-3069 3075 0
-3039 -3069 3076 0
-3070 3076 0
-3039 -3070 3077 0
-3071 3077 0
-3039 -3071 3078 0
-3072 3078 0
-3039 -3072 0
-3040 3079 0
-3073 3079 0
-3040 -3073 3080 0
-3074 3080 0
-3040 -3074 3081 0
-3075 3081 0
-3040 -3075 3082 0
-3076 3082 0
-3040 -3076 3083 0
-3077 3083 0
-3040 -3077 3084 0
-3078 3084 0
-3040 -3078 0
-3041 3085 0
-3079 3085 0
-3041 -3079 3086 0
-3080 3086 0
-3041 -3080 3087 0
-3081 3087 0
-3041 -3081 3088 0
-3082 3088 0
-3041 -3082 3089 0
-3083 3089 0
-3041 -3083 3090 0
-3084 3090 0
-3041 -3084 0
-3042 -3090 0
3034 3097 0
-3098 0
-3099 0
3035 3100 0
-3097 3100 0
3035 -3097 3101 0
-3098 3101 0
3035 -3098 3102 0
-3099 3102 0
3035 -3099 0
3036 3103 0
-3100 3103 0
3036 -3100 3104 0
-3101 3104 0
3036 -3101 3105 0
-3102 3105 0
3036 -3102 0
3037 3106 0
-3103 3106 0
3037 -3103 3107 0
-3104 3107 0
3037 -3104 3108 0
-3105 3108 0
3037 -3105 0
3038 3109 0
-3106 3109 0
3038 -3106 3110 0
-3107 3110 0
3038 -3107 3111 0
-3108 3111 0
3038 -3108 0
3039 3112 0
-3109 3112 0
3039 -3109 3113 0
-3110 3113 0
3039 -3110 3114 0
-3111 3114 0
3039 -3111 0
3040 3115 0
-3112 3115 0
3040 -3112 3116 0
-3113 3116 0
3040 -3113 3117 0
-3114 3117 0
3040 -3114 0
3041 3118 0
-3115 3118 0
3041 -3115 3119 0
-3116 3119 0
3041 -3116 3120 0
-3117 3120 0
3041 -3117 0
3042 -3120 0
-55 3124 0
-145 3125 0
-3124 3125 0
-145 -3124 0
-235 3126 0
-3125 3126 0
-235 -3125 0
-3034 -3126 0
55 145 235 3034 0
-56 3128 0
-146 3129 0
-3128 3129 0
-146 -3128 0
-236 3130 0
-3129 3130 0
-236 -3129 0
-3035 -3130 0
56 146 236 3035 0
-57 3132 0
-147 3133 0
-3132 3133 0
-147 -3132 0
-237 3134 0
-3133 3134 0
-237 -3133 0
-3036 -3134 0
57 147 237 3036 0
-58 3136 0
-148 3137 0
-3136 3137 0
-148 -3136 0
-238 3138 0
-3137 3138 0
-238 -3137 0
-3037 -3138 0
58 148 238 3037 0
-59 3140 0
-149 3141 0
-3140 3141 0
-149 -3140 0
-239 3142 0
-3141 3142 0
-239 -3141 0
-3038 -3142 0
59 149 239 3038 0
-60 3144 0
-150 3145 0
-3144 3145 0
-150 -3144 0
-240 3146 0
-3145 3146 0
-240 -3145 0
-3039 -3146 0
60 150 240 3039 0
-61 3148 0
-151 3149 0
-3148 3149 0
-151 -3148 0
-241 3150 0
-3149 3150 0
-241 -3149 0
-3040 -3150 0
61 151 241 3040 0
-62 3152 0
-152 3153 0
-3152 3153 0
-152 -3152 0
-242 3154 0
-3153 3154 0
-242 -3153 0
-3041 -3154 0
62 152 242 3041 0
-63 3156 0
-153 3157 0
-3156 3157 0
-153 -3156 0
-243 3158 0
-3157 3158 0
-243 -3157 0
-3042 -3158 0
63 153 243 3042 0
-3160 3169 0
-3170 0
-3171 0
-3172 0
-3173 0
-3161 3174 0
-3169 3174 0
-3161 -3169 3175 0
-3170 3175 0
-3161 -3170 3176 0
-3171 3176 0
-3161 -3171 3177 0
-3172 3177 0
-3161 -3172 3178 0
-3173 3178 0
-3161 -3173 0
-3162 3179 0
-3174 3179 0
-3162 -3174 3180 0
-3175 3180 0
-3162 -3175 3181 0
-3176 3181 0
-3162 -3176 3182 0
-3177 3182 0
-3162 -3177 3183 0
-3178 3183 0
-3162 -3178 0
-3163 3184 0
-3179 3184 0
-3163 -3179 3185 0
-3180 3185 0
-3163 -3180 3186 0
-3181 3186 0
-3163 -3181 3187 0
-3182 3187 0
-3163 -3182 3188 0
-3183 3188 0
-3163 -3183 0
-3164 3189 0
-3184 3189 0
-3164 -3184 3190 0
-3185 3190 0
-3164 -3185 3191 0
-3186 3191 0
-3164 -3186 3192 0
-3187 3192 0
-3164 -3187 3193 0
-3188 3193 0
-3164 -3188 0
-3165 3194 0
-3189 3194 0
-3165 -3189 3195 0
-3190 3195 0
-3165 -3190 3196 0
-3191 3196 0
-3165 -3191 3197 0
-3192 3197 0
-3165 -3192 3198 0
-3193 3198 0
-3165 -3193 0
-3166 3199 0
-3194 3199 0
-3166 -3194 3200 0
-3195 3200 0
-3166 -3195 3201 0
-3196 3201 0
-3166 -3196 3202 0
-3197 3202 0
-3166 -3197 3203 0
-3198 3203 0
-3166 -3198 0
-3167 3204 0
-3199 3204 0
-3167 -3199 3205 0
-3200 3205 0
-3167 -3200 3206 0
-3201 3206 0
-3167 -3201 3207 0
-3202 3207 0
-3167 -3202 3208 0
-3203 3208 0
-3167 -3203 0
-3168 -3208 0
3160 3214 0
-3215 0
-3216 0
-3217 0
3161 3218 0
-3214 3218 0
3161 -3214 3219 0
-3215 3219 0
3161 -3215 3220 0
-3216 3220 0
3161 -3216 3221 0
-3217 3221 0
3161 -3217 0
3162 3222 0
-3218 3222 0
3162 -3218 3223 0
-3219 3223 0
3162 -3219 3224 0
-3220 3224 0
3162 -3220 3225 0
-3221 3225 0
3162 -3221 0
3163 3226 0
-3222 3226 0
3163 -3222 3227 0
-3223 3227 0
3163 -3223 3228 0
-3224 3228 0
3163 -3224 3229 0
-3225 3229 0
3163 -3225 0
3164 3230 0
-3226 3230 0
3164 -3226 3231 0
-3227 3231 0
3164 -3227 3232 0
-3228 3232 0
3164 -3228 3233 0
-3229 3233 0
3164 -3229 0
3165 3234 0
-3230 3234 0
3165 -3230 3235 0
-3231 3235 0
3165 -3231 3236 0
-3232 3236 0
3165 -3232 3237 0
-3233 3237 0
3165 -3233 0
3166 3238 0
-3234 3238 0
3166 -3234 3239 0
-3235 3239 0
3166 -3235 3240 0
-3236 3240 0
3166 -3236 3241 0
-3237 3241 0
3166 -3237 0
3167 3242 0
-3238 3242 0
3167 -3238 3243 0
-3239 3243 0
3167 -3239 3244 0
-3240 3244 0
3167 -3240 3245 0
-3241 3245 0
3167 -3241 0
3168 -3245 0
-46 3250 0
-136 3251 0
-3250 3251 0
-136 -3250 0
-226 3252 0
-3251 3252 0
-226 -3251 0
-316 3253 0
-3252 3253 0
-316 -3252 0
-3160 -3253 0
46 136 226 316 3160 0
-47 3255 0
-137 3256 0
-3255 3256 0
-137 -3255 0
-227 3257 0
-3256 3257 0
-227 -3256 0
-317 3258 0
-3257 3258 0
-317 -3257 0
-3161 -3258 0
47 137 227 317 3161 0
-48 3260 0
-138 3261 0
-3260 3261 0
-138 -3260 0
-228 3262 0
-3261 3262 0
-228 -3261 0
-318 3263 0
-3262 3263 0
-318 -3262 0
-3162 -3263 0
48 138 228 318 3162 0
-49 3265 0
-139 3266 0
-3265 3266 0
-139 -3265 0
-229 3267 0
-3266 3267 0
-229 -3266 0
-319 3268 0
-3267 3268 0
-319 -3267 0
-3163 -3268 0
49 139 229 319 3163 0
-50 3270 0
-140 3271 0
-3270 3271 0
-140 -3270 0
-230 3272 0
-3271 3272 0
-230 -3271 0
-320 3273 0
-3272 3273 0
-320 -3272 0
-3164 -3273 0
50 140 230 320 3164 0
-51 3275 0
-141 3276 0
-3275 3276 0
-141 -3275 0
-231 3277 0
-3276 3277 0
-231 -3276 0
-321 3278 0
-3277 3278 0
-321 -3277 0
-3165 -3278 0
51 141 231 321 3165 0
-52 3280 0
-142 3281 0
-3280 3281 0
-142 -3280 0
-232 3282 0
-3281 3282 0
-232 -3281 0
-322 3283 0
-3282 3283 0
-322 -3282 0
-3166 -3283 0
52 142 232 322 3166 0
-53 3285 0
-143 3286 0
-3285 3286 0
-143 -3285 0
-233 3287 0
-3286 3287 0
-233 -3286 0
-323 3288 0
-3287 3288 0
-323 -3287 0
-3167 -3288 0
53 143 233 323 3167 0
-54 3290 0
-144 3291 0
-3290 3291 0
-144 -3290 0
-234 3292 0
-3291 3292 0
-234 -3291 0
-324 3293 0
-3292 3293 0
-324 -3292 0
-3168 -3293 0
54 144 234 324 3168 0
-3295 3304 0
-3305 0
-3306 0
-3307 0
-3296 3308 0
-3304 3308 0
-3296 -3304 3309 0
-3305 3309 0
-3296 -3305 3310 0
-3306 3310 0
-3296 -3306 3311 0
-3307 3311 0
-3296 -3307 0
-3297 3312 0
-3308 3312 0
-3297 -3308 3313 0
-3309 3313 0
-3297 -3309 3314 0
-3310 3314 0
-3297 -3310 3315 0
-3311 3315 0
-3297 -3311 0
-3298 3316 0
-3312 3316 0
-3298 -3312 3317 0
-3313 3317 0
-3298 -3313 3318 0
-3314 3318 0
-3298 -3314 3319 0
-3315 3319 0
-3298 -3315 0
-3299 3320 0
-3316 3320 0
-3299 -3316 3321 0
-3317 3321 0
-3299 -3317 3322 0
-3318 3322 0
-3299 -3318 3323 0
-3319 3323 0
-3299 -3319 0
-3300 3324 0
-3320 3324 0
-3300 -3320 3325 0
-3321 3325 0
-3300 -3321 3326 0
-3322 3326 0
-3300 -3322 3327 0
-3323 3327 0
-3300 -3323 0
-3301 3328 0
-3324 3328 0
-3301 -3324 3329 0
-3325 3329 0
-3301 -3325 3330 0
-3326 3330 0
-3301 -3326 3331 0
-3327 3331 0
-3301 -3327 0
-3302 3332 0
-3328 3332 0
-3302 -3328 3333 0
-3329 3333 0
-3302 -3329 3334 0
-3330 3334 0
-3302 -3330 3335 0
-3331 3335 0
-3302 -3331 0
-3303 -3335 0
3295 3340 0
-3341 0
-3342 0
-3343 0
-3344 0
3296 3345 0
-3340 3345 0
3296 -3340 3346 0
-3341 3346 0
3296 -3341 3347 0
-3342 3347 0
3296 -3342 3348 0
-3343 3348 0
3296 -3343 3349 0
-3344 3349 0
3296 -3344 0
3297 3350 0
-3345 3350 0
3297 -3345 3351 0
-3346 3351 0
3297 -3346 3352 0
-3347 3352 0
3297 -3347 3353 0
-3348 3353 0
3297 -3348 3354 0
-3349 3354 0
3297 -3349 0
3298 3355 0
-3350 3355 0
3298 -3350 3356 0
-3351 3356 0
3298 -3351 3357 0
-3352 3357 0
3298 -3352 3358 0
-3353 3358 0
3298 -3353 3359 0
-3354 3359 0
3298 -3354 0
3299 3360 0
-3355 3360 0
3299 -3355 3361 0
-3356 3361 0
3299 -3356 3362 0
-3357 3362 0
3299 -3357 3363 0
-3358 3363 0
3299 -3358 3364 0
-3359 3364 0
3299 -3359 0
3300 3365 0
-3360 3365 0
3300 -3360 3366 0
-3361 3366 0
3300 -3361 3367 0
-3362 3367 0
3300 -3362 3368 0
-3363 3368 0
3300 -3363 3369 0
-3364 3369 0
3300 -3364 0
3301 3370 0
-3365 3370 0
3301 -3365 3371 0
-3366 3371 0
3301 -3366 3372 0
-3367 3372 0
3301 -3367 3373 0
-3368 3373 0
3301 -3368 3374 0
-3369 3374 0
3301 -3369 0
3302 3375 0
-3370 3375 0
3302 -3370 3376 0
-3371 3376 0
3302 -3371 3377 0
-3372 3377 0
3302 -3372 3378 0
-3373 3378 0
3302 -3373 3379 0
-3374 3379 0
3302 -3374 0
3303 -3379 0
-37 3385 0
-127 3386 0
-3385 3386 0
-127 -3385 0
-217 3387 0
-3386 3387 0
-217 -3386 0
-307 3388 0
-3387 3388 0
-307 -3387 0
-397 3389 0
-3388 3389 0
-397 -3388 0
-3295 -3389 0
37 127 217 307 397 3295 0
-38 3391 0
-128 3392 0
-3391 3392 0
-128 -3391 0
-218 3393 0
-3392 3393 0
-218 -3392 0
-308 3394 0
-3393 3394 0
-308 -3393 0
-398 3395 0
-3394 3395 0
-398 -3394 0
-3296 -3395 0
38 128 218 308 398 3296 0
-39 3397 0
-129 3398 0
-3397 3398 0
-129 -3397 0
-219 3399 0
-3398 3399 0
-219 -3398 0
-309 3400 0
-3399 3400 0
-309 -3399 0
-399 3401 0
-3400 3401 0
-399 -3400 0
-3297 -3401 0
39 129 219 309 399 3297 0
-40 3403 0
-130 3404 0
-3403 3404 0
-130 -3403 0
-220 3405 0
-3404 3405 0
-220 -3404 0
-310 3406 0
-3405 3406 0
-310 -3405 0
-400 3407 0
-3406 3407 0
-400 -3406 0
-3298 -3407 0
40 130 220 310 400 3298 0
-41 3409 0
-131 3410 0
-3409 3410 0
-131 -3409 0
-221 3411 0
-3410 3411 0
-221 -3410 0
-311 3412 0
-3411 3412 0
-311 -3411 0
-401 3413 0
-3412 3413 0
-401 -3412 0
-3299 -3413 0
41 131 221 311 401 3299 0
-42 3415 0
-132 3416 0
-3415 3416 0
-132 -3415 0
-222 3417 0
-3416 3417 0
-222 -3416 0
-312 3418 0
-3417 3418 0
-312 -3417 0
-402 3419 0
-3418 3419 0
-402 -3418 0
-3300 -3419 0
42 132 222 312 402 3300 0
-43 3421 0
-133 3422 0
-3421 3422 0
-133 -3421 0
-223 3423 0
-3422 3423 0
-223 -3422 0
-313 3424 0
-3423 3424 0
-313 -3423 0
-403 3425 0
-3424 3425 0
-403 -3424 0
-3301 -3425 0
43 133 223 313 403 3301 0
-44 3427 0
-134 3428 0
-3427 3428 0
-134 -3427 0
-224 3429 0
-3428 3429 0
-224 -3428 0
-314 3430 0
-3429 3430 0
-314 -3429 0
-404 3431 0
-3430 3431 0
-404 -3430 0
-3302 -3431 0
44 134 224 314 404 3302 0
-45 3433 0
-135 3434 0
-3433 3434 0
-135 -3433 0
-225 3435 0
-3434 3435 0
-225 -3434 0
-315 3436 0
-3435 3436 0
-315 -3435 0
-405 3437 0
-3436 3437 0
-405 -3436 0
-3303 -3437 0
45 135 225 315 405 3303 0
-3439 3448 0
-3449 0
-3450 0
-3440 3451 0
-3448 3451 0
-3440 -3448 3452 0
-3449 3452 0
-3440 -3449 3453 0
-3450 3453 0
-3440 -3450 0
-3441 3454 0
-3451 3454 0
-3441 -3451 3455 0
-3452 3455 0
-3441 -3452 3456 0
-3453 3456 0
-3441 -3453 0
-3442 3457 0
-3454 3457 0
-3442 -3454 3458 0
-3455 3458 0
-3442 -3455 3459 0
-3456 3459 0
-3442 -3456 0
-3443 3460 0
-3457 3460 0
-3443 -3457 3461 0
-3458 3461 0
-3443 -3458 3462 0
-3459 3462 0
-3443 -3459 0
-3444 3463 0
-3460 3463 0
-3444 -3460 3464 0
-3461 3464 0
-3444 -3461 3465 0
-3462 3465 0
-3444 -3462 0
-3445 3466 0
-3463 3466 0
-3445 -3463 3467 0
-3464 3467 0
-3445 -3464 3468 0
-3465 3468 0
-3445 -3465 0
-3446 3469 0
-3466 3469 0
-3446 -3466 3470 0
-3467 3470 0
-3446 -3467 3471 0
-3468 3471 0
-3446 -3468 0
-3447 -3471 0
3439 3475 0
-3476 0
-3477 0
-3478 0
-3479 0
-3480 0
3440 3481 0
-3475 3481 0
3440 -3475 3482 0
-3476 3482 0
3440 -3476 3483 0
-3477 3483 0
3440 -3477 3484 0
-3478 3484 0
3440 -3478 3485 0
-3479 3485 0
3440 -3479 3486 0
-3480 3486 0
3440 -3480 0
3441 3487 0
-3481 3487 0
3441 -3481 3488 0
-3482 3488 0
3441 -3482 3489 0
-3483 3489 0
3441 -3483 3490 0
-3484 3490 0
3441 -3484 3491 0
-3485 3491 0
3441 -3485 3492 0
-3486 3492 0
3441 -3486 0
3442 3493 0
-3487 3493 0
3442 -3487 3494 0
-3488 3494 0
3442 -3488 3495 0
-3489 3495 0
3442 -3489 3496 0
-3490 3496 0
3442 -3490 3497 0
-3491 3497 0
3442 -3491 3498 0
-3492 3498 0
3442 -3492 0
3443 3499 0
-3493 3499 0
3443 -3493 3500 0
-3494 3500 0
3443 -3494 3501 0
-3495 3501 0
3443 -3495 3502 0
-3496 3502 0
3443 -3496 3503 0
-3497 3503 0
3443 -3497 3504 0
-3498 3504 0
3443 -3498 0
3444 3505 0
-3499 3505 0
3444 -3499 3506 0
-3500 3506 0
3444 -3500 3507 0
-3501 3507 0
3444 -3501 3508 0
-3502 3508 0
3444 -3502 3509 0
-3503 3509 0
3444 -3503 3510 0
-3504 3510 0
3444 -3504 0
3445 3511 0
-3505 3511 0
3445 -3505 3512 0
-3506 3512 0
3445 -3506 3513 0
-3507 3513 0
3445 -3507 3514 0
-3508 3514 0
3445 -3508 3515 0
-3509 3515 0
3445 -3509 3516 0
-3510 3516 0
3445 -3510 0
3446 3517 0
-3511 3517 0
3446 -3511 3518 0
-3512 3518 0
3446 -3512 3519 0
-3513 3519 0
3446 -3513 3520 0
-3514 3520 0
3446 -3514 3521 0
-3515 3521 0
3446 -3515 3522 0
-3516 3522 0
3446 -3516 0
3447 -3522 0
-28 3529 0
-118 3530 0
-3529 3530 0
-118 -3529 0
-208 3531 0
-3530 3531 0
-208 -3530 0
-298 3532 0
-3531 3532 0
-298 -3531 0
-388 3533 0
-3532 3533 0
-388 -3532 0
-478 3534 0
-3533 3534 0
-478 -3533 0
-3439 -3534 0
28 118 208 298 388 478 3439 0
-29 3536 0
-119 3537 0
-3536 3537 0
-119 -3536 0
-209 3538 0
-3537 3538 0
-209 -3537 0
-299 3539 0
-3538 3539 0
-299 -3538 0
-389 3540 0
-3539 3540 0
-389 -3539 0
-479 3541 0
-3540 3541 0
-479 -3540 0
-3440 -3541 0
29 119 209 299 389 479 3440 0
-30 3543 0
-120 3544 0
-3543 3544 0
-120 -3543 0
-210 3545 0
-3544 3545 0
-210 -3544 0
-300 3546 0
-3545 3546 0
-300 -3545 0
-390 3547 0
-3546 3547 0
-390 -3546 0
-480 3548 0
-3547 3548 0
-480 -3547 0
-3441 -3548 0
30 120 210 300 390 480 3441 0
-31 3550 0
-121 3551 0
-3550 3551 0
-121 -3550 0
-211 3552 0
-3551 3552 0
-211 -3551 0
-301 3553 0
-3552 3553 0
-301 -3552 0
-391 3554 0
-3553 3554 0
-391 -3553 0
-481 3555 0
-3554 3555 0
-481 -3554 0
-3442 -3555 0
31 121 211 301 391 481 3442 0
-32 3557 0
-122 3558 0
-3557 3558 0
-122 -3557 0
-212 3559 0
-3558 3559 0
-212 -3558 0
-302 3560 0
-3559 3560 0
-302 -3559 0
-392 3561 0
-3560 3561 0
-392 -3560 0
-482 3562 0
-3561 3562 0
-482 -3561 0
-3443 -3562 0
32 122 212 302 392 482 3443 0
-33 3564 0
-123 3565 0
-3564 3565 0
-123 -3564 0
-213 3566 0
-3565 3566 0
-213 -3565 0
-303 3567 0
-3566 3567 0
-303 -3566 0
-393 3568 0
-3567 3568 0
-393 -3567 0
-483 3569 0
-3568 3569 0
-483 -3568 0
-3444 -3569 0
33 123 213 303 393 483 3444 0
-34 3571 0
-124 3572 0
-3571 3572 0
-124 -3571 0
-214 3573 0
-3572 3573 0
-214 -3572 0
-304 3574 0
-3573 3574 0
-304 -3573 0
-394 3575 0
-3574 3575 0
-394 -3574 0
-484 3576 0
-3575 3576 0
-484 -3575 0
-3445 -3576 0
34 124 214 304 394 484 3445 0
-35 3578 0
-125 3579 0
-3578 3579 0
-125 -3578 0
-215 3580 0
-3579 3580 0
-215 -3579 0
-305 3581 0
-3580 3581 0
-305 -3580 0
-395 3582 0
-3581 3582 0
-395 -3581 0
-485 3583 0
-3582 3583 0
-485 -3582 0
-3446 -3583 0
35 125 215 305 395 485 3446 0
-36 3585 0
-126 3586 0
-3585 3586 0
-126 -3585 0
-216 3587 0
-3586 3587 0
-216 -3586 0
-306 3588 0
-3587 3588 0
-306 -3587 0
-396 3589 0
-3588 3589 0
-396 -3588 0
-486 3590 0
-3589 3590 0
-486 -3589 0
-3447 -3590 0
36 126 216 306 396 486 3447 0
-3592 3601 0
-3602 0
-3593 3603 0
-3601 3603 0
-3593 -3601 3604 0
-3602 3604 0
-3593 -3602 0
-3594 3605 0
-3603 3605 0
-3594 -3603 3606 0
-3604 3606 0
-3594 -3604 0
-3595 3607 0
-3605 3607 0
-3595 -3605 3608 0
-3606 3608 0
-3595 -3606 0
-3596 3609 0
-3607 3609 0
-3596 -3607 3610 0
-3608 3610 0
-3596 -3608 0
-3597 3611 0
-3609 3611 0
-3597 -3609 3612 0
-3610 3612 0
-3597 -3610 0
-3598 3613 0
-3611 3613 0
-3598 -3611 3614 0
-3612 3614 0
-3598 -3612 0
-3599 3615 0
-3613 3615 0
-3599 -3613 3616 0
-3614 3616 0
-3599 -3614 0
-3600 -3616 0
3592 3619 0
-3620 0
-3621 0
-3622 0
-3623 0
-3624 0
-3625 0
3593 3626 0
-3619 3626 0
3593 -3619 3627 0
-3620 3627 0
3593 -3620 3628 0
-3621 3628 0
3593 -3621 3629 0
-3622 3629 0
3593 -3622 3630 0
-3623 3630 0
3593 -3623 3631 0
-3624 3631 0
3593 -3624 3632 0
-3625 3632 0
3593 -3625 0
3594 3633 0
-3626 3633 0
3594 -3626 3634 0
-3627 3634 0
3594 -3627 3635 0
-3628 3635 0
3594 -3628 3636 0
-3629 3636 0
3594 -3629 3637 0
-3630 3637 0
3594 -3630 3638 0
-3631 3638 0
3594 -3631 3639 0
-3632 3639 0
3594 -3632 0
3595 3640 0
-3633 3640 0
3595 -3633 3641 0
-3634 3641 0
3595 -3634 3642 0
-3635 3642 0
3595 -3635 3643 0
-3636 3643 0
3595 -3636 3644 0
-3637 3644 0
3595 -3637 3645 0
-3638 3645 0
3595 -3638 3646 0
-3639 3646 0
3595 -3639 0
3596 3647 0
-3640 3647 0
3596 -3640 3648 0
-3641 3648 0
3596 -3641 3649 0
-3642 3649 0
3596 -3642 3650 0
-3643 3650 0
3596 -3643 3651 0
-3644 3651 0
3596 -3644 3652 0
-3645 3652 0
3596 -3645 3653 0
-3646 3653 0
3596 -3646 0
3597 3654 0
-3647 3654 0
3597 -3647 3655 0
-3648 3655 0
3597 -3648 3656 0
-3649 3656 0
3597 -3649 3657 0
-3650 3657 0
3597 -3650 3658 0
-3651 3658 0
3597 -3651 3659 0
-3652 3659 0
3597 -3652 3660 0
-3653 3660 0
3597 -3653 0
3598 3661 0
-3654 3661 0
3598 -3654 3662 0
-3655 3662 0
3598 -3655 3663 0
-3656 3663 0
3598 -3656 3664 0
-3657 3664 0
3598 -3657 3665 0
-3658 3665 0
3598 -3658 3666 0
-3659 3666 0
3598 -3659 3667 0
-3660 3667 0
3598 -3660 0
3599 3668 0
-3661 3668 0
3599 -3661 3669 0
-3662 3669 0
3599 -3662 3670 0
-3663 3670 0
3599 -3663 3671 0
-3664 3671 0
3599 -3664 3672 0
-3665 3672 0
3599 -3665 3673 0
-3666 3673 0
3599 -3666 3674 0
-3667 3674 0
3599 -3667 0
3600 -3674 0
-19 3682 0
-109 3683 0
-3682 3683 0
-109 -3682 0
-199 3684 0
-3683 3684 0
-199 -3683 0
-289 3685 0
-3684 3685 0
-289 -3684 0
-379 3686 0
-3685 3686 0
-379 -3685 0
-469 3687 0
-3686 3687 0
-469 -3686 0
-559 3688 0
-3687 3688 0
-559 -3687 0
-3592 -3688 0
19 109 199 289 379 469 559 3592 0
-20 3690 0
-110 3691 0
-3690 3691 0
-110 -3690 0
-200 3692 0
-3691 3692 0
-200 -3691 0
-290 3693 0
-3692 3693 0
-290 -3692 0
-380 3694 0
-3693 3694 0
-380 -3693 0
-470 3695 0
-3694 3695 0
-470 -3694 0
-560 3696 0
-3695 3696 0
-560 -3695 0
-3593 -3696 0
20 110 200 290 380 470 560 3593 0
-21 3698 0
-111 3699 0
-3698 3699 0
-111 -3698 0
-201 3700 0
-3699 3700 0
-201 -3699 0
-291 3701 0
-3700 3701 0
-291 -3700 0
-381 3702 0
-3701 3702 0
-381 -3701 0
-471 3703 0
-3702 3703 0
-471 -3702 0
-561 3704 0
-3703 3704 0
-561 -3703 0
-3594 -3704 0
21 111 201 291 381 471 561 3594 0
-22 3706 0
-112 3707 0
-3706 3707 0
-112 -3706 0
-202 3708 0
-3707 3708 0
-202 -3707 0
-292 3709 0
-3708 3709 0
-292 -3708 0
-382 3710 0
-3709 3710 0
-382 -3709 0
-472 3711 0
-3710 3711 0
-472 -3710 0
-562 3712 0
-3711 3712 0
-562 -3711 0
-3595 -3712 0
22 112 202 292 382 472 562 3595 0
-23 3714 0
-113 3715 0
-3714 3715 0
-113 -3714 0
-203 3716 0
-3715 3716 0
-203 -3715 0
-293 3717 0
-3716 3717 0
-293 -3716 0
-383 3718 0
-3717 3718 0
-383 -3717 0
-473 3719 0
-3718 3719 0
-473 -3718 0
-563 3720 0
-3719 3720 0
-563 -3719 0
-3596 -3720 0
23 113 203 293 383 473 563 3596 0
-24 3722 0
-114 3723 0
-3722 3723 0
-114 -3722 0
-204 3724 0
-3723 3724 0
-204 -3723 0
-294 3725 0
-3724 3725 0
-294 -3724 0
-384 3726 0
-3725 3726 0
-384 -3725 0
-474 3727 0
-3726 3727 0
-474 -3726 0
-564 3728 0
-3727 3728 0
-564 -3727 0
-3597 -3728 0
24 114 204 294 384 474 564 3597 0
-25 3730 0
-115 3731 0
-3730 3731 0
-115 -3730 0
-205 3732 0
-3731 3732 0
-205 -3731 0
-295 3733 0
-3732 3733 0
-295 -3732 0
-385 3734 0
-3733 3734 0
-385 -3733 0
-475 3735 0
-3734 3735 0
-475 -3734 0
-565 3736 0
-3735 3736 0
-565 -3735 0
-3598 -3736 0
25 115 205 295 385 475 565 3598 0
-26 3738 0
-116 3739 0
-3738 3739 0
-116 -3738 0
-206 3740 0
-3739 3740 0
-206 -3739 0
-296 3741 0
-3740 3741 0
-296 -3740 0
-386 3742 0
-3741 3742 0
-386 -3741 0
-476 3743 0
-3742 3743 0
-476 -3742 0
-566 3744 0
-3743 3744 0
-566 -3743 0
-3599 -3744 0
26 116 206 296 386 476 566 3599 0
-27 3746 0
-117 3747 0
-3746 3747 0
-117 -3746 0
-207 3748 0
-3747 3748 0
-207 -3747 0
-297 3749 0
-3748 3749 0
-297 -3748 0
-387 3750 0
-3749 3750 0
-387 -3749 0
-477 3751 0
-3750 3751 0
-477 -3750 0
-567 3752 0
-3751 3752 0
-567 -3751 0
-3600 -3752 0
27 117 207 297 387 477 567 3600 0
-3754 3763 0
-3755 3764 0
-3763 3764 0
-3755 -3763 0
-3756 3765 0
-3764 3765 0
-3756 -3764 0
-3757 3766 0
-3765 3766 0
-3757 -3765 0
-3758 3767 0
-3766 3767 0
-3758 -3766 0
-3759 3768 0
-3767 3768 0
-3759 -3767 0
-3760 3769 0
-3768 3769 0
-3760 -3768 0
-3761 3770 0
-3769 3770 0
-3761 -3769 0
-3762 -3770 0
3754 3772 0
-3773 0
-3774 0
-3775 0
-3776 0
-3777 0
-3778 0
-3779 0
3755 3780 0
-3772 3780 0
3755 -3772 3781 0
-3773 3781 0
3755 -3773 3782 0
-3774 3782 0
3755 -3774 3783 0
-3775 3783 0
3755 -3775 3784 0
-3776 3784 0
3755 -3776 3785 0
-3777 3785 0
3755 -3777 3786 0
-3778 3786 0
3755 -3778 3787 0
-3779 3787 0
3755 -3779 0
3756 3788 0
-3780 3788 0
3756 -3780 3789 0
-3781 3789 0
3756 -3781 3790 0
-3782 3790 0
3756 -3782 3791 0
-3783 3791 0
3756 -3783 3792 0
-3784 3792 0
3756 -3784 3793 0
-3785 3793 0
3756 -3785 3794 0
-3786 3794 0
3756 -3786 3795 0
-3787 3795 0
3756 -3787 0
3757 3796 0
-3788 3796 0
3757 -3788 3797 0
-3789 3797 0
3757 -3789 3798 0
-3790 3798 0
3757 -3790 3799 0
-3791 3799 0
3757 -3791 3800 0
-3792 3800 0
3757 -3792 3801 0
-3793 3801 0
3757 -3793 3802 0
-3794 3802 0
3757 -3794 3803 0
-3795 3803 0
3757 -3795 0
3758 3804 0
-3796 3804 0
3758 -3796 3805 0
-3797 3805 0
3758 -3797 3806 0
-3798 3806 0
3758 -3798 3807 0
-3799 3807 0
3758 -3799 3808 0
-3800 3808 0
3758 -3800 3809 0
-3801 3809 0
3758 -3801 3810 0
-3802 3810 0
3758 -3802 3811 0
-3803 3811 0
3758 -3803 0
3759 3812 0
-3804 3812 0
3759 -3804 3813 0
-3805 3813 0
3759 -3805 3814 0
-3806 3814 0
3759 -3806 3815 0
-3807 3815 0
3759 -3807 3816 0
-3808 3816 0
3759 -3808 3817 0
-3809 3817 0
3759 -3809 3818 0
-3810 3818 0
3759 -3810 3819 0
-3811 3819 0
3759 -3811 0
3760 3820 0
-3812 3820 0
3760 -3812 3821 0
-3813 3821 0
3760 -3813 3822 0
-3814 3822 0
3760 -3814 3823 0
-3815 3823 0
3760 -3815 3824 0
-3816 3824 0
3760 -3816 3825 0
-3817 3825 0
3760 -3817 3826 0
-3818 3826 0
3760 -3818 3827 0
-3819 3827 0
3760 -3819 0
3761 3828 0
-3820 3828 0
3761 -3820 3829 0
-3821 3829 0
3761 -3821 3830 0
-3822 3830 0
3761 -3822 3831 0
-3823 3831 0
3761 -3823 3832 0
-3824 3832 0
3761 -3824 3833 0
-3825 3833 0
3761 -3825 3834 0
-3826 3834 0
3761 -3826 3835 0
-3827 3835 0
3761 -3827 0
3762 -3835 0
-10 3844 0
-100 3845 0
-3844 3845 0
-100 -3844 0
-190 3846 0
-3845 3846 0
-190 -3845 0
-280 3847 0
-3846 3847 0
-280 -3846 0
-370 3848 0
-3847 3848 0
-370 -3847 0
-460 3849 0
-3848 3849 0
-460 -3848 0
-550 3850 0
-3849 3850 0
-550 -3849 0
-640 3851 0
-3850 3851 0
-640 -3850 0
-3754 -3851 0
10 100 190 280 370 460 550 640 3754 0
-11 3853 0
-101 3854 0
-3853 3854 0
-101 -3853 0
-191 3855 0
-3854 3855 0
-191 -3854 0
-281 3856 0
-3855 3856 0
-281 -3855 0
-371 3857 0
-3856 3857 0
-371 -3856 0
-461 3858 0
-3857 3858 0
-461 -3857 0
-551 3859 0
-3858 3859 0
-551 -3858 0
-641 3860 0
-3859 3860 0
-641 -3859 0
-3755 -3860 0
11 101 191 281 371 461 551 641 3755 0
-12 3862 0
-102 3863 0
-3862 3863 0
-102 -3862 0
-192 3864 0
-3863 3864 0
-192 -3863 0
-282 3865 0
-3864 3865 0
-282 -3864 0
-372 3866 0
-3865 3866 0
-372 -3865 0
-462 3867 0
-3866 3867 0
-462 -3866 0
-552 3868 0
-3867 3868 0
-552 -3867 0
-642 3869 0
-3868 3869 0
-642 -3868 0
-3756 -3869 0
12 102 192 282 372 462 552 642 3756 0
-13 3871 0
-103 3872 0
-3871 3872 0
-103 -3871 0
-193 3873 0
-3872 3873 0
-193 -3872 0
-283 3874 0
-3873 3874 0
-283 -3873 0
-373 3875 0
-3874 3875 0
-373 -3874 0
-463 3876 0
-3875 3876 0
-463 -3875 0
-553 3877 0
-3876 3877 0
-553 -3876 0
-643 3878 0
-3877 3878 0
-643 -3877 0
-3757 -3878 0
13 103 193 283 373 463 553 643 3757 0
-14 3880 0
-104 3881 0
-3880 3881 0
-104 -3880 0
-194 3882 0
-3881 3882 0
-194 -3881 0
-284 3883 0
-3882 3883 0
-284 -3882 0
-374 3884 0
-3883 3884 0
-374 -3883 0
-464 3885 0
-3884 3885 0
-464 -3884 0
-554 3886 0
-3885 3886 0
-554 -3885 0
-644 3887 0
-3886 3887 0
-644 -3886 0
-3758 -3887 0
14 104 194 284 374 464 554 644 3758 0
-15 3889 0
-105 3890 0
-3889 3890 0
-105 -3889 0
-195 3891 0
-3890 3891 0
-195 -3890 0
-285 3892 0
-3891 3892 0
-285 -3891 0
-375 3893 0
-3892 3893 0
-375 -3892 0
-465 3894 0
-3893 3894 0
-465 -3893 0
-555 3895 0
-3894 3895 0
-555 -3894 0
-645 3896 0
-3895 3896 0
-645 -3895 0
-3759 -3896 0
15 105 195 285 375 465 555 645 3759 0
-16 3898 0
-106 3899 0
-3898 3899 0
-106 -3898 0
-196 3900 0
-3899 3900 0
-196 -3899 0
-286 3901 0
-3900 3901 0
-286 -3900 0
-376 3902 0
-3901 3902 0
-376 -3901 0
-466 3903 0
-3902 3903 0
-466 -3902 0
-556 3904 0
-3903 3904 0
-556 -3903 0
-646 3905 0
-3904 3905 0
-646 -3904 0
-3760 -3905 0
16 106 196 286 376 466 556 646 3760 0
-17 3907 0
-107 3908 0
-3907 3908 0
-107 -3907 0
-197 3909 0
-3908 3909 0
-197 -3908 0
-287 3910 0
-3909 3910 0
-287 -3909 0
-377 3911 0
-3910 3911 0
-377 -3910 0
-467 3912 0
-3911 3912 0
-467 -3911 0
-557 3913 0
-3912 3913 0
-557 -3912 0
-647 3914 0
-3913 3914 0
-647 -3913 0
-3761 -3914 0
17 107 197 287 377 467 557 647 3761 0
-18 3916 0
-108 3917 0
-3916 3917 0
-108 -3916 0
-198 3918 0
-3917 3918 0
-198 -3917 0
-288 3919 0
-3918 3919 0
-288 -3918 0
-378 3920 0
-3919 3920 0
-378 -3919 0
-468 3921 0
-3920 3921 0
-468 -3920 0
-558 3922 0
-3921 3922 0
-558 -3921 0
-648 3923 0
-3922 3923 0
-648 -3922 0
-3762 -3923 0
18 108 198 288 378 468 558 648 3762 0
-1 3925 0
-91 3926 0
-3925 3926 0
-91 -3925 0
-181 3927 0
-3926 3927 0
-181 -3926 0
-271 3928 0
-3927 3928 0
-271 -3927 0
-361 3929 0
-3928 3929 0
-361 -3928 0
-451 3930 0
-3929 3930 0
-451 -3929 0
-541 3931 0
-3930 3931 0
-541 -3930 0
-631 3932 0
-3931 3932 0
-631 -3931 0
-721 -3932 0
1 91 181 271 361 451 541 631 721 0
-2 3934 0
-92 3935 0
-3934 3935 0
-92 -3934 0
-182 3936 0
-3935 3936 0
-182 -3935 0
-272 3937 0
-3936 3937 0
-272 -3936 0
-362 3938 0
-3937 3938 0
-362 -3937 0
-452 3939 0
-3938 3939 0
-452 -3938 0
-542 3940 0
-3939 3940 0
-542 -3939 0
-632 3941 0
-3940 3941 0
-632 -3940 0
-722 -3941 0
2 92 182 272 362 452 542 632 722 0
-3 3943 0
-93 3944 0
-3943 3944 0
-93 -3943 0
-183 3945 0
-3944 3945 0
-183 -3944 0
-273 3946 0
-3945 3946 0
-273 -3945 0
-363 3947 0
-3946 3947 0
-363 -3946 0
-453 3948 0
-3947 3948 0
-453 -3947 0
-543 3949 0
-3948 3949 0
-543 -3948 0
-633 3950 0
-3949 3950 0
-633 -3949 0
-723 -3950 0
3 93 183 273 363 453 543 633 723 0
-4 3952 0
-94 3953 0
-3952 3953 0
-94 -3952 0
-184 3954 0
-3953 3954 0
-184 -3953 0
-274 3955 0
-3954 3955 0
-274 -3954 0
-364 3956 0
-3955 3956 0
-364 -3955 0
-454 3957 0
-3956 3957 0
-454 -3956 0
-544 3958 0
-3957 3958 0
-544 -3957 0
-634 3959 0
-3958 3959 0
-634 -3958 0
-724 -3959 0
4 94 184 274 364 454 544 634 724 0
-5 3961 0
-95 3962 0
-3961 3962 0
-95 -3961 0
-185 3963 0
-3962 3963 0
-185 -3962 0
-275 3964 0
-3963 3964 0
-275 -3963 0
-365 3965 0
-3964 3965 0
-365 -3964 0
-455 3966 0
-3965 3966 0
-455 -3965 0
-545 3967 0
-3966 3967 0
-545 -3966 0
-635 3968 0
-3967 3968 0
-635 -3967 0
-725 -3968 0
5 95 185 275 365 455 545 635 725 0
-6 3970 0
-96 3971 0
-3970 3971 0
-96 -3970 0
-186 3972 0
-3971 3972 0
-186 -3971 0
-276 3973 0
-3972 3973 0
-276 -3972 0
-366 3974 0
-3973 3974 0
-366 -3973 0
-456 3975 0
-3974 3975 0
-456 -3974 0
-546 3976 0
-3975 3976 0
-546 -3975 0
-636 3977 0
-3976 3977 0
-636 -3976 0
-726 -3977 0
6 96 186 276 366 456 546 636 726 0
-7 3979 0
-97 3980 0
-3979 3980 0
-97 -3979 0
-187 3981 0
-3980 3981 0
-187 -3980 0
-277 3982 0
-3981 3982 0
-277 -3981 0
-367 3983 0
-3982 3983 0
-367 -3982 0
-457 3984 0
-3983 3984 0
-457 -3983 0
-547 3985 0
-3984 3985 0
-547 -3984 0
-637 3986 0
-3985 3986 0
-637 -3985 0
-727 -3986 0
7 97 187 277 367 457 547 637 727 0
-8 3988 0
-98 3989 0
-3988 3989 0
-98 -3988 0
-188 3990 0
-3989 3990 0
-188 -3989 0
-278 3991 0
-3990 3991 0
-278 -3990 0
-368 3992 0
-3991 3992 0
-368 -3991 0
-458 3993 0
-3992 3993 0
-458 -3992 0
-548 3994 0
-3993 3994 0
-548 -3993 0
-638 3995 0
-3994 3995 0
-638 -3994 0
-728 -3995 0
8 98 188 278 368 458 548 638 728 0
-9 3997 0
-99 3998 0
-3997 3998 0
-99 -3997 0
-189 3999 0
-3998 3999 0
-189 -3998 0
-279 4000 0
-3999 4000 0
-279 -3999 0
-369 4001 0
-4000 4001 0
-369 -4000 0
-459 4002 0
-4001 4002 0
-459 -4001 0
-549 4003 0
-4002 4003 0
-549 -4002 0
-639 4004 0
-4003 4004 0
-639 -4003 0
-729 -4004 0
9 99 189 279 369 459 549 639 729 0
-4006 4015 0
-4007 4016 0
-4015 4016 0
-4007 -4015 0
-4008 4017 0
-4016 4017 0
-4008 -4016 0
-4009 4018 0
-4017 4018 0
-4009 -4017 0
-4010 4019 0
-4018 4019 0
-4010 -4018 0
-4011 4020 0
-4019 4020 0
-4011 -4019 0
-4012 4021 0
-4020 4021 0
-4012 -4020 0
-4013 4022 0
-4021 4022 0
-4013 -4021 0
-4014 -4022 0
4006 4024 0
-4025 0
-4026 0
-4027 0
-4028 0
-4029 0
-4030 0
-4031 0
4007 4032 0
-4024 4032 0
4007 -4024 4033 0
-4025 4033 0
4007 -4025 4034 0
-4026 4034 0
4007 -4026 4035 0
-4027 4035 0
4007 -4027 4036 0
-4028 4036 0
4007 -4028 4037 0
-4029 4037 0
4007 -4029 4038 0
-4030 4038 0
4007 -4030 4039 0
-4031 4039 0
4007 -4031 0
4008 4040 0
-4032 4040 0
4008 -4032 4041 0
-4033 4041 0
4008 -4033 4042 0
-4034 4042 0
4008 -4034 4043 0
-4035 4043 0
4008 -4035 4044 0
-4036 4044 0
4008 -4036 4045 0
-4037 4045 0
4008 -4037 4046 0
-4038 4046 0
4008 -4038 4047 0
-4039 4047 0
4008 -4039 0
4009 4048 0
-4040 4048 0
4009 -4040 4049 0
-4041 4049 0
4009 -4041 4050 0
-4042 4050 0
4009 -4042 4051 0
-4043 4051 0
4009 -4043 4052 0
-4044 4052 0
4009 -4044 4053 0
-4045 4053 0
4009 -4045 4054 0
-4046 4054 0
4009 -4046 4055 0
-4047 4055 0
4009 -4047 0
4010 4056 0
-4048 4056 0
4010 -4048 4057 0
-4049 4057 0
4010 -4049 4058 0
-4050 4058 0
4010 -4050 4059 0
-4051 4059 0
4010 -4051 4060 0
-4052 4060 0
4010 -4052 4061 0
-4053 4061 0
4010 -4053 4062 0
-4054 4062 0
4010 -4054 4063 0
-4055 4063 0
4010 -4055 0
4011 4064 0
-4056 4064 0
4011 -4056 4065 0
-4057 4065 0
4011 -4057 4066 0
-4058 4066 0
4011 -4058 4067 0
-4059 4067 0
4011 -4059 4068 0
-4060 4068 0
4011 -4060 4069 0
-4061 4069 0
4011 -4061 4070 0
-4062 4070 0
4011 -4062 4071 0
-4063 4071 0
4011 -4063 0
4012 4072 0
-4064 4072 0
4012 -4064 4073 0
-4065 4073 0
4012 -4065 4074 0
-4066 4074 0
4012 -4066 4075 0
-4067 4075 0
4012 -4067 4076 0
-4068 4076 0
4012 -4068 4077 0
-4069 4077 0
4012 -4069 4078 0
-4070 4078 0
4012 -4070 4079 0
-4071 4079 0
4012 -4071 0
4013 4080 0
-4072 4080 0
4013 -4072 4081 0
-4073 4081 0
4013 -4073 4082 0
-4074 4082 0
4013 -4074 4083 0
-4075 4083 0
4013 -4075 4084 0
-4076 4084 0
4013 -4076 4085 0
-4077 4085 0
4013 -4077 4086 0
-4078 4086 0
4013 -4078 4087 0
-4079 4087 0
4013 -4079 0
4014 -4087 0
-82 4096 0
-172 4097 0
-4096 4097 0
-172 -4096 0
-262 4098 0
-4097 4098 0
-262 -4097 0
-352 4099 0
-4098 4099 0
-352 -4098 0
-442 4100 0
-4099 4100 0
-442 -4099 0
-532 4101 0
-4100 4101 0
-532 -4100 0
-622 4102 0
-4101 4102 0
-622 -4101 0
-712 4103 0
-4102 4103 0
-712 -4102 0
-4006 -4103 0
82 172 262 352 442 532 622 712 4006 0
-83 4105 0
-173 4106 0
-4105 4106 0
-173 -4105 0
-263 4107 0
-4106 4107 0
-263 -4106 0
-353 4108 0
-4107 4108 0
-353 -4107 0
-443 4109 0
-4108 4109 0
-443 -4108 0
-533 4110 0
-4109 4110 0
-533 -4109 0
-623 4111 0
-4110 4111 0
-623 -4110 0
-713 4112 0
-4111 4112 0
-713 -4111 0
-4007 -4112 0
83 173 263 353 443 533 623 713 4007 0
-84 4114 0
-174 4115 0
-4114 4115 0
-174 -4114 0
-264 4116 0
-4115 4116 0
-264 -4115 0
-354 4117 0
-4116 4117 0
-354 -4116 0
-444 4118 0
-4117 4118 0
-444 -4117 0
-534 4119 0
-4118 4119 0
-534 -4118 0
-624 4120 0
-4119 4120 0
-624 -4119 0
-714 4121 0
-4120 4121 0
-714 -4120 0
-4008 -4121 0
84 174 264 354 444 534 624 714 4008 0
-85 4123 0
-175 4124 0
-4123 4124 0
-175 -4123 0
-265 4125 0
-4124 4125 0
-265 -4124 0
-355 4126 0
-4125 4126 0
-355 -4125 0
-445 4127 0
-4126 4127 0
-445 -4126 0
-535 4128 0
-4127 4128 0
-535 -4127 0
-625 4129 0
-4128 4129 0
-625 -4128 0
-715 4130 0
-4129 4130 0
-715 -4129 0
-4009 -4130 0
85 175 265 355 445 535 625 715 4009 0
-86 4132 0
-176 4133 0
-4132 4133 0
-176 -4132 0
-266 4134 0
-4133 4134 0
-266 -4133 0
-356 4135 0
-4134 4135 0
-356 -4134 0
-446 4136 0
-4135 4136 0
-446 -4135 0
-536 4137 0
-4136 4137 0
-536 -4136 0
-626 4138 0
-4137 4138 0
-626 -4137 0
-716 4139 0
-4138 4139 0
-716 -4138 0
-4010 -4139 0
86 176 266 356 446 536 626 716 4010 0
-87 4141 0
-177 4142 0
-4141 4142 0
-177 -4141 0
-267 4143 0
-4142 4143 0
-267 -4142 0
-357 4144 0
-4143 4144 0
-357 -4143 0
-447 4145 0
-4144 4145 0
-447 -4144 0
-537 4146 0
-4145 4146 0
-537 -4145 0
-627 4147 0
-4146 4147 0
-627 -4146 0
-717 4148 0
-4147 4148 0
-717 -4147 0
-4011 -4148 0
87 177 267 357 447 537 627 717 4011 0
-88 4150 0
-178 4151 0
-4150 4151 0
-178 -4150 0
-268 4152 0
-4151 4152 0
-268 -4151 0
-358 4153 0
-4152 4153 0
-358 -4152 0
-448 4154 0
-4153 4154 0
-448 -4153 0
-538 4155 0
-4154 4155 0
-538 -4154 0
-628 4156 0
-4155 4156 0
-628 -4155 0
-718 4157 0
-4156 4157 0
-718 -4156 0
-4012 -4157 0
88 178 268 358 448 538 628 718 4012 0
-89 4159 0
-179 4160 0
-4159 4160 0
-179 -4159 0
-269 4161 0
-4160 4161 0
-269 -4160 0
-359 4162 0
-4161 4162 0
-359 -4161 0
-449 4163 0
-4162 4163 0
-449 -4162 0
-539 4164 0
-4163 4164 0
-539 -4163 0
-629 4165 0
-4164 4165 0
-629 -4164 0
-719 4166 0
-4165 4166 0
-719 -4165 0
-4013 -4166 0
89 179 269 359 449 539 629 719 4013 0
-90 4168 0
-180 4169 0
-4168 4169 0
-180 -4168 0
-270 4170 0
-4169 4170 0
-270 -4169 0
-360 4171 0
-4170 4171 0
-360 -4170 0
-450 4172 0
-4171 4172 0
-450 -4171 0
-540 4173 0
-4172 4173 0
-540 -4172 0
-630 4174 0
-4173 4174 0
-630 -4173 0
-720 4175 0
-4174 4175 0
-720 -4174 0
-4014 -4175 0
90 180 270 360 450 540 630 720 4014 0
-4177 4186 0
-4187 0
-4178 4188 0
-4186 4188 0
-4178 -4186 4189 0
-4187 4189 0
-4178 -4187 0
-4179 4190 0
-4188 4190 0
-4179 -4188 4191 0
-4189 4191 0
-4179 -4189 0
-4180 4192 0
-4190 4192 0
-4180 -4190 4193 0
-4191 4193 0
-4180 -4191 0
-4181 4194 0
-4192 4194 0
-4181 -4192 4195 0
-4193 4195 0
-4181 -4193 0
-4182 4196 0
-4194 4196 0
-4182 -4194 4197 0
-4195 4197 0
-4182 -4195 0
-4183 4198 0
-4196 4198 0
-4183 -4196 4199 0
-4197 4199 0
-4183 -4197 0
-4184 4200 0
-4198 4200 0
-4184 -4198 4201 0
-4199 4201 0
-4184 -4199 0
-4185 -4201 0
4177 4204 0
-4205 0
-4206 0
-4207 0
-4208 0
-4209 0
-4210 0
4178 4211 0
-4204 4211 0
4178 -4204 4212 0
-4205 4212 0
4178 -4205 4213 0
-4206 4213 0
4178 -4206 4214 0
-4207 4214 0
4178 -4207 4215 0
-4208 4215 0
4178 -4208 4216 0
-4209 4216 0
4178 -4209 4217 0
-4210 4217 0
4178 -4210 0
4179 4218 0
-4211 4218 0
4179 -4211 4219 0
-4212 4219 0
4179 -4212 4220 0
-4213 4220 0
4179 -4213 4221 0
-4214 4221 0
4179 -4214 4222 0
-4215 4222 0
4179 -4215 4223 0
-4216 4223 0
4179 -4216 4224 0
-4217 4224 0
4179 -4217 0
4180 4225 0
-4218 4225 0
4180 -4218 4226 0
-4219 4226 0
4180 -4219 4227 0
-4220 4227 0
4180 -4220 4228 0
-4221 4228 0
4180 -4221 4229 0
-4222 4229 0
4180 -4222 4230 0
-4223 4230 0
4180 -4223 4231 0
-4224 4231 0
4180 -4224 0
4181 4232 0
-4225 4232 0
4181 -4225 4233 0
-4226 4233 0
4181 -4226 4234 0
-4227 4234 0
4181 -4227 4235 0
-4228 4235 0
4181 -4228 4236 0
-4229 4236 0
4181 -4229 4237 0
-4230 4237 0
4181 -4230 4238 0
-4231 4238 0
4181 -4231 0
4182 4239 0
-4232 4239 0
4182 -4232 4240 0
-4233 4240 0
4182 -4233 4241 0
-4234 4241 0
4182 -4234 4242 0
-4235 4242 0
4182 -4235 4243 0
-4236 4243 0
4182 -4236 4244 0
-4237 4244 0
4182 -4237 4245 0
-4238 4245 0
4182 -4238 0
4183 4246 0
-4239 4246 0
4183 -4239 4247 0
-4240 4247 0
4183 -4240 4248 0
-4241 4248 0
4183 -4241 4249 0
-4242 4249 0
4183 -4242 4250 0
-4243 4250 0
4183 -4243 4251 0
-4244 4251 0
4183 -4244 4252 0
-4245 4252 0
4183 -4245 0
4184 4253 0
-4246 4253 0
4184 -4246 4254 0
-4247 4254 0
4184 -4247 4255 0
-4248 4255 0
4184 -4248 4256 0
-4249 4256 0
4184 -4249 4257 0
-4250 4257 0
4184 -4250 4258 0
-4251 4258 0
4184 -4251 4259 0
-4252 4259 0
4184 -4252 0
4185 -4259 0
-163 4267 0
-253 4268 0
-4267 4268 0
-253 -4267 0
-343 4269 0
-4268 4269 0
-343 -4268 0
-433 4270 0
-4269 4270 0
-433 -4269 0
-523 4271 0
-4270 4271 0
-523 -4270 0
-613 4272 0
-4271 4272 0
-613 -4271 0
-703 4273 0
-4272 4273 0
-703 -4272 0
-4177 -4273 0
163 253 343 433 523 613 703 4177 0
-164 4275 0
-254 4276 0
-4275 4276 0
-254 -4275 0
-344 4277 0
-4276 4277 0
-344 -4276 0
-434 4278 0
-4277 4278 0
-434 -4277 0
-524 4279 0
-4278 4279 0
-524 -4278 0
-614 4280 0
-4279 4280 0
-614 -4279 0
-704 4281 0
-4280 4281 0
-704 -4280 0
-4178 -4281 0
164 254 344 434 524 614 704 4178 0
-165 4283 0
-255 4284 0
-4283 4284 0
-255 -4283 0
-345 4285 0
-4284 4285 0
-345 -4284 0
-435 4286 0
-4285 4286 0
-435 -4285 0
-525 4287 0
-4286 4287 0
-525 -4286 0
-615 4288 0
-4287 4288 0
-615 -4287 0
-705 4289 0
-4288 4289 0
-705 -4288 0
-4179 -4289 0
165 255 345 435 525 615 705 4179 0
-166 4291 0
-256 4292 0
-4291 4292 0
-256 -4291 0
-346 4293 0
-4292 4293 0
-346 -4292 0
-436 4294 0
-4293 4294 0
-436 -4293 0
-526 4295 0
-4294 4295 0
-526 -4294 0
-616 4296 0
-4295 4296 0
-616 -4295 0
-706 4297 0
-4296 4297 0
-706 -4296 0
-4180 -4297 0
166 256 346 436 526 616 706 4180 0
-167 4299 0
-257 4300 0
-4299 4300 0
-257 -4299 0
-347 4301 0
-4300 4301 0
-347 -4300 0
-437 4302 0
-4301 4302 0
-437 -4301 0
-527 4303 0
-4302 4303 0
-527 -4302 0
-617 4304 0
-4303 4304 0
-617 -4303 0
-707 4305 0
-4304 4305 0
-707 -4304 0
-4181 -4305 0
167 257 347 437 527 617 707 4181 0
-168 4307 0
-258 4308 0
-4307 4308 0
-258 -4307 0
-348 4309 0
-4308 4309 0
-348 -4308 0
-438 4310 0
-4309 4310 0
-438 -4309 0
-528 4311 0
-4310 4311 0
-528 -4310 0
-618 4312 0
-4311 4312 0
-618 -4311 0
-708 4313 0
-4312 4313 0
-708 -4312 0
-4182 -4313 0
168 258 348 438 528 618 708 4182 0
-169 4315 0
-259 4316 0
-4315 4316 0
-259 -4315 0
-349 4317 0
-4316 4317 0
-349 -4316 0
-439 4318 0
-4317 4318 0
-439 -4317 0
-529 4319 0
-4318 4319 0
-529 -4318 0
-619 4320 0
-4319 4320 0
-619 -4319 0
-709 4321 0
-4320 4321 0
-709 -4320 0
-4183 -4321 0
169 259 349 439 529 619 709 4183 0
-170 4323 0
-260 4324 0
-4323 4324 0
-260 -4323 0
-350 4325 0
-4324 4325 0
-350 -4324 0
-440 4326 0
-4325 4326 0
-440 -4325 0
-530 4327 0
-4326 4327 0
-530 -4326 0
-620 4328 0
-4327 4328 0
-620 -4327 0
-710 4329 0
-4328 4329 0
-710 -4328 0
-4184 -4329 0
170 260 350 440 530 620 710 4184 0
-171 4331 0
-261 4332 0
-4331 4332 0
-261 -4331 0
-351 4333 0
-4332 4333 0
-351 -4332 0
-441 4334 0
-4333 4334 0
-441 -4333 0
-531 4335 0
-4334 4335 0
-531 -4334 0
-621 4336 0
-4335 4336 0
-621 -4335 0
-711 4337 0
-4336 4337 0
-711 -4336 0
-4185 -4337 0
171 261 351 441 531 621 711 4185 0
-4339 4348 0
-4349 0
-4350 0
-4340 4351 0
-4348 4351 0
-4340 -4348 4352 0
-4349 4352 0
-4340 -4349 4353 0
-4350 4353 0
-4340 -4350 0
-4341 4354 0
-4351 4354 0
-4341 -4351 4355 0
-4352 4355 0
-4341 -4352 4356 0
-4353 4356 0
-4341 -4353 0
-4342 4357 0
-4354 4357 0
-4342 -4354 4358 0
-4355 4358 0
-4342 -4355 4359 0
-4356 4359 0
-4342 -4356 0
-4343 4360 0
-4357 4360 0
-4343 -4357 4361 0
-4358 4361 0
-4343 -4358 4362 0
-4359 4362 0
-4343 -4359 0
-4344 4363 0
-4360 4363 0
-4344 -4360 4364 0
-4361 4364 0
-4344 -4361 4365 0
-4362 4365 0
-4344 -4362 0
-4345 4366 0
-4363 4366 0
-4345 -4363 4367 0
-4364 4367 0
-4345 -4364 4368 0
-4365 4368 0
-4345 -4365 0
-4346 4369 0
-4366 4369 0
-4346 -4366 4370 0
-4367 4370 0
-4346 -4367 4371 0
-4368 4371 0
-4346 -4368 0
-4347 -4371 0
4339 4375 0
-4376 0
-4377 0
-4378 0
-4379 0
-4380 0
4340 4381 0
-4375 4381 0
4340 -4375 4382 0
-4376 4382 0
4340 -4376 4383 0
-4377 4383 0
4340 -4377 4384 0
-4378 4384 0
4340 -4378 4385 0
-4379 4385 0
4340 -4379 4386 0
-4380 4386 0
4340 -4380 0
4341 4387 0
-4381 4387 0
4341 -4381 4388 0
-4382 4388 0
4341 -4382 4389 0
-4383 4389 0
4341 -4383 4390 0
-4384 4390 0
4341 -4384 4391 0
-4385 4391 0
4341 -4385 4392 0
-4386 4392 0
4341 -4386 0
4342 4393 0
-4387 4393 0
4342 -4387 4394 0
-4388 4394 0
4342 -4388 4395 0
-4389 4395 0
4342 -4389 4396 0
-4390 4396 0
4342 -4390 4397 0
-4391 4397 0
4342 -4391 4398 0
-4392 4398 0
4342 -4392 0
4343 4399 0
-4393 4399 0
4343 -4393 4400 0
-4394 4400 0
4343 -4394 4401 0
-4395 4401 0
4343 -4395 4402 0
-4396 4402 0
4343 -4396 4403 0
-4397 4403 0
4343 -4397 4404 0
-4398 4404 0
4343 -4398 0
4344 4405 0
-4399 4405 0
4344 -4399 4406 0
-4400 4406 0
4344 -4400 4407 0
-4401 4407 0
4344 -4401 4408 0
-4402 4408 0
4344 -4402 4409 0
-4403 4409 0
4344 -4403 4410 0
-4404 4410 0
4344 -4404 0
4345 4411 0
-4405 4411 0
4345 -4405 4412 0
-4406 4412 0
4345 -4406 4413 0
-4407 4413 0
4345 -4407 4414 0
-4408 4414 0
4345 -4408 4415 0
-4409 4415 0
4345 -4409 4416 0
-4410 4416 0
4345 -4410 0
4346 4417 0
-4411 4417 0
4346 -4411 4418 0
-4412 4418 0
4346 -4412 4419 0
-4413 4419 0
4346 -4413 4420 0
-4414 4420 0
4346 -4414 4421 0
-4415 4421 0
4346 -4415 4422 0
-4416 4422 0
4346 -4416 0
4347 -4422 0
-244 4429 0
-334 4430 0
-4429 4430 0
-334 -4429 0
-424 4431 0
-4430 4431 0
-424 -4430 0
-514 4432 0
-4431 4432 0
-514 -4431 0
-604 4433 0
-4432 4433 0
-604 -4432 0
-694 4434 0
-4433 4434 0
-694 -4433 0
-4339 -4434 0
244 334 424 514 604 694 4339 0
-245 4436 0
-335 4437 0
-4436 4437 0
-335 -4436 0
-425 4438 0
-4437 4438 0
-425 -4437 0
-515 4439 0
-4438 4439 0
-515 -4438 0
-605 4440 0
-4439 4440 0
-605 -4439 0
-695 4441 0
-4440 4441 0
-695 -4440 0
-4340 -4441 0
245 335 425 515 605 695 4340 0
-246 4443 0
-336 4444 0
-4443 4444 0
-336 -4443 0
-426 4445 0
-4444 4445 0
-426 -4444 0
-516 4446 0
-4445 4446 0
-516 -4445 0
-606 4447 0
-4446 4447 0
-606 -4446 0
-696 4448 0
-4447 4448 0
-696 -4447 0
-4341 -4448 0
246 336 426 516 606 696 4341 0
-247 4450 0
-337 4451 0
-4450 4451 0
-337 -4450 0
-427 4452 0
-4451 4452 0
-427 -4451 0
-517 4453 0
-4452 4453 0
-517 -4452 0
-607 4454 0
-4453 4454 0
-607 -4453 0
-697 4455 0
-4454 4455 0
-697 -4454 0
-4342 -4455 0
247 337 427 517 607 697 4342 0
-248 4457 0
-338 4458 0
-4457 4458 0
-338 -4457 0
-428 4459 0
-4458 4459 0
-428 -4458 0
-518 4460 0
-4459 4460 0
-518 -4459 0
-608 4461 0
-4460 4461 0
-608 -4460 0
-698 4462 0
-4461 4462 0
-698 -4461 0
-4343 -4462 0
248 338 428 518 608 698 4343 0
-249 4464 0
-339 4465 0
-4464 4465 0
-339 -4464 0
-429 4466 0
-4465 4466 0
-429 -4465 0
-519 4467 0
-4466 4467 0
-519 -4466 0
-609 4468 0
-4467 4468 0
-609 -4467 0
-699 4469 0
-4468 4469 0
-699 -4468 0
-4344 -4469 0
249 339 429 519 609 699 4344 0
-250 4471 0
-340 4472 0
-4471 4472 0
-340 -4471 0
-430 4473 0
-4472 4473 0
-430 -4472 0
-520 4474 0
-4473 4474 0
-520 -4473 0
-610 4475 0
-4474 4475 0
-610 -4474 0
-700 4476 0
-4475 4476 0
-700 -4475 0
-4345 -4476 0
250 340 430 520 610 700 4345 0
-251 4478 0
-341 4479 0
-4478 4479 0
-341 -4478 0
-431 4480 0
-4479 4480 0
-431 -4479 0
-521 4481 0
-4480 4481 0
-521 -4480 0
-611 4482 0
-4481 4482 0
-611 -4481 0
-701 4483 0
-4482 4483 0
-701 -4482 0
-4346 -4483 0
251 341 431 521 611 701 4346 0
-252 4485 0
-342 4486 0
-4485 4486 0
-342 -4485 0
-432 4487 0
-4486 4487 0
-432 -4486 0
-522 4488 0
-4487 4488 0
-522 -4487 0
-612 4489 0
-4488 4489 0
-612 -4488 0
-702 4490 0
-4489 4490 0
-702 -4489 0
-4347 -4490 0
252 342 432 522 612 702 4347 0
-4492 4501 0
-4502 0
-4503 0
-4504 0
-4493 4505 0
-4501 4505 0
-4493 -4501 4506 0
-4502 4506 0
-4493 -4502 4507 0
-4503 4507 0
-4493 -4503 4508 0
-4504 4508 0
-4493 -4504 0
-4494 4509 0
-4505 4509 0
-4494 -4505 4510 0
-4506 4510 0
-4494 -4506 4511 0
-4507 4511 0
-4494 -4507 4512 0
-4508 4512 0
-4494 -4508 0
-4495 4513 0
-4509 4513 0
-4495 -4509 4514 0
-4510 4514 0
-4495 -4510 4515 0
-4511 4515 0
-4495 -4511 4516 0
-4512 4516 0
-4495 -4512 0
-4496 4517 0
-4513 4517 0
-4496 -4513 4518 0
-4514 4518 0
-4496 -4514 4519 0
-4515 4519 0
-4496 -4515 4520 0
-4516 4520 0
-4496 -4516 0
-4497 4521 0
-4517 4521 0
-4497 -4517 4522 0
-4518 4522 0
-4497 -4518 4523 0
-4519 4523 0
-4497 -4519 4524 0
-4520 4524 0
-4497 -4520 0
-4498 4525 0
-4521 4525 0
-4498 -4521 4526 0
-4522 4526 0
-4498 -4522 4527 0
-4523 4527 0
-4498 -4523 4528 0
-4524 4528 0
-4498 -4524 0
-4499 4529 0
-4525 4529 0
-4499 -4525 4530 0
-4526 4530 0
-4499 -4526 4531 0
-4527 4531 0
-4499 -4527 4532 0
-4528 4532 0
-4499 -4528 0
-4500 -4532 0
4492 4537 0
-4538 0
-4539 0
-4540 0
-4541 0
4493 4542 0
-4537 4542 0
4493 -4537 4543 0
-4538 4543 0
4493 -4538 4544 0
-4539 4544 0
4493 -4539 4545 0
-4540 4545 0
4493 -4540 4546 0
-4541 4546 0
4493 -4541 0
4494 4547 0
-4542 4547 0
4494 -4542 4548 0
-4543 4548 0
4494 -4543 4549 0
-4544 4549 0
4494 -4544 4550 0
-4545 4550 0
4494 -4545 4551 0
-4546 4551 0
4494 -4546 0
4495 4552 0
-4547 4552 0
4495 -4547 4553 0
-4548 4553 0
4495 -4548 4554 0
-4549 4554 0
4495 -4549 4555 0
-4550 4555 0
4495 -4550 4556 0
-4551 4556 0
4495 -4551 0
4496 4557 0
-4552 4557 0
4496 -4552 4558 0
-4553 4558 0
4496 -4553 4559 0
-4554 4559 0
4496 -4554 4560 0
-4555 4560 0
4496 -4555 4561 0
-4556 4561 0
4496 -4556 0
4497 4562 0
-4557 4562 0
4497 -4557 4563 0
-4558 4563 0
4497 -4558 4564 0
-4559 4564 0
4497 -4559 4565 0
-4560 4565 0
4497 -4560 4566 0
-4561 4566 0
4497 -4561 0
4498 4567 0
-4562 4567 0
4498 -4562 4568 0
-4563 4568 0
4498 -4563 4569 0
-4564 4569 0
4498 -4564 4570 0
-4565 4570 0
4498 -4565 4571 0
-4566 4571 0
4498 -4566 0
4499 4572 0
-4567 4572 0
4499 -4567 4573 0
-4568 4573 0
4499 -4568 4574 0
-4569 4574 0
4499 -4569 4575 0
-4570 4575 0
4499 -4570 4576 0
-4571 4576 0
4499 -4571 0
4500 -4576 0
-325 4582 0
-415 4583 0
-4582 4583 0
-415 -4582 0
-505 4584 0
-4583 4584 0
-505 -4583 0
-595 4585 0
-4584 4585 0
-595 -4584 0
-685 4586 0
-4585 4586 0
-685 -4585 0
-4492 -4586 0
325 415 505 595 685 4492 0
-326 4588 0
-416 4589 0
-4588 4589 0
-416 -4588 0
-506 4590 0
-4589 4590 0
-506 -4589 0
-596 4591 0
-4590 4591 0
-596 -4590 0
-686 4592 0
-4591 4592 0
-686 -4591 0
-4493 -4592 0
326 416 506 596 686 4493 0
-327 4594 0
-417 4595 0
-4594 4595 0
-417 -4594 0
-507 4596 0
-4595 4596 0
-507 -4595 0
-597 4597 0
-4596 4597 0
-597 -4596 0
-687 4598 0
-4597 4598 0
-687 -4597 0
-4494 -4598 0
327 417 507 597 687 4494 0
-328 4600 0
-418 4601 0
-4600 4601 0
-418 -4600 0
-508 4602 0
-4601 4602 0
-508 -4601 0
-598 4603 0
-4602 4603 0
-598 -4602 0
-688 4604 0
-4603 4604 0
-688 -4603 0
-4495 -4604 0
328 418 508 598 688 4495 0
-329 4606 0
-419 4607 0
-4606 4607 0
-419 -4606 0
-509 4608 0
-4607 4608 0
-509 -4607 0
-599 4609 0
-4608 4609 0
-599 -4608 0
-689 4610 0
-4609 4610 0
-689 -4609 0
-4496 -4610 0
329 419 509 599 689 4496 0
-330 4612 0
-420 4613 0
-4612 4613 0
-420 -4612 0
-510 4614 0
-4613 4614 0
-510 -4613 0
-600 4615 0
-4614 4615 0
-600 -4614 0
-690 4616 0
-4615 4616 0
-690 -4615 0
-4497 -4616 0
330 420 510 600 690 4497 0
-331 4618 0
-421 4619 0
-4618 4619 0
-421 -4618 0
-511 4620 0
-4619 4620 0
-511 -4619 0
-601 4621 0
-4620 4621 0
-601 -4620 0
-691 4622 0
-4621 4622 0
-691 -4621 0
-4498 -4622 0
331 421 511 601 691 4498 0
-332 4624 0
-422 4625 0
-4624 4625 0
-422 -4624 0
-512 4626 0
-4625 4626 0
-512 -4625 0
-602 4627 0
-4626 4627 0
-602 -4626 0
-692 4628 0
-4627 4628 0
-692 -4627 0
-4499 -4628 0
332 422 512 602 692 4499 0
-333 4630 0
-423 4631 0
-4630 4631 0
-423 -4630 0
-513 4632 0
-4631 4632 0
-513 -4631 0
-603 4633 0
-4632 4633 0
-603 -4632 0
-693 4634 0
-4633 4634 0
-693 -4633 0
-4500 -4634 0
333 423 513 603 693 4500 0
-4636 4645 0
-4646 0
-4647 0
-4648 0
-4649 0
-4637 4650 0
-4645 4650 0
-4637 -4645 4651 0
-4646 4651 0
-4637 -4646 4652 0
-4647 4652 0
-4637 -4647 4653 0
-4648 4653 0
-4637 -4648 4654 0
-4649 4654 0
-4637 -4649 0
-4638 4655 0
-4650 4655 0
-4638 -4650 4656 0
-4651 4656 0
-4638 -4651 4657 0
-4652 4657 0
-4638 -4652 4658 0
-4653 4658 0
-4638 -4653 4659 0
-4654 4659 0
-4638 -4654 0
-4639 4660 0
-4655 4660 0
-4639 -4655 4661 0
-4656 4661 0
-4639 -4656 4662 0
-4657 4662 0
-4639 -4657 4663 0
-4658 4663 0
-4639 -4658 4664 0
-4659 4664 0
-4639 -4659 0
-4640 4665 0
-4660 4665 0
-4640 -4660 4666 0
-4661 4666 0
-4640 -4661 4667 0
-4662 4667 0
-4640 -4662 4668 0
-4663 4668 0
-4640 -4663 4669 0
-4664 4669 0
-4640 -4664 0
-4641 4670 0
-4665 4670 0
-4641 -4665 4671 0
-4666 4671 0
-4641 -4666 4672 0
-4667 4672 0
-4641 -4667 4673 0
-4668 4673 0
-4641 -4668 4674 0
-4669 4674 0
-4641 -4669 0
-4642 4675 0
-4670 4675 0
-4642 -4670 4676 0
-4671 4676 0
-4642 -4671 4677 0
-4672 4677 0
-4642 -4672 4678 0
-4673 4678 0
-4642 -4673 4679 0
-4674 4679 0
-4642 -4674 0
-4643 4680 0
-4675 4680 0
-4643 -4675 4681 0
-4676 4681 0
-4643 -4676 4682 0
-4677 4682 0
-4643 -4677 4683 0
-4678 4683 0
-4643 -4678 4684 0
-4679 4684 0
-4643 -4679 0
-4644 -4684 0
4636 4690 0
-4691 0
-4692 0
-4693 0
4637 4694 0
-4690 4694 0
4637 -4690 4695 0
-4691 4695 0
4637 -4691 4696 0
-4692 4696 0
4637 -4692 4697 0
-4693 4697 0
4637 -4693 0
4638 4698 0
-4694 4698 0
4638 -4694 4699 0
-4695 4699 0
4638 -4695 4700 0
-4696 4700 0
4638 -4696 4701 0
-4697 4701 0
4638 -4697 0
4639 4702 0
-4698 4702 0
4639 -4698 4703 0
-4699 4703 0
4639 -4699 4704 0
-4700 4704 0
4639 -4700 4705 0
-4701 4705 0
4639 -4701 0
4640 4706 0
-4702 4706 0
4640 -4702 4707 0
-4703 4707 0
4640 -4703 4708 0
-4704 4708 0
4640 -4704 4709 0
-4705 4709 0
4640 -4705 0
4641 4710 0
-4706 4710 0
4641 -4706 4711 0
-4707 4711 0
4641 -4707 4712 0
-4708 4712 0
4641 -4708 4713 0
-4709 4713 0
4641 -4709 0
4642 4714 0
-4710 4714 0
4642 -4710 4715 0
-4711 4715 0
4642 -4711 4716 0
-4712 4716 0
4642 -4712 4717 0
-4713 4717 0
4642 -4713 0
4643 4718 0
-4714 4718 0
4643 -4714 4719 0
-4715 4719 0
4643 -4715 4720 0
-4716 4720 0
4643 -4716 4721 0
-4717 4721 0
4643 -4717 0
4644 -4721 0
-406 4726 0
-496 4727 0
-4726 4727 0
-496 -4726 0
-586 4728 0
-4727 4728 0
-586 -4727 0
-676 4729 0
-4728 4729 0
-676 -4728 0
-4636 -4729 0
406 496 586 676 4636 0
-407 4731 0
-497 4732 0
-4731 4732 0
-497 -4731 0
-587 4733 0
-4732 4733 0
-587 -4732 0
-677 4734 0
-4733 4734 0
-677 -4733 0
-4637 -4734 0
407 497 587 677 4637 0
-408 4736 0
-498 4737 0
-4736 4737 0
-498 -4736 0
-588 4738 0
-4737 4738 0
-588 -4737 0
-678 4739 0
-4738 4739 0
-678 -4738 0
-4638 -4739 0
408 498 588 678 4638 0
-409 4741 0
-499 4742 0
-4741 4742 0
-499 -4741 0
-589 4743 0
-4742 4743 0
-589 -4742 0
-679 4744 0
-4743 4744 0
-679 -4743 0
-4639 -4744 0
409 499 589 679 4639 0
-410 4746 0
-500 4747 0
-4746 4747 0
-500 -4746 0
-590 4748 0
-4747 4748 0
-590 -4747 0
-680 4749 0
-4748 4749 0
-680 -4748 0
-4640 -4749 0
410 500 590 680 4640 0
-411 4751 0
-501 4752 0
-4751 4752 0
-501 -4751 0
-591 4753 0
-4752 4753 0
-591 -4752 0
-681 4754 0
-4753 4754 0
-681 -4753 0
-4641 -4754 0
411 501 591 681 4641 0
-412 4756 0
-502 4757 0
-4756 4757 0
-502 -4756 0
-592 4758 0
-4757 4758 0
-592 -4757 0
-682 4759 0
-4758 4759 0
-682 -4758 0
-4642 -4759 0
412 502 592 682 4642 0
-413 4761 0
-503 4762 0
-4761 4762 0
-503 -4761 0
-593 4763 0
-4762 4763 0
-593 -4762 0
-683 4764 0
-4763 4764 0
-683 -4763 0
-4643 -4764 0
413 503 593 683 4643 0
-414 4766 0
-504 4767 0
-4766 4767 0
-504 -4766 0
-594 4768 0
-4767 4768 0
-594 -4767 0
-684 4769 0
-4768 4769 0
-684 -4768 0
-4644 -4769 0
414 504 594 684 4644 0
-4771 4780 0
-4781 0
-4782 0
-4783 0
-4784 0
-4785 0
-4772 4786 0
-4780 4786 0
-4772 -4780 4787 0
-4781 4787 0
-4772 -4781 4788 0
-4782 4788 0
-4772 -4782 4789 0
-4783 4789 0
-4772 -4783 4790 0
-4784 4790 0
-4772 -4784 4791 0
-4785 4791 0
-4772 -4785 0
-4773 4792 0
-4786 4792 0
-4773 -4786 4793 0
-4787 4793 0
-4773 -4787 4794 0
-4788 4794 0
-4773 -4788 4795 0
-4789 4795 0
-4773 -4789 4796 0
-4790 4796 0
-4773 -4790 4797 0
-4791 4797 0
-4773 -4791 0
-4774 4798 0
-4792 4798 0
-4774 -4792 4799 0
-4793 4799 0
-4774 -4793 4800 0
-4794 4800 0
-4774 -4794 4801 0
-4795 4801 0
-4774 -4795 4802 0
-4796 4802 0
-4774 -4796 4803 0
-4797 4803 0
-4774 -4797 0
-4775 4804 0
-4798 4804 0
-4775 -4798 4805 0
-4799 4805 0
-4775 -4799 4806 0
-4800 4806 0
-4775 -4800 4807 0
-4801 4807 0
-4775 -4801 4808 0
-4802 4808 0
-4775 -4802 4809 0
-4803 4809 0
-4775 -4803 0
-4776 4810 0
-4804 4810 0
-4776 -4804 4811 0
-4805 4811 0
-4776 -4805 4812 0
-4806 4812 0
-4776 -4806 4813 0
-4807 4813 0
-4776 -4807 4814 0
-4808 4814 0
-4776 -4808 4815 0
-4809 4815 0
-4776 -4809 0
-4777 4816 0
-4810 4816 0
-4777 -4810 4817 0
-4811 4817 0
-4777 -4811 4818 0
-4812 4818 0
-4777 -4812 4819 0
-4813 4819 0
-4777 -4813 4820 0
-4814 4820 0
-4777 -4814 4821 0
-4815 4821 0
-4777 -4815 0
-4778 4822 0
-4816 4822 0
-4778 -4816 4823 0
-4817 4823 0
-4778 -4817 4824 0
-4818 4824 0
-4778 -4818 4825 0
-4819 4825 0
-4778 -4819 4826 0
-4820 4826 0
-4778 -4820 4827 0
-4821 4827 0
-4778 -4821 0
-4779 -4827 0
4771 4834 0
-4835 0
-4836 0
4772 4837 0
-4834 4837 0
4772 -4834 4838 0
-4835 4838 0
4772 -4835 4839 0
-4836 4839 0
4772 -4836 0
4773 4840 0
-4837 4840 0
4773 -4837 4841 0
-4838 4841 0
4773 -4838 4842 0
-4839 4842 0
4773 -4839 0
4774 4843 0
-4840 4843 0
4774 -4840 4844 0
-4841 4844 0
4774 -4841 4845 0
-4842 4845 0
4774 -4842 0
4775 4846 0
-4843 4846 0
4775 -4843 4847 0
-4844 4847 0
4775 -4844 4848 0
-4845 4848 0
4775 -4845 0
4776 4849 0
-4846 4849 0
4776 -4846 4850 0
-4847 4850 0
4776 -4847 4851 0
-4848 4851 0
4776 -4848 0
4777 4852 0
-4849 4852 0
4777 -4849 4853 0
-4850 4853 0
4777 -4850 4854 0
-4851 4854 0
4777 -4851 0
4778 4855 0
-4852 4855 0
4778 -4852 4856 0
-4853 4856 0
4778 -4853 4857 0
-4854 4857 0
4778 -4854 0
4779 -4857 0
-487 4861 0
-577 4862 0
-4861 4862 0
-577 -4861 0
-667 4863 0
-4862 4863 0
-667 -4862 0
-4771 -4863 0
487 577 667 4771 0
-488 4865 0
-578 4866 0
-4865 4866 0
-578 -4865 0
-668 4867 0
-4866 4867 0
-668 -4866 0
-4772 -4867 0
488 578 668 4772 0
-489 4869 0
-579 4870 0
-4869 4870 0
-579 -4869 0
-669 4871 0
-4870 4871 0
-669 -4870 0
-4773 -4871 0
489 579 669 4773 0
-490 4873 0
-580 4874 0
-4873 4874 0
-580 -4873 0
-670 4875 0
-4874 4875 0
-670 -4874 0
-4774 -4875 0
490 580 670 4774 0
-491 4877 0
-581 4878 0
-4877 4878 0
-581 -4877 0
-671 4879 0
-4878 4879 0
-671 -4878 0
-4775 -4879 0
491 581 671 4775 0
-492 4881 0
-582 4882 0
-4881 4882 0
-582 -4881 0
-672 4883 0
-4882 4883 0
-672 -4882 0
-4776 -4883 0
492 582 672 4776 0
-493 4885 0
-583 4886 0
-4885 4886 0
-583 -4885 0
-673 4887 0
-4886 4887 0
-673 -4886 0
-4777 -4887 0
493 583 673 4777 0
-494 4889 0
-584 4890 0
-4889 4890 0
-584 -4889 0
-674 4891 0
-4890 4891 0
-674 -4890 0
-4778 -4891 0
494 584 674 4778 0
-495 4893 0
-585 4894 0
-4893 4894 0
-585 -4893 0
-675 4895 0
-4894 4895 0
-675 -4894 0
-4779 -4895 0
495 585 675 4779 0
-4897 4906 0
-4907 0
-4908 0
-4909 0
-4910 0
-4911 0
-4912 0
-4898 4913 0
-4906 4913 0
-4898 -4906 4914 0
-4907 4914 0
-4898 -4907 4915 0
-4908 4915 0
-4898 -4908 4916 0
-4909 4916 0
-4898 -4909 4917 0
-4910 4917 0
-4898 -4910 4918 0
-4911 4918 0
-4898 -4911 4919 0
-4912 4919 0
-4898 -4912 0
-4899 4920 0
-4913 4920 0
-4899 -4913 4921 0
-4914 4921 0
-4899 -4914 4922 0
-4915 4922 0
-4899 -4915 4923 0
-4916 4923 0
-4899 -4916 4924 0
-4917 4924 0
-4899 -4917 4925 0
-4918 4925 0
-4899 -4918 4926 0
-4919 4926 0
-4899 -4919 0
-4900 4927 0
-4920 4927 0
-4900 -4920 4928 0
-4921 4928 0
-4900 -4921 4929 0
-4922 4929 0
-4900 -4922 4930 0
-4923 4930 0
-4900 -4923 4931 0
-4924 4931 0
-4900 -4924 4932 0
-4925 4932 0
-4900 -4925 4933 0
-4926 4933 0
-4900 -4926 0
-4901 4934 0
-4927 4934 0
-4901 -4927 4935 0
-4928 4935 0
-4901 -4928 4936 0
-4929 4936 0
-4901 -4929 4937 0
-4930 4937 0
-4901 -4930 4938 0
-4931 4938 0
-4901 -4931 4939 0
-4932 4939 0
-4901 -4932 4940 0
-4933 4940 0
-4901 -4933 0
-4902 4941 0
-4934 4941 0
-4902 -4934 4942 0
-4935 4942 0
-4902 -4935 4943 0
-4936 4943 0
-4902 -4936 4944 0
-4937 4944 0
-4902 -4937 4945 0
-4938 4945 0
-4902 -4938 4946 0
-4939 4946 0
-4902 -4939 4947 0
-4940 4947 0
-4902 -4940 0
-4903 4948 0
-4941 4948 0
-4903 -4941 4949 0
-4942 4949 0
-4903 -4942 4950 0
-4943 4950 0
-4903 -4943 4951 0
-4944 4951 0
-4903 -4944 4952 0
-4945 4952 0
-4903 -4945 4953 0
-4946 4953 0
-4903 -4946 4954 0
-4947 4954 0
-4903 -4947 0
-4904 4955 0
-4948 4955 0
-4904 -4948 4956 0
-4949 4956 0
-4904 -4949 4957 0
-4950 4957 0
-4904 -4950 4958 0
-4951 4958 0
-4904 -4951 4959 0
-4952 4959 0
-4904 -4952 4960 0
-4953 4960 0
-4904 -4953 4961 0
-4954 4961 0
-4904 -4954 0
-4905 -4961 0
4897 4969 0
-4970 0
4898 4971 0
-4969 4971 0
4898 -4969 4972 0
-4970 4972 0
4898 -4970 0
4899 4973 0
-4971 4973 0
4899 -4971 4974 0
-4972 4974 0
4899 -4972 0
4900 4975 0
-4973 4975 0
4900 -4973 4976 0
-4974 4976 0
4900 -4974 0
4901 4977 0
-4975 4977 0
4901 -4975 4978 0
-4976 4978 0
4901 -4976 0
4902 4979 0
-4977 4979 0
4902 -4977 4980 0
-4978 4980 0
4902 -4978 0
4903 4981 0
-4979 4981 0
4903 -4979 4982 0
-4980 4982 0
4903 -4980 0
4904 4983 0
-4981 4983 0
4904 -4981 4984 0
-4982 4984 0
4904 -4982 0
4905 -4984 0
-568 4987 0
-658 4988 0
-4987 4988 0
-658 -4987 0
-4897 -4988 0
568 658 4897 0
-569 4990 0
-659 4991 0
-4990 4991 0
-659 -4990 0
-4898 -4991 0
569 659 4898 0
-570 4993 0
-660 4994 0
-4993 4994 0
-660 -4993 0
-4899 -4994 0
570 660 4899 0
-571 4996 0
-661 4997 0
-4996 4997 0
-661 -4996 0
-4900 -4997 0
571 661 4900 0
-572 4999 0
-662 5000 0
-4999 5000 0
-662 -4999 0
-4901 -5000 0
572 662 4901 0
-573 5002 0
-663 5003 0
-5002 5003 0
-663 -5002 0
-4902 -5003 0
573 663 4902 0
-574 5005 0
-664 5006 0
-5005 5006 0
-664 -5005 0
-4903 -5006 0
574 664 4903 0
-575 5008 0
-665 5009 0
-5008 5009 0
-665 -5008 0
-4904 -5009 0
575 665 4904 0
-576 5011 0
-666 5012 0
-5011 5012 0
-666 -5011 0
-4905 -5012 0
576 666 4905 0
-5014 5023 0
-5024 0
-5025 0
-5026 0
-5027 0
-5028 0
-5029 0
-5015 5030 0
-5023 5030 0
-5015 -5023 5031 0
-5024 5031 0
-5015 -5024 5032 0
-5025 5032 0
-5015 -5025 5033 0
-5026 5033 0
-5015 -5026 5034 0
-5027 5034 0
-5015 -5027 5035 0
-5028 5035 0
-5015 -5028 5036 0
-5029 5036 0
-5015 -5029 0
-5016 5037 0
-5030 5037 0
-5016 -5030 5038 0
-5031 5038 0
-5016 -5031 5039 0
-5032 5039 0
-5016 -5032 5040 0
-5033 5040 0
-5016 -5033 5041 0
-5034 5041 0
-5016 -5034 5042 0
-5035 5042 0
-5016 -5035 5043 0
-5036 5043 0
-5016 -5036 0
-5017 5044 0
-5037 5044 0
-5017 -5037 5045 0
-5038 5045 0
-5017 -5038 5046 0
-5039 5046 0
-5017 -5039 5047 0
-5040 5047 0
-5017 -5040 5048 0
-5041 5048 0
-5017 -5041 5049 0
-5042 5049 0
-5017 -5042 5050 0
-5043 5050 0
-5017 -5043 0
-5018 5051 0
-5044 5051 0
-5018 -5044 5052 0
-5045 5052 0
-5018 -5045 5053 0
-5046 5053 0
-5018 -5046 5054 0
-5047 5054 0
-5018 -5047 5055 0
-5048 5055 0
-5018 -5048 5056 0
-5049 5056 0
-5018 -5049 5057 0
-5050 5057 0
-5018 -5050 0
-5019 5058 0
-5051 5058 0
-5019 -5051 5059 0
-5052 5059 0
-5019 -5052 5060 0
-5053 5060 0
-5019 -5053 5061 0
-5054 5061 0
-5019 -5054 5062 0
-5055 5062 0
-5019 -5055 5063 0
-5056 5063 0
-5019 -5056 5064 0
-5057 5064 0
-5019 -5057 0
-5020 5065 0
-5058 5065 0
-5020 -5058 5066 0
-5059 5066 0
-5020 -5059 5067 0
-5060 5067 0
-5020 -5060 5068 0
-5061 5068 0
-5020 -5061 5069 0
-5062 5069 0
-5020 -5062 5070 0
-5063 5070 0
-5020 -5063 5071 0
-5064 5071 0
-5020 -5064 0
-5021 5072 0
-5065 5072 0
-5021 -5065 5073 0
-5066 5073 0
-5021 -5066 5074 0
-5067 5074 0
-5021 -5067 5075 0
-5068 5075 0
-5021 -5068 5076 0
-5069 5076 0
-5021 -5069 5077 0
-5070 5077 0
-5021 -5070 5078 0
-5071 5078 0
-5021 -5071 0
-5022 -5078 0
5014 5086 0
-5087 0
5015 5088 0
-5086 5088 0
5015 -5086 5089 0
-5087 5089 0
5015 -5087 0
5016 5090 0
-5088 5090 0
5016 -5088 5091 0
-5089 5091 0
5016 -5089 0
5017 5092 0
-5090 5092 0
5017 -5090 5093 0
-5091 5093 0
5017 -5091 0
5018 5094 0
-5092 5094 0
5018 -5092 5095 0
-5093 5095 0
5018 -5093 0
5019 5096 0
-5094 5096 0
5019 -5094 5097 0
-5095 5097 0
5019 -5095 0
5020 5098 0
-5096 5098 0
5020 -5096 5099 0
-5097 5099 0
5020 -5097 0
5021 5100 0
-5098 5100 0
5021 -5098 5101 0
-5099 5101 0
5021 -5099 0
5022 -5101 0
-10 5104 0
-82 5105 0
-5104 5105 0
-82 -5104 0
-5014 -5105 0
10 82 5014 0
-11 5107 0
-83 5108 0
-5107 5108 0
-83 -5107 0
-5015 -5108 0
11 83 5015 0
-12 5110 0
-84 5111 0
-5110 5111 0
-84 -5110 0
-5016 -5111 0
12 84 5016 0
-13 5113 0
-85 5114 0
-5113 5114 0
-85 -5113 0
-5017 -5114 0
13 85 5017 0
-14 5116 0
-86 5117 0
-5116 5117 0
-86 -5116 0
-5018 -5117 0
14 86 5018 0
-15 5119 0
-87 5120 0
-5119 5120 0
-87 -5119 0
-5019 -5120 0
15 87 5019 0
-16 5122 0
-88 5123 0
-5122 5123 0
-88 -5122 0
-5020 -5123 0
16 88 5020 0
-17 5125 0
-89 5126 0
-5125 5126 0
-89 -5125 0
-5021 -5126 0
17 89 5021 0
-18 5128 0
-90 5129 0
-5128 5129 0
-90 -5128 0
-5022 -5129 0
18 90 5022 0
-5131 5140 0
-5141 0
-5142 0
-5143 0
-5144 0
-5145 0
-5132 5146 0
-5140 5146 0
-5132 -5140 5147 0
-5141 5147 0
-5132 -5141 5148 0
-5142 5148 0
-5132 -5142 5149 0
-5143 5149 0
-5132 -5143 5150 0
-5144 5150 0
-5132 -5144 5151 0
-5145 5151 0
-5132 -5145 0
-5133 5152 0
-5146 5152 0
-5133 -5146 5153 0
-5147 5153 0
-5133 -5147 5154 0
-5148 5154 0
-5133 -5148 5155 0
-5149 5155 0
-5133 -5149 5156 0
-5150 5156 0
-5133 -5150 5157 0
-5151 5157 0
-5133 -5151 0
-5134 5158 0
-5152 5158 0
-5134 -5152 5159 0
-5153 5159 0
-5134 -5153 5160 0
-5154 5160 0
-5134 -5154 5161 0
-5155 5161 0
-5134 -5155 5162 0
-5156 5162 0
-5134 -5156 5163 0
-5157 5163 0
-5134 -5157 0
-5135 5164 0
-5158 5164 0
-5135 -5158 5165 0
-5159 5165 0
-5135 -5159 5166 0
-5160 5166 0
-5135 -5160 5167 0
-5161 5167 0
-5135 -5161 5168 0
-5162 5168 0
-5135 -5162 5169 0
-5163 5169 0
-5135 -5163 0
-5136 5170 0
-5164 5170 0
-5136 -5164 5171 0
-5165 5171 0
-5136 -5165 5172 0
-5166 5172 0
-5136 -5166 5173 0
-5167 5173 0
-5136 -5167 5174 0
-5168 5174 0
-5136 -5168 5175 0
-5169 5175 0
-5136 -5169 0
-5137 5176 0
-5170 5176 0
-5137 -5170 5177 0
-5171 5177 0
-5137 -5171 5178 0
-5172 5178 0
-5137 -5172 5179 0
-5173 5179 0
-5137 -5173 5180 0
-5174 5180 0
-5137 -5174 5181 0
-5175 5181 0
-5137 -5175 0
-5138 5182 0
-5176 5182 0
-5138 -5176 5183 0
-5177 5183 0
-5138 -5177 5184 0
-5178 5184 0
-5138 -5178 5185 0
-5179 5185 0
-5138 -5179 5186 0
-5180 5186 0
-5138 -5180 5187 0
-5181 5187 0
-5138 -5181 0
-5139 -5187 0
5131 5194 0
-5195 0
-5196 0
5132 5197 0
-5194 5197 0
5132 -5194 5198 0
-5195 5198 0
5132 -5195 5199 0
-5196 5199 0
5132 -5196 0
5133 5200 0
-5197 5200 0
5133 -5197 5201 0
-5198 5201 0
5133 -5198 5202 0
-5199 5202 0
5133 -5199 0
5134 5203 0
-5200 5203 0
5134 -5200 5204 0
-5201 5204 0
5134 -5201 5205 0
-5202 5205 0
5134 -5202 0
5135 5206 0
-5203 5206 0
5135 -5203 5207 0
-5204 5207 0
5135 -5204 5208 0
-5205 5208 0
5135 -5205 0
5136 5209 0
-5206 5209 0
5136 -5206 5210 0
-5207 5210 0
5136 -5207 5211 0
-5208 5211 0
5136 -5208 0
5137 5212 0
-5209 5212 0
5137 -5209 5213 0
-5210 5213 0
5137 -5210 5214 0
-5211 5214 0
5137 -5211 0
5138 5215 0
-5212 5215 0
5138 -5212 5216 0
-5213 5216 0
5138 -5213 5217 0
-5214 5217 0
5138 -5214 0
5139 -5217 0
-19 5221 0
-91 5222 0
-5221 5222 0
-91 -5221 0
-163 5223 0
-5222 5223 0
-163 -5222 0
-5131 -5223 0
19 91 163 5131 0
-20 5225 0
-92 5226 0
-5225 5226 0
-92 -5225 0
-164 5227 0
-5226 5227 0
-164 -5226 0
-5132 -5227 0
20 92 164 5132 0
-21 5229 0
-93 5230 0
-5229 5230 0
-93 -5229 0
-165 5231 0
-5230 5231 0
-165 -5230 0
-5133 -5231 0
21 93 165 5133 0
-22 5233 0
-94 5234 0
-5233 5234 0
-94 -5233 0
-166 5235 0
-5234 5235 0
-166 -5234 0
-5134 -5235 0
22 94 166 5134 0
-23 5237 0
-95 5238 0
-5237 5238 0
-95 -5237 0
-167 5239 0
-5238 5239 0
-167 -5238 0
-5135 -5239 0
23 95 167 5135 0
-24 5241 0
-96 5242 0
-5241 5242 0
-96 -5241 0
-168 5243 0
-5242 5243 0
-168 -5242 0
-5136 -5243 0
24 96 168 5136 0
-25 5245 0
-97 5246 0
-5245 5246 0
-97 -5245 0
-169 5247 0
-5246 5247 0
-169 -5246 0
-5137 -5247 0
25 97 169 5137 0
-26 5249 0
-98 5250 0
-5249 5250 0
-98 -5249 0
-170 5251 0
-5250 5251 0
-170 -5250 0
-5138 -5251 0
26 98 170 5138 0
-27 5253 0
-99 5254 0
-5253 5254 0
-99 -5253 0
-171 5255 0
-5254 5255 0
-171 -5254 0
-5139 -5255 0
27 99 171 5139 0
-5257 5266 0
-5267 0
-5268 0
-5269 0
-5270 0
-5258 5271 0
-5266 5271 0
-5258 -5266 5272 0
-5267 5272 0
-5258 -5267 5273 0
-5268 5273 0
-5258 -5268 5274 0
-5269 5274 0
-5258 -5269 5275 0
-5270 5275 0
-5258 -5270 0
-5259 5276 0
-5271 5276 0
-5259 -5271 5277 0
-5272 5277 0
-5259 -5272 5278 0
-5273 5278 0
-5259 -5273 5279 0
-5274 5279 0
-5259 -5274 5280 0
-5275 5280 0
-5259 -5275 0
-5260 5281 0
-5276 5281 0
-5260 -5276 5282 0
-5277 5282 0
-5260 -5277 5283 0
-5278 5283 0
-5260 -5278 5284 0
-5279 5284 0
-5260 -5279 5285 0
-5280 5285 0
-5260 -5280 0
-5261 5286 0
-5281 5286 0
-5261 -5281 5287 0
-5282 5287 0
-5261 -5282 5288 0
-5283 5288 0
-5261 -5283 5289 0
-5284 5289 0
-5261 -5284 5290 0
-5285 5290 0
-5261 -5285 0
-5262 5291 0
-5286 5291 0
-5262 -5286 5292 0
-5287 5292 0
-5262 -5287 5293 0
-5288 5293 0
-5262 -5288 5294 0
-5289 5294 0
-5262 -5289 5295 0
-5290 5295 0
-5262 -5290 0
-5263 5296 0
-5291 5296 0
-5263 -5291 5297 0
-5292 5297 0
-5263 -5292 5298 0
-5293 5298 0
-5263 -5293 5299 0
-5294 5299 0
-5263 -5294 5300 0
-5295 5300 0
-5263 -5295 0
-5264 5301 0
-5296 5301 0
-5264 -5296 5302 0
-5297 5302 0
-5264 -5297 5303 0
-5298 5303 0
-5264 -5298 5304 0
-5299 5304 0
-5264 -5299 5305 0
-5300 5305 0
-5264 -5300 0
-5265 -5305 0
5257 5311 0
-5312 0
-5313 0
-5314 0
5258 5315 0
-5311 5315 0
5258 -5311 5316 0
-5312 5316 0
5258 -5312 5317 0
-5313 5317 0
5258 -5313 5318 0
-5314 5318 0
5258 -5314 0
5259 5319 0
-5315 5319 0
5259 -5315 5320 0
-5316 5320 0
5259 -5316 5321 0
-5317 5321 0
5259 -5317 5322 0
-5318 5322 0
5259 -5318 0
5260 5323 0
-5319 5323 0
5260 -5319 5324 0
-5320 5324 0
5260 -5320 5325 0
-5321 5325 0
5260 -5321 5326 0
-5322 5326 0
5260 -5322 0
5261 5327 0
-5323 5327 0
5261 -5323 5328 0
-5324 5328 0
5261 -5324 5329 0
-5325 5329 0
5261 -5325 5330 0
-5326 5330 0
5261 -5326 0
5262 5331 0
-5327 5331 0
5262 -5327 5332 0
-5328 5332 0
5262 -5328 5333 0
-5329 5333 0
5262 -5329 5334 0
-5330 5334 0
5262 -5330 0
5263 5335 0
-5331 5335 0
5263 -5331 5336 0
-5332 5336 0
5263 -5332 5337 0
-5333 5337 0
5263 -5333 5338 0
-5334 5338 0
5263 -5334 0
5264 5339 0
-5335 5339 0
5264 -5335 5340 0
-5336 5340 0
5264 -5336 5341 0
-5337 5341 0
5264 -5337 5342 0
-5338 5342 0
5264 -5338 0
5265 -5342 0
-28 5347 0
-100 5348 0
-5347 5348 0
-100 -5347 0
-172 5349 0
-5348 5349 0
-172 -5348 0
-244 5350 0
-5349 5350 0
-244 -5349 0
-5257 -5350 0
28 100 172 244 5257 0
-29 5352 0
-101 5353 0
-5352 5353 0
-101 -5352 0
-173 5354 0
-5353 5354 0
-173 -5353 0
-245 5355 0
-5354 5355 0
-245 -5354 0
-5258 -5355 0
29 101 173 245 5258 0
-30 5357 0
-102 5358 0
-5357 5358 0
-102 -5357 0
-174 5359 0
-5358 5359 0
-174 -5358 0
-246 5360 0
-5359 5360 0
-246 -5359 0
-5259 -5360 0
30 102 174 246 5259 0
-31 5362 0
-103 5363 0
-5362 5363 0
-103 -5362 0
-175 5364 0
-5363 5364 0
-175 -5363 0
-247 5365 0
-5364 5365 0
-247 -5364 0
-5260 -5365 0
31 103 175 247 5260 0
-32 5367 0
-104 5368 0
-5367 5368 0
-104 -5367 0
-176 5369 0
-5368 5369 0
-176 -5368 0
-248 5370 0
-5369 5370 0
-248 -5369 0
-5261 -5370 0
32 104 176 248 5261 0
-33 5372 0
-105 5373 0
-5372 5373 0
-105 -5372 0
-177 5374 0
-5373 5374 0
-177 -5373 0
-249 5375 0
-5374 5375 0
-249 -5374 0
-5262 -5375 0
33 105 177 249 5262 0
-34 5377 0
-106 5378 0
-5377 5378 0
-106 -5377 0
-178 5379 0
-5378 5379 0
-178 -5378 0
-250 5380 0
-5379 5380 0
-250 -5379 0
-5263 -5380 0
34 106 178 250 5263 0
-35 5382 0
-107 5383 0
-5382 5383 0
-107 -5382 0
-179 5384 0
-5383 5384 0
-179 -5383 0
-251 5385 0
-5384 5385 0
-251 -5384 0
-5264 -5385 0
35 107 179 251 5264 0
-36 5387 0
-108 5388 0
-5387 5388 0
-108 -5387 0
-180 5389 0
-5388 5389 0
-180 -5388 0
-252 5390 0
-5389 5390 0
-252 -5389 0
-5265 -5390 0
36 108 180 252 5265 0
-5392 5401 0
-5402 0
-5403 0
-5404 0
-5393 5405 0
-5401 5405 0
-5393 -5401 5406 0
-5402 5406 0
-5393 -5402 5407 0
-5403 5407 0
-5393 -5403 5408 0
-5404 5408 0
-5393 -5404 0
-5394 5409 0
-5405 5409 0
-5394 -5405 5410 0
-5406 5410 0
-5394 -5406 5411 0
-5407 5411 0
-5394 -5407 5412 0
-5408 5412 0
-5394 -5408 0
-5395 5413 0
-5409 5413 0
-5395 -5409 5414 0
-5410 5414 0
-5395 -5410 5415 0
-5411 5415 0
-5395 -5411 5416 0
-5412 5416 0
-5395 -5412 0
-5396 5417 0
-5413 5417 0
-5396 -5413 5418 0
-5414 5418 0
-5396 -5414 5419 0
-5415 5419 0
-5396 -5415 5420 0
-5416 5420 0
-5396 -5416 0
-5397 5421 0
-5417 5421 0
-5397 -5417 5422 0
-5418 5422 0
-5397 -5418 5423 0
-5419 5423 0
-5397 -5419 5424 0
-5420 5424 0
-5397 -5420 0
-5398 5425 0
-5421 5425 0
-5398 -5421 5426 0
-5422 5426 0
-5398 -5422 5427 0
-5423 5427 0
-5398 -5423 5428 0
-5424 5428 0
-5398 -5424 0
-5399 5429 0
-5425 5429 0
-5399 -5425 5430 0
-5426 5430 0
-5399 -5426 5431 0
-5427 5431 0
-5399 -5427 5432 0
-5428 5432 0
-5399 -5428 0
-5400 -5432 0
5392 5437 0
-5438 0
-5439 0
-5440 0
-5441 0
5393 5442 0
-5437 5442 0
5393 -5437 5443 0
-5438 5443 0
5393 -5438 5444 0
-5439 5444 0
5393 -5439 5445 0
-5440 5445 0
5393 -5440 5446 0
-5441 5446 0
5393 -5441 0
5394 5447 0
-5442 5447 0
5394 -5442 5448 0
-5443 5448 0
5394 -5443 5449 0
-5444 5449 0
5394 -5444 5450 0
-5445 5450 0
5394 -5445 5451 0
-5446 5451 0
5394 -5446 0
5395 5452 0
-5447 5452 0
5395 -5447 5453 0
-5448 5453 0
5395 -5448 5454 0
-5449 5454 0
5395 -5449 5455 0
-5450 5455 0
5395 -5450 5456 0
-5451 5456 0
5395 -5451 0
5396 5457 0
-5452 5457 0
5396 -5452 5458 0
-5453 5458 0
5396 -5453 5459 0
-5454 5459 0
5396 -5454 5460 0
-5455 5460 0
5396 -5455 5461 0
-5456 5461 0
5396 -5456 0
5397 5462 0
-5457 5462 0
5397 -5457 5463 0
-5458 5463 0
5397 -5458 5464 0
-5459 5464 0
5397 -5459 5465 0
-5460 5465 0
5397 -5460 5466 0
-5461 5466 0
5397 -5461 0
5398 5467 0
-5462 5467 0
5398 -5462 5468 0
-5463 5468 0
5398 -5463 5469 0
-5464 5469 0
5398 -5464 5470 0
-5465 5470 0
5398 -5465 5471 0
-5466 5471 0
5398 -5466 0
5399 5472 0
-5467 5472 0
5399 -5467 5473 0
-5468 5473 0
5399 -5468 5474 0
-5469 5474 0
5399 -5469 5475 0
-5470 5475 0
5399 -5470 5476 0
-5471 5476 0
5399 -5471 0
5400 -5476 0
-37 5482 0
-109 5483 0
-5482 5483 0
-109 -5482 0
-181 5484 0
-5483 5484 0
-181 -5483 0
-253 5485 0
-5484 5485 0
-253 -5484 0
-325 5486 0
-5485 5486 0
-325 -5485 0
-5392 -5486 0
37 109 181 253 325 5392 0
-38 5488 0
-110 5489 0
-5488 5489 0
-110 -5488 0
-182 5490 0
-5489 5490 0
-182 -5489 0
-254 5491 0
-5490 5491 0
-254 -5490 0
-326 5492 0
-5491 5492 0
-326 -5491 0
-5393 -5492 0
38 110 182 254 326 5393 0
-39 5494 0
-111 5495 0
-5494 5495 0
-111 -5494 0
-183 5496 0
-5495 5496 0
-183 -5495 0
-255 5497 0
-5496 5497 0
-255 -5496 0
-327 5498 0
-5497 5498 0
-327 -5497 0
-5394 -5498 0
39 111 183 255 327 5394 0
-40 5500 0
-112 5501 0
-5500 5501 0
-112 -5500 0
-184 5502 0
-5501 5502 0
-184 -5501 0
-256 5503 0
-5502 5503 0
-256 -5502 0
-328 5504 0
-5503 5504 0
-328 -5503 0
-5395 -5504 0
40 112 184 256 328 5395 0
-41 5506 0
-113 5507 0
-5506 5507 0
-113 -5506 0
-185 5508 0
-5507 5508 0
-185 -5507 0
-257 5509 0
-5508 5509 0
-257 -5508 0
-329 5510 0
-5509 5510 0
-329 -5509 0
-5396 -5510 0
41 113 185 257 329 5396 0
-42 5512 0
-114 5513 0
-5512 5513 0
-114 -5512 0
-186 5514 0
-5513 5514 0
-186 -5513 0
-258 5515 0
-5514 5515 0
-258 -5514 0
-330 5516 0
-5515 5516 0
-330 -5515 0
-5397 -5516 0
42 114 186 258 330 5397 0
-43 5518 0
-115 5519 0
-5518 5519 0
-115 -5518 0
-187 5520 0
-5519 5520 0
-187 -5519 0
-259 5521 0
-5520 5521 0
-259 -5520 0
-331 5522 0
-5521 5522 0
-331 -5521 0
-5398 -5522 0
43 115 187 259 331 5398 0
-44 5524 0
-116 5525 0
-5524 5525 0
-116 -5524 0
-188 5526 0
-5525 5526 0
-188 -5525 0
-260 5527 0
-5526 5527 0
-260 -5526 0
-332 5528 0
-5527 5528 0
-332 -5527 0
-5399 -5528 0
44 116 188 260 332 5399 0
-45 5530 0
-117 5531 0
-5530 5531 0
-117 -5530 0
-189 5532 0
-5531 5532 0
-189 -5531 0
-261 5533 0
-5532 5533 0
-261 -5532 0
-333 5534 0
-5533 5534 0
-333 -5533 0
-5400 -5534 0
45 117 189 261 333 5400 0
-5536 5545 0
-5546 0
-5547 0
-5537 5548 0
-5545 5548 0
-5537 -5545 5549 0
-5546 5549 0
-5537 -5546 5550 0
-5547 5550 0
-5537 -5547 0
-5538 5551 0
-5548 5551 0
-5538 -5548 5552 0
-5549 5552 0
-5538 -5549 5553 0
-5550 5553 0
-5538 -5550 0
-5539 5554 0
-5551 5554 0
-5539 -5551 5555 0
-5552 5555 0
-5539 -5552 5556 0
-5553 5556 0
-5539 -5553 0
-5540 5557 0
-5554 5557 0
-5540 -5554 5558 0
-5555 5558 0
-5540 -5555 5559 0
-5556 5559 0
-5540 -5556 0
-5541 5560 0
-5557 5560 0
-5541 -5557 5561 0
-5558 5561 0
-5541 -5558 5562 0
-5559 5562 0
-5541 -5559 0
-5542 5563 0
-5560 5563 0
-5542 -5560 5564 0
-5561 5564 0
-5542 -5561 5565 0
-5562 5565 0
-5542 -5562 0
-5543 5566 0
-5563 5566 0
-5543 -5563 5567 0
-5564 5567 0
-5543 -5564 5568 0
-5565 5568 0
-5543 -5565 0
-5544 -5568 0
5536 5572 0
-5573 0
-5574 0
-5575 0
-5576 0
-5577 0
5537 5578 0
-5572 5578 0
5537 -5572 5579 0
-5573 5579 0
5537 -5573 5580 0
-5574 5580 0
5537 -5574 5581 0
-5575 5581 0
5537 -5575 5582 0
-5576 5582 0
5537 -5576 5583 0
-5577 5583 0
5537 -5577 0
5538 5584 0
-5578 5584 0
5538 -5578 5585 0
-5579 5585 0
5538 -5579 5586 0
-5580 5586 0
5538 -5580 5587 0
-5581 5587 0
5538 -5581 5588 0
-5582 5588 0
5538 -5582 5589 0
-5583 5589 0
5538 -5583 0
5539 5590 0
-5584 5590 0
5539 -5584 5591 0
-5585 5591 0
5539 -5585 5592 0
-5586 5592 0
5539 -5586 5593 0
-5587 5593 0
5539 -5587 5594 0
-5588 5594 0
5539 -5588 5595 0
-5589 5595 0
5539 -5589 0
5540 5596 0
-5590 5596 0
5540 -5590 5597 0
-5591 5597 0
5540 -5591 5598 0
-5592 5598 0
5540 -5592 5599 0
-5593 5599 0
5540 -5593 5600 0
-5594 5600 0
5540 -5594 5601 0
-5595 5601 0
5540 -5595 0
5541 5602 0
-5596 5602 0
5541 -5596 5603 0
-5597 5603 0
5541 -5597 5604 0
-5598 5604 0
5541 -5598 5605 0
-5599 5605 0
5541 -5599 5606 0
-5600 5606 0
5541 -5600 5607 0
-5601 5607 0
5541 -5601 0
5542 5608 0
-5602 5608 0
5542 -5602 5609 0
-5603 5609 0
5542 -5603 5610 0
-5604 5610 0
5542 -5604 5611 0
-5605 5611 0
5542 -5605 5612 0
-5606 5612 0
5542 -5606 5613 0
-5607 5613 0
5542 -5607 0
5543 5614 0
-5608 5614 0
5543 -5608 5615 0
-5609 5615 0
5543 -5609 5616 0
-5610 5616 0
5543 -5610 5617 0
-5611 5617 0
5543 -5611 5618 0
-5612 5618 0
5543 -5612 5619 0
-5613 5619 0
5543 -5613 0
5544 -5619 0
-46 5626 0
-118 5627 0
-5626 5627 0
-118 -5626 0
-190 5628 0
-5627 5628 0
-190 -5627 0
-262 5629 0
-5628 5629 0
-262 -5628 0
-334 5630 0
-5629 5630 0
-334 -5629 0
-406 5631 0
-5630 5631 0
-406 -5630 0
-5536 -5631 0
46 118 190 262 334 406 5536 0
-47 5633 0
-119 5634 0
-5633 5634 0
-119 -5633 0
-191 5635 0
-5634 5635 0
-191 -5634 0
-263 5636 0
-5635 5636 0
-263 -5635 0
-335 5637 0
-5636 5637 0
-335 -5636 0
-407 5638 0
-5637 5638 0
-407 -5637 0
-5537 -5638 0
47 119 191 263 335 407 5537 0
-48 5640 0
-120 5641 0
-5640 5641 0
-120 -5640 0
-192 5642 0
-5641 5642 0
-192 -5641 0
-264 5643 0
-5642 5643 0
-264 -5642 0
-336 5644 0
-5643 5644 0
-336 -5643 0
-408 5645 0
-5644 5645 0
-408 -5644 0
-5538 -5645 0
48 120 192 264 336 408 5538 0
-49 5647 0
-121 5648 0
-5647 5648 0
-121 -5647 0
-193 5649 0
-5648 5649 0
-193 -5648 0
-265 5650 0
-5649 5650 0
-265 -5649 0
-337 5651 0
-5650 5651 0
-337 -5650 0
-409 5652 0
-5651 5652 0
-409 -5651 0
-5539 -5652 0
49 121 193 265 337 409 5539 0
-50 5654 0
-122 5655 0
-5654 5655 0
-122 -5654 0
-194 5656 0
-5655 5656 0
-194 -5655 0
-266 5657 0
-5656 5657 0
-266 -5656 0
-338 5658 0
-5657 5658 0
-338 -5657 0
-410 5659 0
-5658 5659 0
-410 -5658 0
-5540 -5659 0
50 122 194 266 338 410 5540 0
-51 5661 0
-123 5662 0
-5661 5662 0
-123 -5661 0
-195 5663 0
-5662 5663 0
-195 -5662 0
-267 5664 0
-5663 5664 0
-267 -5663 0
-339 5665 0
-5664 5665 0
-339 -5664 0
-411 5666 0
-5665 5666 0
-411 -5665 0
-5541 -5666 0
51 123 195 267 339 411 5541 0
-52 5668 0
-124 5669 0
-5668 5669 0
-124 -5668 0
-196 5670 0
-5669 5670 0
-196 -5669 0
-268 5671 0
-5670 5671 0
-268 -5670 0
-340 5672 0
-5671 5672 0
-340 -5671 0
-412 5673 0
-5672 5673 0
-412 -5672 0
-5542 -5673 0
52 124 196 268 340 412 5542 0
-53 5675 0
-125 5676 0
-5675 5676 0
-125 -5675 0
-197 5677 0
-5676 5677 0
-197 -5676 0
-269 5678 0
-5677 5678 0
-269 -5677 0
-341 5679 0
-5678 5679 0
-341 -5678 0
-413 5680 0
-5679 5680 0
-413 -5679 0
-5543 -5680 0
53 125 197 269 341 413 5543 0
-54 5682 0
-126 5683 0
-5682 5683 0
-126 -5682 0
-198 5684 0
-5683 5684 0
-198 -5683 0
-270 5685 0
-5684 5685 0
-270 -5684 0
-342 5686 0
-5685 5686 0
-342 -5685 0
-414 5687 0
-5686 5687 0
-414 -5686 0
-5544 -5687 0
54 126 198 270 342 414 5544 0
-5689 5698 0
-5699 0
-5690 5700 0
-5698 5700 0
-5690 -5698 5701 0
-5699 5701 0
-5690 -5699 0
-5691 5702 0
-5700 5702 0
-5691 -5700 5703 0
-5701 5703 0
-5691 -5701 0
-5692 5704 0
-5702 5704 0
-5692 -5702 5705 0
-5703 5705 0
-5692 -5703 0
-5693 5706 0
-5704 5706 0
-5693 -5704 5707 0
-5705 5707 0
-5693 -5705 0
-5694 5708 0
-5706 5708 0
-5694 -5706 5709 0
-5707 5709 0
-5694 -5707 0
-5695 5710 0
-5708 5710 0
-5695 -5708 5711 0
-5709 5711 0
-5695 -5709 0
-5696 5712 0
-5710 5712 0
-5696 -5710 5713 0
-5711 5713 0
-5696 -5711 0
-5697 -5713 0
5689 5716 0
-5717 0
-5718 0
-5719 0
-5720 0
-5721 0
-5722 0
5690 5723 0
-5716 5723 0
5690 -5716 5724 0
-5717 5724 0
5690 -5717 5725 0
-5718 5725 0
5690 -5718 5726 0
-5719 5726 0
5690 -5719 5727 0
-5720 5727 0
5690 -5720 5728 0
-5721 5728 0
5690 -5721 5729 0
-5722 5729 0
5690 -5722 0
5691 5730 0
-5723 5730 0
5691 -5723 5731 0
-5724 5731 0
5691 -5724 5732 0
-5725 5732 0
5691 -5725 5733 0
-5726 5733 0
5691 -5726 5734 0
-5727 5734 0
5691 -5727 5735 0
-5728 5735 0
5691 -5728 5736 0
-5729 5736 0
5691 -5729 0
5692 5737 0
-5730 5737 0
5692 -5730 5738 0
-5731 5738 0
5692 -5731 5739 0
-5732 5739 0
5692 -5732 5740 0
-5733 5740 0
5692 -5733 5741 0
-5734 5741 0
5692 -5734 5742 0
-5735 5742 0
5692 -5735 5743 0
-5736 5743 0
5692 -5736 0
5693 5744 0
-5737 5744 0
5693 -5737 5745 0
-5738 5745 0
5693 -5738 5746 0
-5739 5746 0
5693 -5739 5747 0
-5740 5747 0
5693 -5740 5748 0
-5741 5748 0
5693 -5741 5749 0
-5742 5749 0
5693 -5742 5750 0
-5743 5750 0
5693 -5743 0
5694 5751 0
-5744 5751 0
5694 -5744 5752 0
-5745 5752 0
5694 -5745 5753 0
-5746 5753 0
5694 -5746 5754 0
-5747 5754 0
5694 -5747 5755 0
-5748 5755 0
5694 -5748 5756 0
-5749 5756 0
5694 -5749 5757 0
-5750 5757 0
5694 -5750 0
5695 5758 0
-5751 5758 0
5695 -5751 5759 0
-5752 5759 0
5695 -5752 5760 0
-5753 5760 0
5695 -5753 5761 0
-5754 5761 0
5695 -5754 5762 0
-5755 5762 0
5695 -5755 5763 0
-5756 5763 0
5695 -5756 5764 0
-5757 5764 0
5695 -5757 0
5696 5765 0
-5758 5765 0
5696 -5758 5766 0
-5759 5766 0
5696 -5759 5767 0
-5760 5767 0
5696 -5760 5768 0
-5761 5768 0
5696 -5761 5769 0
-5762 5769 0
5696 -5762 5770 0
-5763 5770 0
5696 -5763 5771 0
-5764 5771 0
5696 -5764 0
5697 -5771 0
-55 5779 0
-127 5780 0
-5779 5780 0
-127 -5779 0
-199 5781 0
-5780 5781 0
-199 -5780 0
-271 5782 0
-5781 5782 0
-271 -5781 0
-343 5783 0
-5782 5783 0
-343 -5782 0
-415 5784 0
-5783 5784 0
-415 -5783 0
-487 5785 0
-5784 5785 0
-487 -5784 0
-5689 -5785 0
55 127 199 271 343 415 487 5689 0
-56 5787 0
-128 5788 0
-5787 5788 0
-128 -5787 0
-200 5789 0
-5788 5789 0
-200 -5788 0
-272 5790 0
-5789 5790 0
-272 -5789 0
-344 5791 0
-5790 5791 0
-344 -5790 0
-416 5792 0
-5791 5792 0
-416 -5791 0
-488 5793 0
-5792 5793 0
-488 -5792 0
-5690 -5793 0
56 128 200 272 344 416 488 5690 0
-57 5795 0
-129 5796 0
-5795 5796 0
-129 -5795 0
-201 5797 0
-5796 5797 0
-201 -5796 0
-273 5798 0
-5797 5798 0
-273 -5797 0
-345 5799 0
-5798 5799 0
-345 -5798 0
-417 5800 0
-5799 5800 0
-417 -5799 0
-489 5801 0
-5800 5801 0
-489 -5800 0
-5691 -5801 0
57 129 201 273 345 417 489 5691 0
-58 5803 0
-130 5804 0
-5803 5804 0
-130 -5803 0
-202 5805 0
-5804 5805 0
-202 -5804 0
-274 5806 0
-5805 5806 0
-274 -5805 0
-346 5807 0
-5806 5807 0
-346 -5806 0
-418 5808 0
-5807 5808 0
-418 -5807 0
-490 5809 0
-5808 5809 0
-490 -5808 0
-5692 -5809 0
58 130 202 274 346 418 490 5692 0
-59 5811 0
-131 5812 0
-5811 5812 0
-131 -5811 0
-203 5813 0
-5812 5813 0
-203 -5812 0
-275 5814 0
-5813 5814 0
-275 -5813 0
-347 5815 0
-5814 5815 0
-347 -5814 0
-419 5816 0
-5815 5816 0
-419 -5815 0
-491 5817 0
-5816 5817 0
-491 -5816 0
-5693 -5817 0
59 131 203 275 347 419 491 5693 0
-60 5819 0
-132 5820 0
-5819 5820 0
-132 -5819 0
-204 5821 0
-5820 5821 0
-204 -5820 0
-276 5822 0
-5821 5822 0
-276 -5821 0
-348 5823 0
-5822 5823 0
-348 -5822 0
-420 5824 0
-5823 5824 0
-420 -5823 0
-492 5825 0
-5824 5825 0
-492 -5824 0
-5694 -5825 0
60 132 204 276 348 420 492 5694 0
-61 5827 0
-133 5828 0
-5827 5828 0
-133 -5827 0
-205 5829 0
-5828 5829 0
-205 -5828 0
-277 5830 0
-5829 5830 0
-277 -5829 0
-349 5831 0
-5830 5831 0
-349 -5830 0
-421 5832 0
-5831 5832 0
-421 -5831 0
-493 5833 0
-5832 5833 0
-493 -5832 0
-5695 -5833 0
61 133 205 277 349 421 493 5695 0
-62 5835 0
-134 5836 0
-5835 5836 0
-134 -5835 0
-206 5837 0
-5836 5837 0
-206 -5836 0
-278 5838 0
-5837 5838 0
-278 -5837 0
-350 5839 0
-5838 5839 0
-350 -5838 0
-422 5840 0
-5839 5840 0
-422 -5839 0
-494 5841 0
-5840 5841 0
-494 -5840 0
-5696 -5841 0
62 134 206 278 350 422 494 5696 0
-63 5843 0
-135 5844 0
-5843 5844 0
-135 -5843 0
-207 5845 0
-5844 5845 0
-207 -5844 0
-279 5846 0
-5845 5846 0
-279 -5845 0
-351 5847 0
-5846 5847 0
-351 -5846 0
-423 5848 0
-5847 5848 0
-423 -5847 0
-495 5849 0
-5848 5849 0
-495 -5848 0
-5697 -5849 0
63 135 207 279 351 423 495 5697 0
-5851 5860 0
-5852 5861 0
-5860 5861 0
-5852 -5860 0
-5853 5862 0
-5861 5862 0
-5853 -5861 0
-5854 5863 0
-5862 5863 0
-5854 -5862 0
-5855 5864 0
-5863 5864 0
-5855 -5863 0
-5856 5865 0
-5864 5865 0
-5856 -5864 0
-5857 5866 0
-5865 5866 0
-5857 -5865 0
-5858 5867 0
-5866 5867 0
-5858 -5866 0
-5859 -5867 0
5851 5869 0
-5870 0
-5871 0
-5872 0
-5873 0
-5874 0
-5875 0
-5876 0
5852 5877 0
-5869 5877 0
5852 -5869 5878 0
-5870 5878 0
5852 -5870 5879 0
-5871 5879 0
5852 -5871 5880 0
-5872 5880 0
5852 -5872 5881 0
-5873 5881 0
5852 -5873 5882 0
-5874 5882 0
5852 -5874 5883 0
-5875 5883 0
5852 -5875 5884 0
-5876 5884 0
5852 -5876 0
5853 5885 0
-5877 5885 0
5853 -5877 5886 0
-5878 5886 0
5853 -5878 5887 0
-5879 5887 0
5853 -5879 5888 0
-5880 5888 0
5853 -5880 5889 0
-5881 5889 0
5853 -5881 5890 0
-5882 5890 0
5853 -5882 5891 0
-5883 5891 0
5853 -5883 5892 0
-5884 5892 0
5853 -5884 0
5854 5893 0
-5885 5893 0
5854 -5885 5894 0
-5886 5894 0
5854 -5886 5895 0
-5887 5895 0
5854 -5887 5896 0
-5888 5896 0
5854 -5888 5897 0
-5889 5897 0
5854 -5889 5898 0
-5890 5898 0
5854 -5890 5899 0
-5891 5899 0
5854 -5891 5900 0
-5892 5900 0
5854 -5892 0
5855 5901 0
-5893 5901 0
5855 -5893 5902 0
-5894 5902 0
5855 -5894 5903 0
-5895 5903 0
5855 -5895 5904 0
-5896 5904 0
5855 -5896 5905 0
-5897 5905 0
5855 -5897 5906 0
-5898 5906 0
5855 -5898 5907 0
-5899 5907 0
5855 -5899 5908 0
-5900 5908 0
5855 -5900 0
5856 5909 0
-5901 5909 0
5856 -5901 5910 0
-5902 5910 0
5856 -5902 5911 0
-5903 5911 0
5856 -5903 5912 0
-5904 5912 0
5856 -5904 5913 0
-5905 5913 0
5856 -5905 5914 0
-5906 5914 0
5856 -5906 5915 0
-5907 5915 0
5856 -5907 5916 0
-5908 5916 0
5856 -5908 0
5857 5917 0
-5909 5917 0
5857 -5909 5918 0
-5910 5918 0
5857 -5910 5919 0
-5911 5919 0
5857 -5911 5920 0
-5912 5920 0
5857 -5912 5921 0
-5913 5921 0
5857 -5913 5922 0
-5914 5922 0
5857 -5914 5923 0
-5915 5923 0
5857 -5915 5924 0
-5916 5924 0
5857 -5916 0
5858 5925 0
-5917 5925 0
5858 -5917 5926 0
-5918 5926 0
5858 -5918 5927 0
-5919 5927 0
5858 -5919 5928 0
-5920 5928 0
5858 -5920 5929 0
-5921 5929 0
5858 -5921 5930 0
-5922 5930 0
5858 -5922 5931 0
-5923 5931 0
5858 -5923 5932 0
-5924 5932 0
5858 -5924 0
5859 -5932 0
-64 5941 0
-136 5942 0
-5941 5942 0
-136 -5941 0
-208 5943 0
-5942 5943 0
-208 -5942 0
-280 5944 0
-5943 5944 0
-280 -5943 0
-352 5945 0
-5944 5945 0
-352 -5944 0
-424 5946 0
-5945 5946 0
-424 -5945 0
-496 5947 0
-5946 5947 0
-496 -5946 0
-568 5948 0
-5947 5948 0
-568 -5947 0
-5851 -5948 0
64 136 208 280 352 424 496 568 5851 0
-65 5950 0
-137 5951 0
-5950 5951 0
-137 -5950 0
-209 5952 0
-5951 5952 0
-209 -5951 0
-281 5953 0
-5952 5953 0
-281 -5952 0
-353 5954 0
-5953 5954 0
-353 -5953 0
-425 5955 0
-5954 5955 0
-425 -5954 0
-497 5956 0
-5955 5956 0
-497 -5955 0
-569 5957 0
-5956 5957 0
-569 -5956 0
-5852 -5957 0
65 137 209 281 353 425 497 569 5852 0
-66 5959 0
-138 5960 0
-5959 5960 0
-138 -5959 0
-210 5961 0
-5960 5961 0
-210 -5960 0
-282 5962 0
-5961 5962 0
-282 -5961 0
-354 5963 0
-5962 5963 0
-354 -5962 0
-426 5964 0
-5963 5964 0
-426 -5963 0
-498 5965 0
-5964 5965 0
-498 -5964 0
-570 5966 0
-5965 5966 0
-570 -5965 0
-5853 -5966 0
66 138 210 282 354 426 498 570 5853 0
-67 5968 0
-139 5969 0
-5968 5969 0
-139 -5968 0
-211 5970 0
-5969 5970 0
-211 -5969 0
-283 5971 0
-5970 5971 0
-283 -5970 0
-355 5972 0
-5971 5972 0
-355 -5971 0
-427 5973 0
-5972 5973 0
-427 -5972 0
-499 5974 0
-5973 5974 0
-499 -5973 0
-571 5975 0
-5974 5975 0
-571 -5974 0
-5854 -5975 0
67 139 211 283 355 427 499 571 5854 0
-68 5977 0
-140 5978 0
-5977 5978 0
-140 -5977 0
-212 5979 0
-5978 5979 0
-212 -5978 0
-284 5980 0
-5979 5980 0
-284 -5979 0
-356 5981 0
-5980 5981 0
-356 -5980 0
-428 5982 0
-5981 5982 0
-428 -5981 0
-500 5983 0
-5982 5983 0
-500 -5982 0
-572 5984 0
-5983 5984 0
-572 -5983 0
-5855 -5984 0
68 140 212 284 356 428 500 572 5855 0
-69 5986 0
-141 5987 0
-5986 5987 0
-141 -5986 0
-213 5988 0
-5987 5988 0
-213 -5987 0
-285 5989 0
-5988 5989 0
-285 -5988 0
-357 5990 0
-5989 5990 0
-357 -5989 0
-429 5991 0
-5990 5991 0
-429 -5990 0
-501 5992 0
-5991 5992 0
-501 -5991 0
-573 5993 0
-5992 5993 0
-573 -5992 0
-5856 -5993 0
69 141 213 285 357 429 501 573 5856 0
-70 5995 0
-142 5996 0
-5995 5996 0
-142 -5995 0
-214 5997 0
-5996 5997 0
-214 -5996 0
-286 5998 0
-5997 5998 0
-286 -5997 0
-358 5999 0
-5998 5999 0
-358 -5998 0
-430 6000 0
-5999 6000 0
-430 -5999 0
-502 6001 0
-6000 6001 0
-502 -6000 0
-574 6002 0
-6001 6002 0
-574 -6001 0
-5857 -6002 0
70 142 214 286 358 430 502 574 5857 0
-71 6004 0
-143 6005 0
-6004 6005 0
-143 -6004 0
-215 6006 0
-6005 6006 0
-215 -6005 0
-287 6007 0
-6006 6007 0
-287 -6006 0
-359 6008 0
-6007 6008 0
-359 -6007 0
-431 6009 0
-6008 6009 0
-431 -6008 0
-503 6010 0
-6009 6010 0
-503 -6009 0
-575 6011 0
-6010 6011 0
-575 -6010 0
-5858 -6011 0
71 143 215 287 359 431 503 575 5858 0
-72 6013 0
-144 6014 0
-6013 6014 0
-144 -6013 0
-216 6015 0
-6014 6015 0
-216 -6014 0
-288 6016 0
-6015 6016 0
-288 -6015 0
-360 6017 0
-6016 6017 0
-360 -6016 0
-432 6018 0
-6017 6018 0
-432 -6017 0
-504 6019 0
-6018 6019 0
-504 -6018 0
-576 6020 0
-6019 6020 0
-576 -6019 0
-5859 -6020 0
72 144 216 288 360 432 504 576 5859 0
-73 6022 0
-145 6023 0
-6022 6023 0
-145 -6022 0
-217 6024 0
-6023 6024 0
-217 -6023 0
-289 6025 0
-6024 6025 0
-289 -6024 0
-361 6026 0
-6025 6026 0
-361 -6025 0
-433 6027 0
-6026 6027 0
-433 -6026 0
-505 6028 0
-6027 6028 0
-505 -6027 0
-577 6029 0
-6028 6029 0
-577 -6028 0
-649 -6029 0
73 145 217 289 361 433 505 577 649 0
-74 6031 0
-146 6032 0
-6031 6032 0
-146 -6031 0
-218 6033 0
-6032 6033 0
-218 -6032 0
-290 6034 0
-6033 6034 0
-290 -6033 0
-362 6035 0
-6034 6035 0
-362 -6034 0
-434 6036 0
-6035 6036 0
-434 -6035 0
-506 6037 0
-6036 6037 0
-506 -6036 0
-578 6038 0
-6037 6038 0
-578 -6037 0
-650 -6038 0
74 146 218 290 362 434 506 578 650 0
-75 6040 0
-147 6041 0
-6040 6041 0
-147 -6040 0
-219 6042 0
-6041 6042 0
-219 -6041 0
-291 6043 0
-6042 6043 0
-291 -6042 0
-363 6044 0
-6043 6044 0
-363 -6043 0
-435 6045 0
-6044 6045 0
-435 -6044 0
-507 6046 0
-6045 6046 0
-507 -6045 0
-579 6047 0
-6046 6047 0
-579 -6046 0
-651 -6047 0
75 147 219 291 363 435 507 579 651 0
-76 6049 0
-148 6050 0
-6049 6050 0
-148 -6049 0
-220 6051 0
-6050 6051 0
-220 -6050 0
-292 6052 0
-6051 6052 0
-292 -6051 0
-364 6053 0
-6052 6053 0
-364 -6052 0
-436 6054 0
-6053 6054 0
-436 -6053 0
-508 6055 0
-6054 6055 0
-508 -6054 0
-580 6056 0
-6055 6056 0
-580 -6055 0
-652 -6056 0
76 148 220 292 364 436 508 580 652 0
-77 6058 0
-149 6059 0
-6058 6059 0
-149 -6058 0
-221 6060 0
-6059 6060 0
-221 -6059 0
-293 6061 0
-6060 6061 0
-293 -6060 0
-365 6062 0
-6061 6062 0
-365 -6061 0
-437 6063 0
-6062 6063 0
-437 -6062 0
-509 6064 0
-6063 6064 0
-509 -6063 0
-581 6065 0
-6064 6065 0
-581 -6064 0
-653 -6065 0
77 149 221 293 365 437 509 581 653 0
-78 6067 0
-150 6068 0
-6067 6068 0
-150 -6067 0
-222 6069 0
-6068 6069 0
-222 -6068 0
-294 6070 0
-6069 6070 0
-294 -6069 0
-366 6071 0
-6070 6071 0
-366 -6070 0
-438 6072 0
-6071 6072 0
-438 -6071 0
-510 6073 0
-6072 6073 0
-510 -6072 0
-582 6074 0
-6073 6074 0
-582 -6073 0
-654 -6074 0
78 150 222 294 366 438 510 582 654 0
-79 6076 0
-151 6077 0
-6076 6077 0
-151 -6076 0
-223 6078 0
-6077 6078 0
-223 -6077 0
-295 6079 0
-6078 6079 0
-295 -6078 0
-367 6080 0
-6079 6080 0
-367 -6079 0
-439 6081 0
-6080 6081 0
-439 -6080 0
-511 6082 0
-6081 6082 0
-511 -6081 0
-583 6083 0
-6082 6083 0
-583 -6082 0
-655 -6083 0
79 151 223 295 367 439 511 583 655 0
-80 6085 0
-152 6086 0
-6085 6086 0
-152 -6085 0
-224 6087 0
-6086 6087 0
-224 -6086 0
-296 6088 0
-6087 6088 0
-296 -6087 0
-368 6089 0
-6088 6089 0
-368 -6088 0
-440 6090 0
-6089 6090 0
-440 -6089 0
-512 6091 0
-6090 6091 0
-512 -6090 0
-584 6092 0
-6091 6092 0
-584 -6091 0
-656 -6092 0
80 152 224 296 368 440 512 584 656 0
-81 6094 0
-153 6095 0
-6094 6095 0
-153 -6094 0
-225 6096 0
-6095 6096 0
-225 -6095 0
-297 6097 0
-6096 6097 0
-297 -6096 0
-369 6098 0
-6097 6098 0
-369 -6097 0
-441 6099 0
-6098 6099 0
-441 -6098 0
-513 6100 0
-6099 6100 0
-513 -6099 0
-585 6101 0
-6100 6101 0
-585 -6100 0
-657 -6101 0
81 153 225 297 369 441 513 585 657 0
-6103 6112 0
-6104 6113 0
-6112 6113 0
-6104 -6112 0
-6105 6114 0
-6113 6114 0
-6105 -6113 0
-6106 6115 0
-6114 6115 0
-6106 -6114 0
-6107 6116 0
-6115 6116 0
-6107 -6115 0
-6108 6117 0
-6116 6117 0
-6108 -6116 0
-6109 6118 0
-6117 6118 0
-6109 -6117 0
-6110 6119 0
-6118 6119 0
-6110 -6118 0
-6111 -6119 0
6103 6121 0
-6122 0
-6123 0
-6124 0
-6125 0
-6126 0
-6127 0
-6128 0
6104 6129 0
-6121 6129 0
6104 -6121 6130 0
-6122 6130 0
6104 -6122 6131 0
-6123 6131 0
6104 -6123 6132 0
-6124 6132 0
6104 -6124 6133 0
-6125 6133 0
6104 -6125 6134 0
-6126 6134 0
6104 -6126 6135 0
-6127 6135 0
6104 -6127 6136 0
-6128 6136 0
6104 -6128 0
6105 6137 0
-6129 6137 0
6105 -6129 6138 0
-6130 6138 0
6105 -6130 6139 0
-6131 6139 0
6105 -6131 6140 0
-6132 6140 0
6105 -6132 6141 0
-6133 6141 0
6105 -6133 6142 0
-6134 6142 0
6105 -6134 6143 0
-6135 6143 0
6105 -6135 6144 0
-6136 6144 0
6105 -6136 0
6106 6145 0
-6137 6145 0
6106 -6137 6146 0
-6138 6146 0
6106 -6138 6147 0
-6139 6147 0
6106 -6139 6148 0
-6140 6148 0
6106 -6140 6149 0
-6141 6149 0
6106 -6141 6150 0
-6142 6150 0
6106 -6142 6151 0
-6143 6151 0
6106 -6143 6152 0
-6144 6152 0
6106 -6144 0
6107 6153 0
-6145 6153 0
6107 -6145 6154 0
-6146 6154 0
6107 -6146 6155 0
-6147 6155 0
6107 -6147 6156 0
-6148 6156 0
6107 -6148 6157 0
-6149 6157 0
6107 -6149 6158 0
-6150 6158 0
6107 -6150 6159 0
-6151 6159 0
6107 -6151 6160 0
-6152 6160 0
6107 -6152 0
6108 6161 0
-6153 6161 0
6108 -6153 6162 0
-6154 6162 0
6108 -6154 6163 0
-6155 6163 0
6108 -6155 6164 0
-6156 6164 0
6108 -6156 6165 0
-6157 6165 0
6108 -6157 6166 0
-6158 6166 0
6108 -6158 6167 0
-6159 6167 0
6108 -6159 6168 0
-6160 6168 0
6108 -6160 0
6109 6169 0
-6161 6169 0
6109 -6161 6170 0
-6162 6170 0
6109 -6162 6171 0
-6163 6171 0
6109 -6163 6172 0
-6164 6172 0
6109 -6164 6173 0
-6165 6173 0
6109 -6165 6174 0
-6166 6174 0
6109 -6166 6175 0
-6167 6175 0
6109 -6167 6176 0
-6168 6176 0
6109 -6168 0
6110 6177 0
-6169 6177 0
6110 -6169 6178 0
-6170 6178 0
6110 -6170 6179 0
-6171 6179 0
6110 -6171 6180 0
-6172 6180 0
6110 -6172 6181 0
-6173 6181 0
6110 -6173 6182 0
-6174 6182 0
6110 -6174 6183 0
-6175 6183 0
6110 -6175 6184 0
-6176 6184 0
6110 -6176 0
6111 -6184 0
-154 6193 0
-226 6194 0
-6193 6194 0
-226 -6193 0
-298 6195 0
-6194 6195 0
-298 -6194 0
-370 6196 0
-6195 6196 0
-370 -6195 0
-442 6197 0
-6196 6197 0
-442 -6196 0
-514 6198 0
-6197 6198 0
-514 -6197 0
-586 6199 0
-6198 6199 0
-586 -6198 0
-658 6200 0
-6199 6200 0
-658 -6199 0
-6103 -6200 0
154 226 298 370 442 514 586 658 6103 0
-155 6202 0
-227 6203 0
-6202 6203 0
-227 -6202 0
-299 6204 0
-6203 6204 0
-299 -6203 0
-371 6205 0
-6204 6205 0
-371 -6204 0
-443 6206 0
-6205 6206 0
-443 -6205 0
-515 6207 0
-6206 6207 0
-515 -6206 0
-587 6208 0
-6207 6208 0
-587 -6207 0
-659 6209 0
-6208 6209 0
-659 -6208 0
-6104 -6209 0
155 227 299 371 443 515 587 659 6104 0
-156 6211 0
-228 6212 0
-6211 6212 0
-228 -6211 0
-300 6213 0
-6212 6213 0
-300 -6212 0
-372 6214 0
-6213 6214 0
-372 -6213 0
-444 6215 0
-6214 6215 0
-444 -6214 0
-516 6216 0
-6215 6216 0
-516 -6215 0
-588 6217 0
-6216 6217 0
-588 -6216 0
-660 6218 0
-6217 6218 0
-660 -6217 0
-6105 -6218 0
156 228 300 372 444 516 588 660 6105 0
-157 6220 0
-229 6221 0
-6220 6221 0
-229 -6220 0
-301 6222 0
-6221 6222 0
-301 -6221 0
-373 6223 0
-6222 6223 0
-373 -6222 0
-445 6224 0
-6223 6224 0
-445 -6223 0
-517 6225 0
-6224 6225 0
-517 -6224 0
-589 6226 0
-6225 6226 0
-589 -6225 0
-661 6227 0
-6226 6227 0
-661 -6226 0
-6106 -6227 0
157 229 301 373 445 517 589 661 6106 0
-158 6229 0
-230 6230 0
-6229 6230 0
-230 -6229 0
-302 6231 0
-6230 6231 0
-302 -6230 0
-374 6232 0
-6231 6232 0
-374 -6231 0
-446 6233 0
-6232 6233 0
-446 -6232 0
-518 6234 0
-6233 6234 0
-518 -6233 0
-590 6235 0
-6234 6235 0
-590 -6234 0
-662 6236 0
-6235 6236 0
-662 -6235 0
-6107 -6236 0
158 230 302 374 446 518 590 662 6107 0
-159 6238 0
-231 6239 0
-6238 6239 0
-231 -6238 0
-303 6240 0
-6239 6240 0
-303 -6239 0
-375 6241 0
-6240 6241 0
-375 -6240 0
-447 6242 0
-6241 6242 0
-447 -6241 0
-519 6243 0
-6242 6243 0
-519 -6242 0
-591 6244 0
-6243 6244 0
-591 -6243 0
-663 6245 0
-6244 6245 0
-663 -6244 0
-6108 -6245 0
159 231 303 375 447 519 591 663 6108 0
-160 6247 0
-232 6248 0
-6247 6248 0
-232 -6247 0
-304 6249 0
-6248 6249 0
-304 -6248 0
-376 6250 0
-6249 6250 0
-376 -6249 0
-448 6251 0
-6250 6251 0
-448 -6250 0
-520 6252 0
-6251 6252 0
-520 -6251 0
-592 6253 0
-6252 6253 0
-592 -6252 0
-664 6254 0
-6253 6254 0
-664 -6253 0
-6109 -6254 0
160 232 304 376 448 520 592 664 6109 0
-161 6256 0
-233 6257 0
-6256 6257 0
-233 -6256 0
-305 6258 0
-6257 6258 0
-305 -6257 0
-377 6259 0
-6258 6259 0
-377 -6258 0
-449 6260 0
-6259 6260 0
-449 -6259 0
-521 6261 0
-6260 6261 0
-521 -6260 0
-593 6262 0
-6261 6262 0
-593 -6261 0
-665 6263 0
-6262 6263 0
-665 -6262 0
-6110 -6263 0
161 233 305 377 449 521 593 665 6110 0
-162 6265 0
-234 6266 0
-6265 6266 0
-234 -6265 0
-306 6267 0
-6266 6267 0
-306 -6266 0
-378 6268 0
-6267 6268 0
-378 -6267 0
-450 6269 0
-6268 6269 0
-450 -6268 0
-522 6270 0
-6269 6270 0
-522 -6269 0
-594 6271 0
-6270 6271 0
-594 -6270 0
-666 6272 0
-6271 6272 0
-666 -6271 0
-6111 -6272 0
162 234 306 378 450 522 594 666 6111 0
-6274 6283 0
-6284 0
-6275 6285 0
-6283 6285 0
-6275 -6283 6286 0
-6284 6286 0
-6275 -6284 0
-6276 6287 0
-6285 6287 0
-6276 -6285 6288 0
-6286 6288 0
-6276 -6286 0
-6277 6289 0
-6287 6289 0
-6277 -6287 6290 0
-6288 6290 0
-6277 -6288 0
-6278 6291 0
-6289 6291 0
-6278 -6289 6292 0
-6290 6292 0
-6278 -6290 0
-6279 6293 0
-6291 6293 0
-6279 -6291 6294 0
-6292 6294 0
-6279 -6292 0
-6280 6295 0
-6293 6295 0
-6280 -6293 6296 0
-6294 6296 0
-6280 -6294 0
-6281 6297 0
-6295 6297 0
-6281 -6295 6298 0
-6296 6298 0
-6281 -6296 0
-6282 -6298 0
6274 6301 0
-6302 0
-6303 0
-6304 0
-6305 0
-6306 0
-6307 0
6275 6308 0
-6301 6308 0
6275 -6301 6309 0
-6302 6309 0
6275 -6302 6310 0
-6303 6310 0
6275 -6303 6311 0
-6304 6311 0
6275 -6304 6312 0
-6305 6312 0
6275 -6305 6313 0
-6306 6313 0
6275 -6306 6314 0
-6307 6314 0
6275 -6307 0
6276 6315 0
-6308 6315 0
6276 -6308 6316 0
-6309 6316 0
6276 -6309 6317 0
-6310 6317 0
6276 -6310 6318 0
-6311 6318 0
6276 -6311 6319 0
-6312 6319 0
6276 -6312 6320 0
-6313 6320 0
6276 -6313 6321 0
-6314 6321 0
6276 -6314 0
6277 6322 0
-6315 6322 0
6277 -6315 6323 0
-6316 6323 0
6277 -6316 6324 0
-6317 6324 0
6277 -6317 6325 0
-6318 6325 0
6277 -6318 6326 0
-6319 6326 0
6277 -6319 6327 0
-6320 6327 0
6277 -6320 6328 0
-6321 6328 0
6277 -6321 0
6278 6329 0
-6322 6329 0
6278 -6322 6330 0
-6323 6330 0
6278 -6323 6331 0
-6324 6331 0
6278 -6324 6332 0
-6325 6332 0
6278 -6325 6333 0
-6326 6333 0
6278 -6326 6334 0
-6327 6334 0
6278 -6327 6335 0
-6328 6335 0
6278 -6328 0
6279 6336 0
-6329 6336 0
6279 -6329 6337 0
-6330 6337 0
6279 -6330 6338 0
-6331 6338 0
6279 -6331 6339 0
-6332 6339 0
6279 -6332 6340 0
-6333 6340 0
6279 -6333 6341 0
-6334 6341 0
6279 -6334 6342 0
-6335 6342 0
6279 -6335 0
6280 6343 0
-6336 6343 0
6280 -6336 6344 0
-6337 6344 0
6280 -6337 6345 0
-6338 6345 0
6280 -6338 6346 0
-6339 6346 0
6280 -6339 6347 0
-6340 6347 0
6280 -6340 6348 0
-6341 6348 0
6280 -6341 6349 0
-6342 6349 0
6280 -6342 0
6281 6350 0
-6343 6350 0
6281 -6343 6351 0
-6344 6351 0
6281 -6344 6352 0
-6345 6352 0
6281 -6345 6353 0
-6346 6353 0
6281 -6346 6354 0
-6347 6354 0
6281 -6347 6355 0
-6348 6355 0
6281 -6348 6356 0
-6349 6356 0
6281 -6349 0
6282 -6356 0
-235 6364 0
-307 6365 0
-6364 6365 0
-307 -6364 0
-379 6366 0
-6365 6366 0
-379 -6365 0
-451 6367 0
-6366 6367 0
-451 -6366 0
-523 6368 0
-6367 6368 0
-523 -6367 0
-595 6369 0
-6368 6369 0
-595 -6368 0
-667 6370 0
-6369 6370 0
-667 -6369 0
-6274 -6370 0
235 307 379 451 523 595 667 6274 0
-236 6372 0
-308 6373 0
-6372 6373 0
-308 -6372 0
-380 6374 0
-6373 6374 0
-380 -6373 0
-452 6375 0
-6374 6375 0
-452 -6374 0
-524 6376 0
-6375 6376 0
-524 -6375 0
-596 6377 0
-6376 6377 0
-596 -6376 0
-668 6378 0
-6377 6378 0
-668 -6377 0
-6275 -6378 0
236 308 380 452 524 596 668 6275 0
-237 6380 0
-309 6381 0
-6380 6381 0
-309 -6380 0
-381 6382 0
-6381 6382 0
-381 -6381 0
-453 6383 0
-6382 6383 0
-453 -6382 0
-525 6384 0
-6383 6384 0
-525 -6383 0
-597 6385 0
-6384 6385 0
-597 -6384 0
-669 6386 0
-6385 6386 0
-669 -6385 0
-6276 -6386 0
237 309 381 453 525 597 669 6276 0
-238 6388 0
-310 6389 0
-6388 6389 0
-310 -6388 0
-382 6390 0
-6389 6390 0
-382 -6389 0
-454 6391 0
-6390 6391 0
-454 -6390 0
-526 6392 0
-6391 6392 0
-526 -6391 0
-598 6393 0
-6392 6393 0
-598 -6392 0
-670 6394 0
-6393 6394 0
-670 -6393 0
-6277 -6394 0
238 310 382 454 526 598 670 6277 0
-239 6396 0
-311 6397 0
-6396 6397 0
-311 -6396 0
-383 6398 0
-6397 6398 0
-383 -6397 0
-455 6399 0
-6398 6399 0
-455 -6398 0
-527 6400 0
-6399 6400 0
-527 -6399 0
-599 6401 0
-6400 6401 0
-599 -6400 0
-671 6402 0
-6401 6402 0
-671 -6401 0
-6278 -6402 0
239 311 383 455 527 599 671 6278 0
-240 6404 0
-312 6405 0
-6404 6405 0
-312 -6404 0
-384 6406 0
-6405 6406 0
-384 -6405 0
-456 6407 0
-6406 6407 0
-456 -6406 0
-528 6408 0
-6407 6408 0
-528 -6407 0
-600 6409 0
-6408 6409 0
-600 -6408 0
-672 6410 0
-6409 6410 0
-672 -6409 0
-6279 -6410 0
240 312 384 456 528 600 672 6279 0
-241 6412 0
-313 6413 0
-6412 6413 0
-313 -6412 0
-385 6414 0
-6413 6414 0
-385 -6413 0
-457 6415 0
-6414 6415 0
-457 -6414 0
-529 6416 0
-6415 6416 0
-529 -6415 0
-601 6417 0
-6416 6417 0
-601 -6416 0
-673 6418 0
-6417 6418 0
-673 -6417 0
-6280 -6418 0
241 313 385 457 529 601 673 6280 0
-242 6420 0
-314 6421 0
-6420 6421 0
-314 -6420 0
-386 6422 0
-6421 6422 0
-386 -6421 0
-458 6423 0
-6422 6423 0
-458 -6422 0
-530 6424 0
-6423 6424 0
-530 -6423 0
-602 6425 0
-6424 6425 0
-602 -6424 0
-674 6426 0
-6425 6426 0
-674 -6425 0
-6281 -6426 0
242 314 386 458 530 602 674 6281 0
-243 6428 0
-315 6429 0
-6428 6429 0
-315 -6428 0
-387 6430 0
-6429 6430 0
-387 -6429 0
-459 6431 0
-6430 6431 0
-459 -6430 0
-531 6432 0
-6431 6432 0
-531 -6431 0
-603 6433 0
-6432 6433 0
-603 -6432 0
-675 6434 0
-6433 6434 0
-675 -6433 0
-6282 -6434 0
243 315 387 459 531 603 675 6282 0
-6436 6445 0
-6446 0
-6447 0
-6437 6448 0
-6445 6448 0
-6437 -6445 6449 0
-6446 6449 0
-6437 -6446 6450 0
-6447 6450 0
-6437 -6447 0
-6438 6451 0
-6448 6451 0
-6438 -6448 6452 0
-6449 6452 0
-6438 -6449 6453 0
-6450 6453 0
-6438 -6450 0
-6439 6454 0
-6451 6454 0
-6439 -6451 6455 0
-6452 6455 0
-6439 -6452 6456 0
-6453 6456 0
-6439 -6453 0
-6440 6457 0
-6454 6457 0
-6440 -6454 6458 0
-6455 6458 0
-6440 -6455 6459 0
-6456 6459 0
-6440 -6456 0
-6441 6460 0
-6457 6460 0
-6441 -6457 6461 0
-6458 6461 0
-6441 -6458 6462 0
-6459 6462 0
-6441 -6459 0
-6442 6463 0
-6460 6463 0
-6442 -6460 6464 0
-6461 6464 0
-6442 -6461 6465 0
-6462 6465 0
-6442 -6462 0
-6443 6466 0
-6463 6466 0
-6443 -6463 6467 0
-6464 6467 0
-6443 -6464 6468 0
-6465 6468 0
-6443 -6465 0
-6444 -6468 0
6436 6472 0
-6473 0
-6474 0
-6475 0
-6476 0
-6477 0
6437 6478 0
-6472 6478 0
6437 -6472 6479 0
-6473 6479 0
6437 -6473 6480 0
-6474 6480 0
6437 -6474 6481 0
-6475 6481 0
6437 -6475 6482 0
-6476 6482 0
6437 -6476 6483 0
-6477 6483 0
6437 -6477 0
6438 6484 0
-6478 6484 0
6438 -6478 6485 0
-6479 6485 0
6438 -6479 6486 0
-6480 6486 0
6438 -6480 6487 0
-6481 6487 0
6438 -6481 6488 0
-6482 6488 0
6438 -6482 6489 0
-6483 6489 0
6438 -6483 0
6439 6490 0
-6484 6490 0
6439 -6484 6491 0
-6485 6491 0
6439 -6485 6492 0
-6486 6492 0
6439 -6486 6493 0
-6487 6493 0
6439 -6487 6494 0
-6488 6494 0
6439 -6488 6495 0
-6489 6495 0
6439 -6489 0
6440 6496 0
-6490 6496 0
6440 -6490 6497 0
-6491 6497 0
6440 -6491 6498 0
-6492 6498 0
6440 -6492 6499 0
-6493 6499 0
6440 -6493 6500 0
-6494 6500 0
6440 -6494 6501 0
-6495 6501 0
6440 -6495 0
6441 6502 0
-6496 6502 0
6441 -6496 6503 0
-6497 6503 0
6441 -6497 6504 0
-6498 6504 0
6441 -6498 6505 0
-6499 6505 0
6441 -6499 6506 0
-6500 6506 0
6441 -6500 6507 0
-6501 6507 0
6441 -6501 0
6442 6508 0
-6502 6508 0
6442 -6502 6509 0
-6503 6509 0
6442 -6503 6510 0
-6504 6510 0
6442 -6504 6511 0
-6505 6511 0
6442 -6505 6512 0
-6506 6512 0
6442 -6506 6513 0
-6507 6513 0
6442 -6507 0
6443 6514 0
-6508 6514 0
6443 -6508 6515 0
-6509 6515 0
6443 -6509 6516 0
-6510 6516 0
6443 -6510 6517 0
-6511 6517 0
6443 -6511 6518 0
-6512 6518 0
6443 -6512 6519 0
-6513 6519 0
6443 -6513 0
6444 -6519 0
-316 6526 0
-388 6527 0
-6526 6527 0
-388 -6526 0
-460 6528 0
-6527 6528 0
-460 -6527 0
-532 6529 0
-6528 6529 0
-532 -6528 0
-604 6530 0
-6529 6530 0
-604 -6529 0
-676 6531 0
-6530 6531 0
-676 -6530 0
-6436 -6531 0
316 388 460 532 604 676 6436 0
-317 6533 0
-389 6534 0
-6533 6534 0
-389 -6533 0
-461 6535 0
-6534 6535 0
-461 -6534 0
-533 6536 0
-6535 6536 0
-533 -6535 0
-605 6537 0
-6536 6537 0
-605 -6536 0
-677 6538 0
-6537 6538 0
-677 -6537 0
-6437 -6538 0
317 389 461 533 605 677 6437 0
-318 6540 0
-390 6541 0
-6540 6541 0
-390 -6540 0
-462 6542 0
-6541 6542 0
-462 -6541 0
-534 6543 0
-6542 6543 0
-534 -6542 0
-606 6544 0
-6543 6544 0
-606 -6543 0
-678 6545 0
-6544 6545 0
-678 -6544 0
-6438 -6545 0
318 390 462 534 606 678 6438 0
-319 6547 0
-391 6548 0
-6547 6548 0
-391 -6547 0
-463 6549 0
-6548 6549 0
-463 -6548 0
-535 6550 0
-6549 6550 0
-535 -6549 0
-607 6551 0
-6550 6551 0
-607 -6550 0
-679 6552 0
-6551 6552 0
-679 -6551 0
-6439 -6552 0
319 391 463 535 607 679 6439 0
-320 6554 0
-392 6555 0
-6554 6555 0
-392 -6554 0
-464 6556 0
-6555 6556 0
-464 -6555 0
-536 6557 0
-6556 6557 0
-536 -6556 0
-608 6558 0
-6557 6558 0
-608 -6557 0
-680 6559 0
-6558 6559 0
-680 -6558 0
-6440 -6559 0
320 392 464 536 608 680 6440 0
-321 6561 0
-393 6562 0
-6561 6562 0
-393 -6561 0
-465 6563 0
-6562 6563 0
-465 -6562 0
-537 6564 0
-6563 6564 0
-537 -6563 0
-609 6565 0
-6564 6565 0
-609 -6564 0
-681 6566 0
-6565 6566 0
-681 -6565 0
-6441 -6566 0
321 393 465 537 609 681 6441 0
-322 6568 0
-394 6569 0
-6568 6569 0
-394 -6568 0
-466 6570 0
-6569 6570 0
-466 -6569 0
-538 6571 0
-6570 6571 0
-538 -6570 0
-610 6572 0
-6571 6572 0
-610 -6571 0
-682 6573 0
-6572 6573 0
-682 -6572 0
-6442 -6573 0
322 394 466 538 610 682 6442 0
-323 6575 0
-395 6576 0
-6575 6576 0
-395 -6575 0
-467 6577 0
-6576 6577 0
-467 -6576 0
-539 6578 0
-6577 6578 0
-539 -6577 0
-611 6579 0
-6578 6579 0
-611 -6578 0
-683 6580 0
-6579 6580 0
-683 -6579 0
-6443 -6580 0
323 395 467 539 611 683 6443 0
-324 6582 0
-396 6583 0
-6582 6583 0
-396 -6582 0
-468 6584 0
-6583 6584 0
-468 -6583 0
-540 6585 0
-6584 6585 0
-540 -6584 0
-612 6586 0
-6585 6586 0
-612 -6585 0
-684 6587 0
-6586 6587 0
-684 -6586 0
-6444 -6587 0
324 396 468 540 612 684 6444 0
-6589 6598 0
-6599 0
-6600 0
-6601 0
-6590 6602 0
-6598 6602 0
-6590 -6598 6603 0
-6599 6603 0
-6590 -6599 6604 0
-6600 6604 0
-6590 -6600 6605 0
-6601 6605 0
-6590 -6601 0
-6591 6606 0
-6602 6606 0
-6591 -6602 6607 0
-6603 6607 0
-6591 -6603 6608 0
-6604 6608 0
-6591 -6604 6609 0
-6605 6609 0
-6591 -6605 0
-6592 6610 0
-6606 6610 0
-6592 -6606 6611 0
-6607 6611 0
-6592 -6607 6612 0
-6608 6612 0
-6592 -6608 6613 0
-6609 6613 0
-6592 -6609 0
-6593 6614 0
-6610 6614 0
-6593 -6610 6615 0
-6611 6615 0
-6593 -6611 6616 0
-6612 6616 0
-6593 -6612 6617 0
-6613 6617 0
-6593 -6613 0
-6594 6618 0
-6614 6618 0
-6594 -6614 6619 0
-6615 6619 0
-6594 -6615 6620 0
-6616 6620 0
-6594 -6616 6621 0
-6617 6621 0
-6594 -6617 0
-6595 6622 0
-6618 6622 0
-6595 -6618 6623 0
-6619 6623 0
-6595 -6619 6624 0
-6620 6624 0
-6595 -6620 6625 0
-6621 6625 0
-6595 -6621 0
-6596 6626 0
-6622 6626 0
-6596 -6622 6627 0
-6623 6627 0
-6596 -6623 6628 0
-6624 6628 0
-6596 -6624 6629 0
-6625 6629 0
-6596 -6625 0
-6597 -6629 0
6589 6634 0
-6635 0
-6636 0
-6637 0
-6638 0
6590 6639 0
-6634 6639 0
6590 -6634 6640 0
-6635 6640 0
6590 -6635 6641 0
-6636 6641 0
6590 -6636 6642 0
-6637 6642 0
6590 -6637 6643 0
-6638 6643 0
6590 -6638 0
6591 6644 0
-6639 6644 0
6591 -6639 6645 0
-6640 6645 0
6591 -6640 6646 0
-6641 6646 0
6591 -6641 6647 0
-6642 6647 0
6591 -6642 6648 0
-6643 6648 0
6591 -6643 0
6592 6649 0
-6644 6649 0
6592 -6644 6650 0
-6645 6650 0
6592 -6645 6651 0
-6646 6651 0
6592 -6646 6652 0
-6647 6652 0
6592 -6647 6653 0
-6648 6653 0
6592 -6648 0
6593 6654 0
-6649 6654 0
6593 -6649 6655 0
-6650 6655 0
6593 -6650 6656 0
-6651 6656 0
6593 -6651 6657 0
-6652 6657 0
6593 -6652 6658 0
-6653 6658 0
6593 -6653 0
6594 6659 0
-6654 6659 0
6594 -6654 6660 0
-6655 6660 0
6594 -6655 6661 0
-6656 6661 0
6594 -6656 6662 0
-6657 6662 0
6594 -6657 6663 0
-6658 6663 0
6594 -6658 0
6595 6664 0
-6659 6664 0
6595 -6659 6665 0
-6660 6665 0
6595 -6660 6666 0
-6661 6666 0
6595 -6661 6667 0
-6662 6667 0
6595 -6662 6668 0
-6663 6668 0
6595 -6663 0
6596 6669 0
-6664 6669 0
6596 -6664 6670 0
-6665 6670 0
6596 -6665 6671 0
-6666 6671 0
6596 -6666 6672 0
-6667 6672 0
6596 -6667 6673 0
-6668 6673 0
6596 -6668 0
6597 -6673 0
-397 6679 0
-469 6680 0
-6679 6680 0
-469 -6679 0
-541 6681 0
-6680 6681 0
-541 -6680 0
-613 6682 0
-6681 6682 0
-613 -6681 0
-685 6683 0
-6682 6683 0
-685 -6682 0
-6589 -6683 0
397 469 541 613 685 6589 0
-398 6685 0
-470 6686 0
-6685 6686 0
-470 -6685 0
-542 6687 0
-6686 6687 0
-542 -6686 0
-614 6688 0
-6687 6688 0
-614 -6687 0
-686 6689 0
-6688 6689 0
-686 -6688 0
-6590 -6689 0
398 470 542 614 686 6590 0
-399 6691 0
-471 6692 0
-6691 6692 0
-471 -6691 0
-543 6693 0
-6692 6693 0
-543 -6692 0
-615 6694 0
-6693 6694 0
-615 -6693 0
-687 6695 0
-6694 6695 0
-687 -6694 0
-6591 -6695 0
399 471 543 615 687 6591 0
-400 6697 0
-472 6698 0
-6697 6698 0
-472 -6697 0
-544 6699 0
-6698 6699 0
-544 -6698 0
-616 6700 0
-6699 6700 0
-616 -6699 0
-688 6701 0
-6700 6701 0
-688 -6700 0
-6592 -6701 0
400 472 544 616 688 6592 0
-401 6703 0
-473 6704 0
-6703 6704 0
-473 -6703 0
-545 6705 0
-6704 6705 0
-545 -6704 0
-617 6706 0
-6705 6706 0
-617 -6705 0
-689 6707 0
-6706 6707 0
-689 -6706 0
-6593 -6707 0
401 473 545 617 689 6593 0
-402 6709 0
-474 6710 0
-6709 6710 0
-474 -6709 0
-546 6711 0
-6710 6711 0
-546 -6710 0
-618 6712 0
-6711 6712 0
-618 -6711 0
-690 6713 0
-6712 6713 0
-690 -6712 0
-6594 -6713 0
402 474 546 618 690 6594 0
-403 6715 0
-475 6716 0
-6715 6716 0
-475 -6715 0
-547 6717 0
-6716 6717 0
-547 -6716 0
-619 6718 0
-6717 6718 0
-619 -6717 0
-691 6719 0
-6718 6719 0
-691 -6718 0
-6595 -6719 0
403 475 547 619 691 6595 0
-404 6721 0
-476 6722 0
-6721 6722 0
-476 -6721 0
-548 6723 0
-6722 6723 0
-548 -6722 0
-620 6724 0
-6723 6724 0
-620 -6723 0
-692 6725 0
-6724 6725 0
-692 -6724 0
-6596 -6725 0
404 476 548 620 692 6596 0
-405 6727 0
-477 6728 0
-6727 6728 0
-477 -6727 0
-549 6729 0
-6728 6729 0
-549 -6728 0
-621 6730 0
-6729 6730 0
-621 -6729 0
-693 6731 0
-6730 6731 0
-693 -6730 0
-6597 -6731 0
405 477 549 621 693 6597 0
-6733 6742 0
-6743 0
-6744 0
-6745 0
-6746 0
-6734 6747 0
-6742 6747 0
-6734 -6742 6748 0
-6743 6748 0
-6734 -6743 6749 0
-6744 6749 0
-6734 -6744 6750 0
-6745 6750 0
-6734 -6745 6751 0
-6746 6751 0
-6734 -6746 0
-6735 6752 0
-6747 6752 0
-6735 -6747 6753 0
-6748 6753 0
-6735 -6748 6754 0
-6749 6754 0
-6735 -6749 6755 0
-6750 6755 0
-6735 -6750 6756 0
-6751 6756 0
-6735 -6751 0
-6736 6757 0
-6752 6757 0
-6736 -6752 6758 0
-6753 6758 0
-6736 -6753 6759 0
-6754 6759 0
-6736 -6754 6760 0
-6755 6760 0
-6736 -6755 6761 0
-6756 6761 0
-6736 -6756 0
-6737 6762 0
-6757 6762 0
-6737 -6757 6763 0
-6758 6763 0
-6737 -6758 6764 0
-6759 6764 0
-6737 -6759 6765 0
-6760 6765 0
-6737 -6760 6766 0
-6761 6766 0
-6737 -6761 0
-6738 6767 0
-6762 6767 0
-6738 -6762 6768 0
-6763 6768 0
-6738 -6763 6769 0
-6764 6769 0
-6738 -6764 6770 0
-6765 6770 0
-6738 -6765 6771 0
-6766 6771 0
-6738 -6766 0
-6739 6772 0
-6767 6772 0
-6739 -6767 6773 0
-6768 6773 0
-6739 -6768 6774 0
-6769 6774 0
-6739 -6769 6775 0
-6770 6775 0
-6739 -6770 6776 0
-6771 6776 0
-6739 -6771 0
-6740 6777 0
-6772 6777 0
-6740 -6772 6778 0
-6773 6778 0
-6740 -6773 6779 0
-6774 6779 0
-6740 -6774 6780 0
-6775 6780 0
-6740 -6775 6781 0
-6776 6781 0
-6740 -6776 0
-6741 -6781 0
6733 6787 0
-6788 0
-6789 0
-6790 0
6734 6791 0
-6787 6791 0
6734 -6787 6792 0
-6788 6792 0
6734 -6788 6793 0
-6789 6793 0
6734 -6789 6794 0
-6790 6794 0
6734 -6790 0
6735 6795 0
-6791 6795 0
6735 -6791 6796 0
-6792 6796 0
6735 -6792 6797 0
-6793 6797 0
6735 -6793 6798 0
-6794 6798 0
6735 -6794 0
6736 6799 0
-6795 6799 0
6736 -6795 6800 0
-6796 6800 0
6736 -6796 6801 0
-6797 6801 0
6736 -6797 6802 0
-6798 6802 0
6736 -6798 0
6737 6803 0
-6799 6803 0
6737 -6799 6804 0
-6800 6804 0
6737 -6800 6805 0
-6801 6805 0
6737 -6801 6806 0
-6802 6806 0
6737 -6802 0
6738 6807 0
-6803 6807 0
6738 -6803 6808 0
-6804 6808 0
6738 -6804 6809 0
-6805 6809 0
6738 -6805 6810 0
-6806 6810 0
6738 -6806 0
6739 6811 0
-6807 6811 0
6739 -6807 6812 0
-6808 6812 0
6739 -6808 6813 0
-6809 6813 0
6739 -6809 6814 0
-6810 6814 0
6739 -6810 0
6740 6815 0
-6811 6815 0
6740 -6811 6816 0
-6812 6816 0
6740 -6812 6817 0
-6813 6817 0
6740 -6813 6818 0
-6814 6818 0
6740 -6814 0
6741 -6818 0
-478 6823 0
-550 6824 0
-6823 6824 0
-550 -6823 0
-622 6825 0
-6824 6825 0
-622 -6824 0
-694 6826 0
-6825 6826 0
-694 -6825 0
-6733 -6826 0
478 550 622 694 6733 0
-479 6828 0
-551 6829 0
-6828 6829 0
-551 -6828 0
-623 6830 0
-6829 6830 0
-623 -6829 0
-695 6831 0
-6830 6831 0
-695 -6830 0
-6734 -6831 0
479 551 623 695 6734 0
-480 6833 0
-552 6834 0
-6833 6834 0
-552 -6833 0
-624 6835 0
-6834 6835 0
-624 -6834 0
-696 6836 0
-6835 6836 0
-696 -6835 0
-6735 -6836 0
480 552 624 696 6735 0
-481 6838 0
-553 6839 0
-6838 6839 0
-553 -6838 0
-625 6840 0
-6839 6840 0
-625 -6839 0
-697 6841 0
-6840 6841 0
-697 -6840 0
-6736 -6841 0
481 553 625 697 6736 0
-482 6843 0
-554 6844 0
-6843 6844 0
-554 -6843 0
-626 6845 0
-6844 6845 0
-626 -6844 0
-698 6846 0
-6845 6846 0
-698 -6845 0
-6737 -6846 0
482 554 626 698 6737 0
-483 6848 0
-555 6849 0
-6848 6849 0
-555 -6848 0
-627 6850 0
-6849 6850 0
-627 -6849 0
-699 6851 0
-6850 6851 0
-699 -6850 0
-6738 -6851 0
483 555 627 699 6738 0
-484 6853 0
-556 6854 0
-6853 6854 0
-556 -6853 0
-628 6855 0
-6854 6855 0
-628 -6854 0
-700 6856 0
-6855 6856 0
-700 -6855 0
-6739 -6856 0
484 556 628 700 6739 0
-485 6858 0
-557 6859 0
-6858 6859 0
-557 -6858 0
-629 6860 0
-6859 6860 0
-629 -6859 0
-701 6861 0
-6860 6861 0
-701 -6860 0
-6740 -6861 0
485 557 629 701 6740 0
-486 6863 0
-558 6864 0
-6863 6864 0
-558 -6863 0
-630 6865 0
-6864 6865 0
-630 -6864 0
-702 6866 0
-6865 6866 0
-702 -6865 0
-6741 -6866 0
486 558 630 702 6741 0
-6868 6877 0
-6878 0
-6879 0
-6880 0
-6881 0
-6882 0
-6869 6883 0
-6877 6883 0
-6869 -6877 6884 0
-6878 6884 0
-6869 -6878 6885 0
-6879 6885 0
-6869 -6879 6886 0
-6880 6886 0
-6869 -6880 6887 0
-6881 6887 0
-6869 -6881 6888 0
-6882 6888 0
-6869 -6882 0
-6870 6889 0
-6883 6889 0
-6870 -6883 6890 0
-6884 6890 0
-6870 -6884 6891 0
-6885 6891 0
-6870 -6885 6892 0
-6886 6892 0
-6870 -6886 6893 0
-6887 6893 0
-6870 -6887 6894 0
-6888 6894 0
-6870 -6888 0
-6871 6895 0
-6889 6895 0
-6871 -6889 6896 0
-6890 6896 0
-6871 -6890 6897 0
-6891 6897 0
-6871 -6891 6898 0
-6892 6898 0
-6871 -6892 6899 0
-6893 6899 0
-6871 -6893 6900 0
-6894 6900 0
-6871 -6894 0
-6872 6901 0
-6895 6901 0
-6872 -6895 6902 0
-6896 6902 0
-6872 -6896 6903 0
-6897 6903 0
-6872 -6897 6904 0
-6898 6904 0
-6872 -6898 6905 0
-6899 6905 0
-6872 -6899 6906 0
-6900 6906 0
-6872 -6900 0
-6873 6907 0
-6901 6907 0
-6873 -6901 6908 0
-6902 6908 0
-6873 -6902 6909 0
-6903 6909 0
-6873 -6903 6910 0
-6904 6910 0
-6873 -6904 6911 0
-6905 6911 0
-6873 -6905 6912 0
-6906 6912 0
-6873 -6906 0
-6874 6913 0
-6907 6913 0
-6874 -6907 6914 0
-6908 6914 0
-6874 -6908 6915 0
-6909 6915 0
-6874 -6909 6916 0
-6910 6916 0
-6874 -6910 6917 0
-6911 6917 0
-6874 -6911 6918 0
-6912 6918 0
-6874 -6912 0
-6875 6919 0
-6913 6919 0
-6875 -6913 6920 0
-6914 6920 0
-6875 -6914 6921 0
-6915 6921 0
-6875 -6915 6922 0
-6916 6922 0
-6875 -6916 6923 0
-6917 6923 0
-6875 -6917 6924 0
-6918 6924 0
-6875 -6918 0
-6876 -6924 0
6868 6931 0
-6932 0
-6933 0
6869 6934 0
-6931 6934 0
6869 -6931 6935 0
-6932 6935 0
6869 -6932 6936 0
-6933 6936 0
6869 -6933 0
6870 6937 0
-6934 6937 0
6870 -6934 6938 0
-6935 6938 0
6870 -6935 6939 0
-6936 6939 0
6870 -6936 0
6871 6940 0
-6937 6940 0
6871 -6937 6941 0
-6938 6941 0
6871 -6938 6942 0
-6939 6942 0
6871 -6939 0
6872 6943 0
-6940 6943 0
6872 -6940 6944 0
-6941 6944 0
6872 -6941 6945 0
-6942 6945 0
6872 -6942 0
6873 6946 0
-6943 6946 0
6873 -6943 6947 0
-6944 6947 0
6873 -6944 6948 0
-6945 6948 0
6873 -6945 0
6874 6949 0
-6946 6949 0
6874 -6946 6950 0
-6947 6950 0
6874 -6947 6951 0
-6948 6951 0
6874 -6948 0
6875 6952 0
-6949 6952 0
6875 -6949 6953 0
-6950 6953 0
6875 -6950 6954 0
-6951 6954 0
6875 -6951 0
6876 -6954 0
-559 6958 0
-631 6959 0
-6958 6959 0
-631 -6958 0
-703 6960 0
-6959 6960 0
-703 -6959 0
-6868 -6960 0
559 631 703 6868 0
-560 6962 0
-632 6963 0
-6962 6963 0
-632 -6962 0
-704 6964 0
-6963 6964 0
-704 -6963 0
-6869 -6964 0
560 632 704 6869 0
-561 6966 0
-633 6967 0
-6966 6967 0
-633 -6966 0
-705 6968 0
-6967 6968 0
-705 -6967 0
-6870 -6968 0
561 633 705 6870 0
-562 6970 0
-634 6971 0
-6970 6971 0
-634 -6970 0
-706 6972 0
-6971 6972 0
-706 -6971 0
-6871 -6972 0
562 634 706 6871 0
-563 6974 0
-635 6975 0
-6974 6975 0
-635 -6974 0
-707 6976 0
-6975 6976 0
-707 -6975 0
-6872 -6976 0
563 635 707 6872 0
-564 6978 0
-636 6979 0
-6978 6979 0
-636 -6978 0
-708 6980 0
-6979 6980 0
-708 -6979 0
-6873 -6980 0
564 636 708 6873 0
-565 6982 0
-637 6983 0
-6982 6983 0
-637 -6982 0
-709 6984 0
-6983 6984 0
-709 -6983 0
-6874 -6984 0
565 637 709 6874 0
-566 6986 0
-638 6987 0
-6986 6987 0
-638 -6986 0
-710 6988 0
-6987 6988 0
-710 -6987 0
-6875 -6988 0
566 638 710 6875 0
-567 6990 0
-639 6991 0
-6990 6991 0
-639 -6990 0
-711 6992 0
-6991 6992 0
-711 -6991 0
-6876 -6992 0
567 639 711 6876 0
-6994 7003 0
-7004 0
-7005 0
-7006 0
-7007 0
-7008 0
-7009 0
-6995 7010 0
-7003 7010 0
-6995 -7003 7011 0
-7004 7011 0
-6995 -7004 7012 0
-7005 7012 0
-6995 -7005 7013 0
-7006 7013 0
-6995 -7006 7014 0
-7007 7014 0
-6995 -7007 7015 0
-7008 7015 0
-6995 -7008 7016 0
-7009 7016 0
-6995 -7009 0
-6996 7017 0
-7010 7017 0
-6996 -7010 7018 0
-7011 7018 0
-6996 -7011 7019 0
-7012 7019 0
-6996 -7012 7020 0
-7013 7020 0
-6996 -7013 7021 0
-7014 7021 0
-6996 -7014 7022 0
-7015 7022 0
-6996 -7015 7023 0
-7016 7023 0
-6996 -7016 0
-6997 7024 0
-7017 7024 0
-6997 -7017 7025 0
-7018 7025 0
-6997 -7018 7026 0
-7019 7026 0
-6997 -7019 7027 0
-7020 7027 0
-6997 -7020 7028 0
-7021 7028 0
-6997 -7021 7029 0
-7022 7029 0
-6997 -7022 7030 0
-7023 7030 0
-6997 -7023 0
-6998 7031 0
-7024 7031 0
-6998 -7024 7032 0
-7025 7032 0
-6998 -7025 7033 0
-7026 7033 0
-6998 -7026 7034 0
-7027 7034 0
-6998 -7027 7035 0
-7028 7035 0
-6998 -7028 7036 0
-7029 7036 0
-6998 -7029 7037 0
-7030 7037 0
-6998 -7030 0
-6999 7038 0
-7031 7038 0
-6999 -7031 7039 0
-7032 7039 0
-6999 -7032 7040 0
-7033 7040 0
-6999 -7033 7041 0
-7034 7041 0
-6999 -7034 7042 0
-7035 7042 0
-6999 -7035 7043 0
-7036 7043 0
-6999 -7036 7044 0
-7037 7044 0
-6999 -7037 0
-7000 7045 0
-7038 7045 0
-7000 -7038 7046 0
-7039 7046 0
-7000 -7039 7047 0
-7040 7047 0
-7000 -7040 7048 0
-7041 7048 0
-7000 -7041 7049 0
-7042 7049 0
-7000 -7042 7050 0
-7043 7050 0
-7000 -7043 7051 0
-7044 7051 0
-7000 -7044 0
-7001 7052 0
-7045 7052 0
-7001 -7045 7053 0
-7046 7053 0
-7001 -7046 7054 0
-7047 7054 0
-7001 -7047 7055 0
-7048 7055 0
-7001 -7048 7056 0
-7049 7056 0
-7001 -7049 7057 0
-7050 7057 0
-7001 -7050 7058 0
-7051 7058 0
-7001 -7051 0
-7002 -7058 0
6994 7066 0
-7067 0
6995 7068 0
-7066 7068 0
6995 -7066 7069 0
-7067 7069 0
6995 -7067 0
6996 7070 0
-7068 7070 0
6996 -7068 7071 0
-7069 7071 0
6996 -7069 0
6997 7072 0
-7070 7072 0
6997 -7070 7073 0
-7071 7073 0
6997 -7071 0
6998 7074 0
-7072 7074 0
6998 -7072 7075 0
-7073 7075 0
6998 -7073 0
6999 7076 0
-7074 7076 0
6999 -7074 7077 0
-7075 7077 0
6999 -7075 0
7000 7078 0
-7076 7078 0
7000 -7076 7079 0
-7077 7079 0
7000 -7077 0
7001 7080 0
-7078 7080 0
7001 -7078 7081 0
-7079 7081 0
7001 -7079 0
7002 -7081 0
-640 7084 0
-712 7085 0
-7084 7085 0
-712 -7084 0
-6994 -7085 0
640 712 6994 0
-641 7087 0
-713 7088 0
-7087 7088 0
-713 -7087 0
-6995 -7088 0
641 713 6995 0
-642 7090 0
-714 7091 0
-7090 7091 0
-714 -7090 0
-6996 -7091 0
642 714 6996 0
-643 7093 0
-715 7094 0
-7093 7094 0
-715 -7093 0
-6997 -7094 0
643 715 6997 0
-644 7096 0
-716 7097 0
-7096 7097 0
-716 -7096 0
-6998 -7097 0
644 716 6998 0
-645 7099 0
-717 7100 0
-7099 7100 0
-717 -7099 0
-6999 -7100 0
645 717 6999 0
-646 7102 0
-718 7103 0
-7102 7103 0
-718 -7102 0
-7000 -7103 0
646 718 7000 0
-647 7105 0
-719 7106 0
-7105 7106 0
-719 -7105 0
-7001 -7106 0
647 719 7001 0
-648 7108 0
-720 7109 0
-7108 7109 0
-720 -7108 0
-7002 -7109 0
648 720 7002 0
