p cnf 4960 9792
-1 513 0
-2 514 0
-513 514 0
-2 -513 0
-3 515 0
-514 515 0
-3 -514 0
-4 516 0
-515 516 0
-4 -515 0
-5 517 0
-516 517 0
-5 -516 0
-6 518 0
-517 518 0
-6 -517 0
-7 519 0
-518 519 0
-7 -518 0
-8 -519 0
1 2 3 4 5 6 7 8 0
-9 521 0
-10 522 0
-521 522 0
-10 -521 0
-11 523 0
-522 523 0
-11 -522 0
-12 524 0
-523 524 0
-12 -523 0
-13 525 0
-524 525 0
-13 -524 0
-14 526 0
-525 526 0
-14 -525 0
-15 527 0
-526 527 0
-15 -526 0
-16 -527 0
9 10 11 12 13 14 15 16 0
-17 529 0
-18 530 0
-529 530 0
-18 -529 0
-19 531 0
-530 531 0
-19 -530 0
-20 532 0
-531 532 0
-20 -531 0
-21 533 0
-532 533 0
-21 -532 0
-22 534 0
-533 534 0
-22 -533 0
-23 535 0
-534 535 0
-23 -534 0
-24 -535 0
17 18 19 20 21 22 23 24 0
-25 537 0
-26 538 0
-537 538 0
-26 -537 0
-27 539 0
-538 539 0
-27 -538 0
-28 540 0
-539 540 0
-28 -539 0
-29 541 0
-540 541 0
-29 -540 0
-30 542 0
-541 542 0
-30 -541 0
-31 543 0
-542 543 0
-31 -542 0
-32 -543 0
25 26 27 28 29 30 31 32 0
-33 545 0
-34 546 0
-545 546 0
-34 -545 0
-35 547 0
-546 547 0
-35 -546 0
-36 548 0
-547 548 0
-36 -547 0
-37 549 0
-548 549 0
-37 -548 0
-38 550 0
-549 550 0
-38 -549 0
-39 551 0
-550 551 0
-39 -550 0
-40 -551 0
33 34 35 36 37 38 39 40 0
-41 553 0
-42 554 0
-553 554 0
-42 -553 0
-43 555 0
-554 555 0
-43 -554 0
-44 556 0
-555 556 0
-44 -555 0
-45 557 0
-556 557 0
-45 -556 0
-46 558 0
-557 558 0
-46 -557 0
-47 559 0
-558 559 0
-47 -558 0
-48 -559 0
41 42 43 44 45 46 47 48 0
-49 561 0
-50 562 0
-561 562 0
-50 -561 0
-51 563 0
-562 563 0
-51 -562 0
-52 564 0
-563 564 0
-52 -563 0
-53 565 0
-564 565 0
-53 -564 0
-54 566 0
-565 566 0
-54 -565 0
-55 567 0
-566 567 0
-55 -566 0
-56 -567 0
49 50 51 52 53 54 55 56 0
-57 569 0
-58 570 0
-569 570 0
-58 -569 0
-59 571 0
-570 571 0
-59 -570 0
-60 572 0
-571 572 0
-60 -571 0
-61 573 0
-572 573 0
-61 -572 0
-62 574 0
-573 574 0
-62 -573 0
-63 575 0
-574 575 0
-63 -574 0
-64 -575 0
57 58 59 60 61 62 63 64 0
-65 577 0
-66 578 0
-577 578 0
-66 -577 0
-67 579 0
-578 579 0
-67 -578 0
-68 580 0
-579 580 0
-68 -579 0
-69 581 0
-580 581 0
-69 -580 0
-70 582 0
-581 582 0
-70 -581 0
-71 583 0
-582 583 0
-71 -582 0
-72 -583 0
65 66 67 68 69 70 71 72 0
-73 585 0
-74 586 0
-585 586 0
-74 -585 0
-75 587 0
-586 587 0
-75 -586 0
-76 588 0
-587 588 0
-76 -587 0
-77 589 0
-588 589 0
-77 -588 0
-78 590 0
-589 590 0
-78 -589 0
-79 591 0
-590 591 0
-79 -590 0
-80 -591 0
73 74 75 76 77 78 79 80 0
-81 593 0
-82 594 0
-593 594 0
-82 -593 0
-83 595 0
-594 595 0
-83 -594 0
-84 596 0
-595 596 0
-84 -595 0
-85 597 0
-596 597 0
-85 -596 0
-86 598 0
-597 598 0
-86 -597 0
-87 599 0
-598 599 0
-87 -598 0
-88 -599 0
81 82 83 84 85 86 87 88 0
-89 601 0
-90 602 0
-601 602 0
-90 -601 0
-91 603 0
-602 603 0
-91 -602 0
-92 604 0
-603 604 0
-92 -603 0
-93 605 0
-604 605 0
-93 -604 0
-94 606 0
-605 606 0
-94 -605 0
-95 607 0
-606 607 0
-95 -606 0
-96 -607 0
89 90 91 92 93 94 95 96 0
-97 609 0
-98 610 0
-609 610 0
-98 -609 0
-99 611 0
-610 611 0
-99 -610 0
-100 612 0
-611 612 0
-100 -611 0
-101 613 0
-612 613 0
-101 -612 0
-102 614 0
-613 614 0
-102 -613 0
-103 615 0
-614 615 0
-103 -614 0
-104 -615 0
97 98 99 100 101 102 103 104 0
-105 617 0
-106 618 0
-617 618 0
-106 -617 0
-107 619 0
-618 619 0
-107 -618 0
-108 620 0
-619 620 0
-108 -619 0
-109 621 0
-620 621 0
-109 -620 0
-110 622 0
-621 622 0
-110 -621 0
-111 623 0
-622 623 0
-111 -622 0
-112 -623 0
105 106 107 108 109 110 111 112 0
-113 625 0
-114 626 0
-625 626 0
-114 -625 0
-115 627 0
-626 627 0
-115 -626 0
-116 628 0
-627 628 0
-116 -627 0
-117 629 0
-628 629 0
-117 -628 0
-118 630 0
-629 630 0
-118 -629 0
-119 631 0
-630 631 0
-119 -630 0
-120 -631 0
113 114 115 116 117 118 119 120 0
-121 633 0
-122 634 0
-633 634 0
-122 -633 0
-123 635 0
-634 635 0
-123 -634 0
-124 636 0
-635 636 0
-124 -635 0
-125 637 0
-636 637 0
-125 -636 0
-126 638 0
-637 638 0
-126 -637 0
-127 639 0
-638 639 0
-127 -638 0
-128 -639 0
121 122 123 124 125 126 127 128 0
-129 641 0
-130 642 0
-641 642 0
-130 -641 0
-131 643 0
-642 643 0
-131 -642 0
-132 644 0
-643 644 0
-132 -643 0
-133 645 0
-644 645 0
-133 -644 0
-134 646 0
-645 646 0
-134 -645 0
-135 647 0
-646 647 0
-135 -646 0
-136 -647 0
129 130 131 132 133 134 135 136 0
-137 649 0
-138 650 0
-649 650 0
-138 -649 0
-139 651 0
-650 651 0
-139 -650 0
-140 652 0
-651 652 0
-140 -651 0
-141 653 0
-652 653 0
-141 -652 0
-142 654 0
-653 654 0
-142 -653 0
-143 655 0
-654 655 0
-143 -654 0
-144 -655 0
137 138 139 140 141 142 143 144 0
-145 657 0
-146 658 0
-657 658 0
-146 -657 0
-147 659 0
-658 659 0
-147 -658 0
-148 660 0
-659 660 0
-148 -659 0
-149 661 0
-660 661 0
-149 -660 0
-150 662 0
-661 662 0
-150 -661 0
-151 663 0
-662 663 0
-151 -662 0
-152 -663 0
145 146 147 148 149 150 151 152 0
-153 665 0
-154 666 0
-665 666 0
-154 -665 0
-155 667 0
-666 667 0
-155 -666 0
-156 668 0
-667 668 0
-156 -667 0
-157 669 0
-668 669 0
-157 -668 0
-158 670 0
-669 670 0
-158 -669 0
-159 671 0
-670 671 0
-159 -670 0
-160 -671 0
153 154 155 156 157 158 159 160 0
-161 673 0
-162 674 0
-673 674 0
-162 -673 0
-163 675 0
-674 675 0
-163 -674 0
-164 676 0
-675 676 0
-164 -675 0
-165 677 0
-676 677 0
-165 -676 0
-166 678 0
-677 678 0
-166 -677 0
-167 679 0
-678 679 0
-167 -678 0
-168 -679 0
161 162 163 164 165 166 167 168 0
-169 681 0
-170 682 0
-681 682 0
-170 -681 0
-171 683 0
-682 683 0
-171 -682 0
-172 684 0
-683 684 0
-172 -683 0
-173 685 0
-684 685 0
-173 -684 0
-174 686 0
-685 686 0
-174 -685 0
-175 687 0
-686 687 0
-175 -686 0
-176 -687 0
169 170 171 172 173 174 175 176 0
-177 689 0
-178 690 0
-689 690 0
-178 -689 0
-179 691 0
-690 691 0
-179 -690 0
-180 692 0
-691 692 0
-180 -691 0
-181 693 0
-692 693 0
-181 -692 0
-182 694 0
-693 694 0
-182 -693 0
-183 695 0
-694 695 0
-183 -694 0
-184 -695 0
177 178 179 180 181 182 183 184 0
-185 697 0
-186 698 0
-697 698 0
-186 -697 0
-187 699 0
-698 699 0
-187 -698 0
-188 700 0
-699 700 0
-188 -699 0
-189 701 0
-700 701 0
-189 -700 0
-190 702 0
-701 702 0
-190 -701 0
-191 703 0
-702 703 0
-191 -702 0
-192 -703 0
185 186 187 188 189 190 191 192 0
-193 705 0
-194 706 0
-705 706 0
-194 -705 0
-195 707 0
-706 707 0
-195 -706 0
-196 708 0
-707 708 0
-196 -707 0
-197 709 0
-708 709 0
-197 -708 0
-198 710 0
-709 710 0
-198 -709 0
-199 711 0
-710 711 0
-199 -710 0
-200 -711 0
193 194 195 196 197 198 199 200 0
-201 713 0
-202 714 0
-713 714 0
-202 -713 0
-203 715 0
-714 715 0
-203 -714 0
-204 716 0
-715 716 0
-204 -715 0
-205 717 0
-716 717 0
-205 -716 0
-206 718 0
-717 718 0
-206 -717 0
-207 719 0
-718 719 0
-207 -718 0
-208 -719 0
201 202 203 204 205 206 207 208 0
-209 721 0
-210 722 0
-721 722 0
-210 -721 0
-211 723 0
-722 723 0
-211 -722 0
-212 724 0
-723 724 0
-212 -723 0
-213 725 0
-724 725 0
-213 -724 0
-214 726 0
-725 726 0
-214 -725 0
-215 727 0
-726 727 0
-215 -726 0
-216 -727 0
209 210 211 212 213 214 215 216 0
-217 729 0
-218 730 0
-729 730 0
-218 -729 0
-219 731 0
-730 731 0
-219 -730 0
-220 732 0
-731 732 0
-220 -731 0
-221 733 0
-732 733 0
-221 -732 0
-222 734 0
-733 734 0
-222 -733 0
-223 735 0
-734 735 0
-223 -734 0
-224 -735 0
217 218 219 220 221 222 223 224 0
-225 737 0
-226 738 0
-737 738 0
-226 -737 0
-227 739 0
-738 739 0
-227 -738 0
-228 740 0
-739 740 0
-228 -739 0
-229 741 0
-740 741 0
-229 -740 0
-230 742 0
-741 742 0
-230 -741 0
-231 743 0
-742 743 0
-231 -742 0
-232 -743 0
225 226 227 228 229 230 231 232 0
-233 745 0
-234 746 0
-745 746 0
-234 -745 0
-235 747 0
-746 747 0
-235 -746 0
-236 748 0
-747 748 0
-236 -747 0
-237 749 0
-748 749 0
-237 -748 0
-238 750 0
-749 750 0
-238 -749 0
-239 751 0
-750 751 0
-239 -750 0
-240 -751 0
233 234 235 236 237 238 239 240 0
-241 753 0
-242 754 0
-753 754 0
-242 -753 0
-243 755 0
-754 755 0
-243 -754 0
-244 756 0
-755 756 0
-244 -755 0
-245 757 0
-756 757 0
-245 -756 0
-246 758 0
-757 758 0
-246 -757 0
-247 759 0
-758 759 0
-247 -758 0
-248 -759 0
241 242 243 244 245 246 247 248 0
-249 761 0
-250 762 0
-761 762 0
-250 -761 0
-251 763 0
-762 763 0
-251 -762 0
-252 764 0
-763 764 0
-252 -763 0
-253 765 0
-764 765 0
-253 -764 0
-254 766 0
-765 766 0
-254 -765 0
-255 767 0
-766 767 0
-255 -766 0
-256 -767 0
249 250 251 252 253 254 255 256 0
-257 769 0
-258 770 0
-769 770 0
-258 -769 0
-259 771 0
-770 771 0
-259 -770 0
-260 772 0
-771 772 0
-260 -771 0
-261 773 0
-772 773 0
-261 -772 0
-262 774 0
-773 774 0
-262 -773 0
-263 775 0
-774 775 0
-263 -774 0
-264 -775 0
257 258 259 260 261 262 263 264 0
-265 777 0
-266 778 0
-777 778 0
-266 -777 0
-267 779 0
-778 779 0
-267 -778 0
-268 780 0
-779 780 0
-268 -779 0
-269 781 0
-780 781 0
-269 -780 0
-270 782 0
-781 782 0
-270 -781 0
-271 783 0
-782 783 0
-271 -782 0
-272 -783 0
265 266 267 268 269 270 271 272 0
-273 785 0
-274 786 0
-785 786 0
-274 -785 0
-275 787 0
-786 787 0
-275 -786 0
-276 788 0
-787 788 0
-276 -787 0
-277 789 0
-788 789 0
-277 -788 0
-278 790 0
-789 790 0
-278 -789 0
-279 791 0
-790 791 0
-279 -790 0
-280 -791 0
273 274 275 276 277 278 279 280 0
-281 793 0
-282 794 0
-793 794 0
-282 -793 0
-283 795 0
-794 795 0
-283 -794 0
-284 796 0
-795 796 0
-284 -795 0
-285 797 0
-796 797 0
-285 -796 0
-286 798 0
-797 798 0
-286 -797 0
-287 799 0
-798 799 0
-287 -798 0
-288 -799 0
281 282 283 284 285 286 287 288 0
-289 801 0
-290 802 0
-801 802 0
-290 -801 0
-291 803 0
-802 803 0
-291 -802 0
-292 804 0
-803 804 0
-292 -803 0
-293 805 0
-804 805 0
-293 -804 0
-294 806 0
-805 806 0
-294 -805 0
-295 807 0
-806 807 0
-295 -806 0
-296 -807 0
289 290 291 292 293 294 295 296 0
-297 809 0
-298 810 0
-809 810 0
-298 -809 0
-299 811 0
-810 811 0
-299 -810 0
-300 812 0
-811 812 0
-300 -811 0
-301 813 0
-812 813 0
-301 -812 0
-302 814 0
-813 814 0
-302 -813 0
-303 815 0
-814 815 0
-303 -814 0
-304 -815 0
297 298 299 300 301 302 303 304 0
-305 817 0
-306 818 0
-817 818 0
-306 -817 0
-307 819 0
-818 819 0
-307 -818 0
-308 820 0
-819 820 0
-308 -819 0
-309 821 0
-820 821 0
-309 -820 0
-310 822 0
-821 822 0
-310 -821 0
-311 823 0
-822 823 0
-311 -822 0
-312 -823 0
305 306 307 308 309 310 311 312 0
-313 825 0
-314 826 0
-825 826 0
-314 -825 0
-315 827 0
-826 827 0
-315 -826 0
-316 828 0
-827 828 0
-316 -827 0
-317 829 0
-828 829 0
-317 -828 0
-318 830 0
-829 830 0
-318 -829 0
-319 831 0
-830 831 0
-319 -830 0
-320 -831 0
313 314 315 316 317 318 319 320 0
-321 833 0
-322 834 0
-833 834 0
-322 -833 0
-323 835 0
-834 835 0
-323 -834 0
-324 836 0
-835 836 0
-324 -835 0
-325 837 0
-836 837 0
-325 -836 0
-326 838 0
-837 838 0
-326 -837 0
-327 839 0
-838 839 0
-327 -838 0
-328 -839 0
321 322 323 324 325 326 327 328 0
-329 841 0
-330 842 0
-841 842 0
-330 -841 0
-331 843 0
-842 843 0
-331 -842 0
-332 844 0
-843 844 0
-332 -843 0
-333 845 0
-844 845 0
-333 -844 0
-334 846 0
-845 846 0
-334 -845 0
-335 847 0
-846 847 0
-335 -846 0
-336 -847 0
329 330 331 332 333 334 335 336 0
-337 849 0
-338 850 0
-849 850 0
-338 -849 0
-339 851 0
-850 851 0
-339 -850 0
-340 852 0
-851 852 0
-340 -851 0
-341 853 0
-852 853 0
-341 -852 0
-342 854 0
-853 854 0
-342 -853 0
-343 855 0
-854 855 0
-343 -854 0
-344 -855 0
337 338 339 340 341 342 343 344 0
-345 857 0
-346 858 0
-857 858 0
-346 -857 0
-347 859 0
-858 859 0
-347 -858 0
-348 860 0
-859 860 0
-348 -859 0
-349 861 0
-860 861 0
-349 -860 0
-350 862 0
-861 862 0
-350 -861 0
-351 863 0
-862 863 0
-351 -862 0
-352 -863 0
345 346 347 348 349 350 351 352 0
-353 865 0
-354 866 0
-865 866 0
-354 -865 0
-355 867 0
-866 867 0
-355 -866 0
-356 868 0
-867 868 0
-356 -867 0
-357 869 0
-868 869 0
-357 -868 0
-358 870 0
-869 870 0
-358 -869 0
-359 871 0
-870 871 0
-359 -870 0
-360 -871 0
353 354 355 356 357 358 359 360 0
-361 873 0
-362 874 0
-873 874 0
-362 -873 0
-363 875 0
-874 875 0
-363 -874 0
-364 876 0
-875 876 0
-364 -875 0
-365 877 0
-876 877 0
-365 -876 0
-366 878 0
-877 878 0
-366 -877 0
-367 879 0
-878 879 0
-367 -878 0
-368 -879 0
361 362 363 364 365 366 367 368 0
-369 881 0
-370 882 0
-881 882 0
-370 -881 0
-371 883 0
-882 883 0
-371 -882 0
-372 884 0
-883 884 0
-372 -883 0
-373 885 0
-884 885 0
-373 -884 0
-374 886 0
-885 886 0
-374 -885 0
-375 887 0
-886 887 0
-375 -886 0
-376 -887 0
369 370 371 372 373 374 375 376 0
-377 889 0
-378 890 0
-889 890 0
-378 -889 0
-379 891 0
-890 891 0
-379 -890 0
-380 892 0
-891 892 0
-380 -891 0
-381 893 0
-892 893 0
-381 -892 0
-382 894 0
-893 894 0
-382 -893 0
-383 895 0
-894 895 0
-383 -894 0
-384 -895 0
377 378 379 380 381 382 383 384 0
-385 897 0
-386 898 0
-897 898 0
-386 -897 0
-387 899 0
-898 899 0
-387 -898 0
-388 900 0
-899 900 0
-388 -899 0
-389 901 0
-900 901 0
-389 -900 0
-390 902 0
-901 902 0
-390 -901 0
-391 903 0
-902 903 0
-391 -902 0
-392 -903 0
385 386 387 388 389 390 391 392 0
-393 905 0
-394 906 0
-905 906 0
-394 -905 0
-395 907 0
-906 907 0
-395 -906 0
-396 908 0
-907 908 0
-396 -907 0
-397 909 0
-908 909 0
-397 -908 0
-398 910 0
-909 910 0
-398 -909 0
-399 911 0
-910 911 0
-399 -910 0
-400 -911 0
393 394 395 396 397 398 399 400 0
-401 913 0
-402 914 0
-913 914 0
-402 -913 0
-403 915 0
-914 915 0
-403 -914 0
-404 916 0
-915 916 0
-404 -915 0
-405 917 0
-916 917 0
-405 -916 0
-406 918 0
-917 918 0
-406 -917 0
-407 919 0
-918 919 0
-407 -918 0
-408 -919 0
401 402 403 404 405 406 407 408 0
-409 921 0
-410 922 0
-921 922 0
-410 -921 0
-411 923 0
-922 923 0
-411 -922 0
-412 924 0
-923 924 0
-412 -923 0
-413 925 0
-924 925 0
-413 -924 0
-414 926 0
-925 926 0
-414 -925 0
-415 927 0
-926 927 0
-415 -926 0
-416 -927 0
409 410 411 412 413 414 415 416 0
-417 929 0
-418 930 0
-929 930 0
-418 -929 0
-419 931 0
-930 931 0
-419 -930 0
-420 932 0
-931 932 0
-420 -931 0
-421 933 0
-932 933 0
-421 -932 0
-422 934 0
-933 934 0
-422 -933 0
-423 935 0
-934 935 0
-423 -934 0
-424 -935 0
417 418 419 420 421 422 423 424 0
-425 937 0
-426 938 0
-937 938 0
-426 -937 0
-427 939 0
-938 939 0
-427 -938 0
-428 940 0
-939 940 0
-428 -939 0
-429 941 0
-940 941 0
-429 -940 0
-430 942 0
-941 942 0
-430 -941 0
-431 943 0
-942 943 0
-431 -942 0
-432 -943 0
425 426 427 428 429 430 431 432 0
-433 945 0
-434 946 0
-945 946 0
-434 -945 0
-435 947 0
-946 947 0
-435 -946 0
-436 948 0
-947 948 0
-436 -947 0
-437 949 0
-948 949 0
-437 -948 0
-438 950 0
-949 950 0
-438 -949 0
-439 951 0
-950 951 0
-439 -950 0
-440 -951 0
433 434 435 436 437 438 439 440 0
-441 953 0
-442 954 0
-953 954 0
-442 -953 0
-443 955 0
-954 955 0
-443 -954 0
-444 956 0
-955 956 0
-444 -955 0
-445 957 0
-956 957 0
-445 -956 0
-446 958 0
-957 958 0
-446 -957 0
-447 959 0
-958 959 0
-447 -958 0
-448 -959 0
441 442 443 444 445 446 447 448 0
-449 961 0
-450 962 0
-961 962 0
-450 -961 0
-451 963 0
-962 963 0
-451 -962 0
-452 964 0
-963 964 0
-452 -963 0
-453 965 0
-964 965 0
-453 -964 0
-454 966 0
-965 966 0
-454 -965 0
-455 967 0
-966 967 0
-455 -966 0
-456 -967 0
449 450 451 452 453 454 455 456 0
-457 969 0
-458 970 0
-969 970 0
-458 -969 0
-459 971 0
-970 971 0
-459 -970 0
-460 972 0
-971 972 0
-460 -971 0
-461 973 0
-972 973 0
-461 -972 0
-462 974 0
-973 974 0
-462 -973 0
-463 975 0
-974 975 0
-463 -974 0
-464 -975 0
457 458 459 460 461 462 463 464 0
-465 977 0
-466 978 0
-977 978 0
-466 -977 0
-467 979 0
-978 979 0
-467 -978 0
-468 980 0
-979 980 0
-468 -979 0
-469 981 0
-980 981 0
-469 -980 0
-470 982 0
-981 982 0
-470 -981 0
-471 983 0
-982 983 0
-471 -982 0
-472 -983 0
465 466 467 468 469 470 471 472 0
-473 985 0
-474 986 0
-985 986 0
-474 -985 0
-475 987 0
-986 987 0
-475 -986 0
-476 988 0
-987 988 0
-476 -987 0
-477 989 0
-988 989 0
-477 -988 0
-478 990 0
-989 990 0
-478 -989 0
-479 991 0
-990 991 0
-479 -990 0
-480 -991 0
473 474 475 476 477 478 479 480 0
-481 993 0
-482 994 0
-993 994 0
-482 -993 0
-483 995 0
-994 995 0
-483 -994 0
-484 996 0
-995 996 0
-484 -995 0
-485 997 0
-996 997 0
-485 -996 0
-486 998 0
-997 998 0
-486 -997 0
-487 999 0
-998 999 0
-487 -998 0
-488 -999 0
481 482 483 484 485 486 487 488 0
-489 1001 0
-490 1002 0
-1001 1002 0
-490 -1001 0
-491 1003 0
-1002 1003 0
-491 -1002 0
-492 1004 0
-1003 1004 0
-492 -1003 0
-493 1005 0
-1004 1005 0
-493 -1004 0
-494 1006 0
-1005 1006 0
-494 -1005 0
-495 1007 0
-1006 1007 0
-495 -1006 0
-496 -1007 0
489 490 491 492 493 494 495 496 0
-497 1009 0
-498 1010 0
-1009 1010 0
-498 -1009 0
-499 1011 0
-1010 1011 0
-499 -1010 0
-500 1012 0
-1011 1012 0
-500 -1011 0
-501 1013 0
-1012 1013 0
-501 -1012 0
-502 1014 0
-1013 1014 0
-502 -1013 0
-503 1015 0
-1014 1015 0
-503 -1014 0
-504 -1015 0
497 498 499 500 501 502 503 504 0
-505 1017 0
-506 1018 0
-1017 1018 0
-506 -1017 0
-507 1019 0
-1018 1019 0
-507 -1018 0
-508 1020 0
-1019 1020 0
-508 -1019 0
-509 1021 0
-1020 1021 0
-509 -1020 0
-510 1022 0
-1021 1022 0
-510 -1021 0
-511 1023 0
-1022 1023 0
-511 -1022 0
-512 -1023 0
505 506 507 508 509 510 511 512 0
-1 1025 0
-9 1026 0
-1025 1026 0
-9 -1025 0
-17 1027 0
-1026 1027 0
-17 -1026 0
-25 1028 0
-1027 1028 0
-25 -1027 0
-33 1029 0
-1028 1029 0
-33 -1028 0
-41 1030 0
-1029 1030 0
-41 -1029 0
-49 1031 0
-1030 1031 0
-49 -1030 0
-57 -1031 0
1 9 17 25 33 41 49 57 0
-2 1033 0
-10 1034 0
-1033 1034 0
-10 -1033 0
-18 1035 0
-1034 1035 0
-18 -1034 0
-26 1036 0
-1035 1036 0
-26 -1035 0
-34 1037 0
-1036 1037 0
-34 -1036 0
-42 1038 0
-1037 1038 0
-42 -1037 0
-50 1039 0
-1038 1039 0
-50 -1038 0
-58 -1039 0
2 10 18 26 34 42 50 58 0
-3 1041 0
-11 1042 0
-1041 1042 0
-11 -1041 0
-19 1043 0
-1042 1043 0
-19 -1042 0
-27 1044 0
-1043 1044 0
-27 -1043 0
-35 1045 0
-1044 1045 0
-35 -1044 0
-43 1046 0
-1045 1046 0
-43 -1045 0
-51 1047 0
-1046 1047 0
-51 -1046 0
-59 -1047 0
3 11 19 27 35 43 51 59 0
-4 1049 0
-12 1050 0
-1049 1050 0
-12 -1049 0
-20 1051 0
-1050 1051 0
-20 -1050 0
-28 1052 0
-1051 1052 0
-28 -1051 0
-36 1053 0
-1052 1053 0
-36 -1052 0
-44 1054 0
-1053 1054 0
-44 -1053 0
-52 1055 0
-1054 1055 0
-52 -1054 0
-60 -1055 0
4 12 20 28 36 44 52 60 0
-5 1057 0
-13 1058 0
-1057 1058 0
-13 -1057 0
-21 1059 0
-1058 1059 0
-21 -1058 0
-29 1060 0
-1059 1060 0
-29 -1059 0
-37 1061 0
-1060 1061 0
-37 -1060 0
-45 1062 0
-1061 1062 0
-45 -1061 0
-53 1063 0
-1062 1063 0
-53 -1062 0
-61 -1063 0
5 13 21 29 37 45 53 61 0
-6 1065 0
-14 1066 0
-1065 1066 0
-14 -1065 0
-22 1067 0
-1066 1067 0
-22 -1066 0
-30 1068 0
-1067 1068 0
-30 -1067 0
-38 1069 0
-1068 1069 0
-38 -1068 0
-46 1070 0
-1069 1070 0
-46 -1069 0
-54 1071 0
-1070 1071 0
-54 -1070 0
-62 -1071 0
6 14 22 30 38 46 54 62 0
-7 1073 0
-15 1074 0
-1073 1074 0
-15 -1073 0
-23 1075 0
-1074 1075 0
-23 -1074 0
-31 1076 0
-1075 1076 0
-31 -1075 0
-39 1077 0
-1076 1077 0
-39 -1076 0
-47 1078 0
-1077 1078 0
-47 -1077 0
-55 1079 0
-1078 1079 0
-55 -1078 0
-63 -1079 0
7 15 23 31 39 47 55 63 0
-8 1081 0
-16 1082 0
-1081 1082 0
-16 -1081 0
-24 1083 0
-1082 1083 0
-24 -1082 0
-32 1084 0
-1083 1084 0
-32 -1083 0
-40 1085 0
-1084 1085 0
-40 -1084 0
-48 1086 0
-1085 1086 0
-48 -1085 0
-56 1087 0
-1086 1087 0
-56 -1086 0
-64 -1087 0
8 16 24 32 40 48 56 64 0
-65 1089 0
-73 1090 0
-1089 1090 0
-73 -1089 0
-81 1091 0
-1090 1091 0
-81 -1090 0
-89 1092 0
-1091 1092 0
-89 -1091 0
-97 1093 0
-1092 1093 0
-97 -1092 0
-105 1094 0
-1093 1094 0
-105 -1093 0
-113 1095 0
-1094 1095 0
-113 -1094 0
-121 -1095 0
65 73 81 89 97 105 113 121 0
-66 1097 0
-74 1098 0
-1097 1098 0
-74 -1097 0
-82 1099 0
-1098 1099 0
-82 -1098 0
-90 1100 0
-1099 1100 0
-90 -1099 0
-98 1101 0
-1100 1101 0
-98 -1100 0
-106 1102 0
-1101 1102 0
-106 -1101 0
-114 1103 0
-1102 1103 0
-114 -1102 0
-122 -1103 0
66 74 82 90 98 106 114 122 0
-67 1105 0
-75 1106 0
-1105 1106 0
-75 -1105 0
-83 1107 0
-1106 1107 0
-83 -1106 0
-91 1108 0
-1107 1108 0
-91 -1107 0
-99 1109 0
-1108 1109 0
-99 -1108 0
-107 1110 0
-1109 1110 0
-107 -1109 0
-115 1111 0
-1110 1111 0
-115 -1110 0
-123 -1111 0
67 75 83 91 99 107 115 123 0
-68 1113 0
-76 1114 0
-1113 1114 0
-76 -1113 0
-84 1115 0
-1114 1115 0
-84 -1114 0
-92 1116 0
-1115 1116 0
-92 -1115 0
-100 1117 0
-1116 1117 0
-100 -1116 0
-108 1118 0
-1117 1118 0
-108 -1117 0
-116 1119 0
-1118 1119 0
-116 -1118 0
-124 -1119 0
68 76 84 92 100 108 116 124 0
-69 1121 0
-77 1122 0
-1121 1122 0
-77 -1121 0
-85 1123 0
-1122 1123 0
-85 -1122 0
-93 1124 0
-1123 1124 0
-93 -1123 0
-101 1125 0
-1124 1125 0
-101 -1124 0
-109 1126 0
-1125 1126 0
-109 -1125 0
-117 1127 0
-1126 1127 0
-117 -1126 0
-125 -1127 0
69 77 85 93 101 109 117 125 0
-70 1129 0
-78 1130 0
-1129 1130 0
-78 -1129 0
-86 1131 0
-1130 1131 0
-86 -1130 0
-94 1132 0
-1131 1132 0
-94 -1131 0
-102 1133 0
-1132 1133 0
-102 -1132 0
-110 1134 0
-1133 1134 0
-110 -1133 0
-118 1135 0
-1134 1135 0
-118 -1134 0
-126 -1135 0
70 78 86 94 102 110 118 126 0
-71 1137 0
-79 1138 0
-1137 1138 0
-79 -1137 0
-87 1139 0
-1138 1139 0
-87 -1138 0
-95 1140 0
-1139 1140 0
-95 -1139 0
-103 1141 0
-1140 1141 0
-103 -1140 0
-111 1142 0
-1141 1142 0
-111 -1141 0
-119 1143 0
-1142 1143 0
-119 -1142 0
-127 -1143 0
71 79 87 95 103 111 119 127 0
-72 1145 0
-80 1146 0
-1145 1146 0
-80 -1145 0
-88 1147 0
-1146 1147 0
-88 -1146 0
-96 1148 0
-1147 1148 0
-96 -1147 0
-104 1149 0
-1148 1149 0
-104 -1148 0
-112 1150 0
-1149 1150 0
-112 -1149 0
-120 1151 0
-1150 1151 0
-120 -1150 0
-128 -1151 0
72 80 88 96 104 112 120 128 0
-129 1153 0
-137 1154 0
-1153 1154 0
-137 -1153 0
-145 1155 0
-1154 1155 0
-145 -1154 0
-153 1156 0
-1155 1156 0
-153 -1155 0
-161 1157 0
-1156 1157 0
-161 -1156 0
-169 1158 0
-1157 1158 0
-169 -1157 0
-177 1159 0
-1158 1159 0
-177 -1158 0
-185 -1159 0
129 137 145 153 161 169 177 185 0
-130 1161 0
-138 1162 0
-1161 1162 0
-138 -1161 0
-146 1163 0
-1162 1163 0
-146 -1162 0
-154 1164 0
-1163 1164 0
-154 -1163 0
-162 1165 0
-1164 1165 0
-162 -1164 0
-170 1166 0
-1165 1166 0
-170 -1165 0
-178 1167 0
-1166 1167 0
-178 -1166 0
-186 -1167 0
130 138 146 154 162 170 178 186 0
-131 1169 0
-139 1170 0
-1169 1170 0
-139 -1169 0
-147 1171 0
-1170 1171 0
-147 -1170 0
-155 1172 0
-1171 1172 0
-155 -1171 0
-163 1173 0
-1172 1173 0
-163 -1172 0
-171 1174 0
-1173 1174 0
-171 -1173 0
-179 1175 0
-1174 1175 0
-179 -1174 0
-187 -1175 0
131 139 147 155 163 171 179 187 0
-132 1177 0
-140 1178 0
-1177 1178 0
-140 -1177 0
-148 1179 0
-1178 1179 0
-148 -1178 0
-156 1180 0
-1179 1180 0
-156 -1179 0
-164 1181 0
-1180 1181 0
-164 -1180 0
-172 1182 0
-1181 1182 0
-172 -1181 0
-180 1183 0
-1182 1183 0
-180 -1182 0
-188 -1183 0
132 140 148 156 164 172 180 188 0
-133 1185 0
-141 1186 0
-1185 1186 0
-141 -1185 0
-149 1187 0
-1186 1187 0
-149 -1186 0
-157 1188 0
-1187 1188 0
-157 -1187 0
-165 1189 0
-1188 1189 0
-165 -1188 0
-173 1190 0
-1189 1190 0
-173 -1189 0
-181 1191 0
-1190 1191 0
-181 -1190 0
-189 -1191 0
133 141 149 157 165 173 181 189 0
-134 1193 0
-142 1194 0
-1193 1194 0
-142 -1193 0
-150 1195 0
-1194 1195 0
-150 -1194 0
-158 1196 0
-1195 1196 0
-158 -1195 0
-166 1197 0
-1196 1197 0
-166 -1196 0
-174 1198 0
-1197 1198 0
-174 -1197 0
-182 1199 0
-1198 1199 0
-182 -1198 0
-190 -1199 0
134 142 150 158 166 174 182 190 0
-135 1201 0
-143 1202 0
-1201 1202 0
-143 -1201 0
-151 1203 0
-1202 1203 0
-151 -1202 0
-159 1204 0
-1203 1204 0
-159 -1203 0
-167 1205 0
-1204 1205 0
-167 -1204 0
-175 1206 0
-1205 1206 0
-175 -1205 0
-183 1207 0
-1206 1207 0
-183 -1206 0
-191 -1207 0
135 143 151 159 167 175 183 191 0
-136 1209 0
-144 1210 0
-1209 1210 0
-144 -1209 0
-152 1211 0
-1210 1211 0
-152 -1210 0
-160 1212 0
-1211 1212 0
-160 -1211 0
-168 1213 0
-1212 1213 0
-168 -1212 0
-176 1214 0
-1213 1214 0
-176 -1213 0
-184 1215 0
-1214 1215 0
-184 -1214 0
-192 -1215 0
136 144 152 160 168 176 184 192 0
-193 1217 0
-201 1218 0
-1217 1218 0
-201 -1217 0
-209 1219 0
-1218 1219 0
-209 -1218 0
-217 1220 0
-1219 1220 0
-217 -1219 0
-225 1221 0
-1220 1221 0
-225 -1220 0
-233 1222 0
-1221 1222 0
-233 -1221 0
-241 1223 0
-1222 1223 0
-241 -1222 0
-249 -1223 0
193 201 209 217 225 233 241 249 0
-194 1225 0
-202 1226 0
-1225 1226 0
-202 -1225 0
-210 1227 0
-1226 1227 0
-210 -1226 0
-218 1228 0
-1227 1228 0
-218 -1227 0
-226 1229 0
-1228 1229 0
-226 -1228 0
-234 1230 0
-1229 1230 0
-234 -1229 0
-242 1231 0
-1230 1231 0
-242 -1230 0
-250 -1231 0
194 202 210 218 226 234 242 250 0
-195 1233 0
-203 1234 0
-1233 1234 0
-203 -1233 0
-211 1235 0
-1234 1235 0
-211 -1234 0
-219 1236 0
-1235 1236 0
-219 -1235 0
-227 1237 0
-1236 1237 0
-227 -1236 0
-235 1238 0
-1237 1238 0
-235 -1237 0
-243 1239 0
-1238 1239 0
-243 -1238 0
-251 -1239 0
195 203 211 219 227 235 243 251 0
-196 1241 0
-204 1242 0
-1241 1242 0
-204 -1241 0
-212 1243 0
-1242 1243 0
-212 -1242 0
-220 1244 0
-1243 1244 0
-220 -1243 0
-228 1245 0
-1244 1245 0
-228 -1244 0
-236 1246 0
-1245 1246 0
-236 -1245 0
-244 1247 0
-1246 1247 0
-244 -1246 0
-252 -1247 0
196 204 212 220 228 236 244 252 0
-197 1249 0
-205 1250 0
-1249 1250 0
-205 -1249 0
-213 1251 0
-1250 1251 0
-213 -1250 0
-221 1252 0
-1251 1252 0
-221 -1251 0
-229 1253 0
-1252 1253 0
-229 -1252 0
-237 1254 0
-1253 1254 0
-237 -1253 0
-245 1255 0
-1254 1255 0
-245 -1254 0
-253 -1255 0
197 205 213 221 229 237 245 253 0
-198 1257 0
-206 1258 0
-1257 1258 0
-206 -1257 0
-214 1259 0
-1258 1259 0
-214 -1258 0
-222 1260 0
-1259 1260 0
-222 -1259 0
-230 1261 0
-1260 1261 0
-230 -1260 0
-238 1262 0
-1261 1262 0
-238 -1261 0
-246 1263 0
-1262 1263 0
-246 -1262 0
-254 -1263 0
198 206 214 222 230 238 246 254 0
-199 1265 0
-207 1266 0
-1265 1266 0
-207 -1265 0
-215 1267 0
-1266 1267 0
-215 -1266 0
-223 1268 0
-1267 1268 0
-223 -1267 0
-231 1269 0
-1268 1269 0
-231 -1268 0
-239 1270 0
-1269 1270 0
-239 -1269 0
-247 1271 0
-1270 1271 0
-247 -1270 0
-255 -1271 0
199 207 215 223 231 239 247 255 0
-200 1273 0
-208 1274 0
-1273 1274 0
-208 -1273 0
-216 1275 0
-1274 1275 0
-216 -1274 0
-224 1276 0
-1275 1276 0
-224 -1275 0
-232 1277 0
-1276 1277 0
-232 -1276 0
-240 1278 0
-1277 1278 0
-240 -1277 0
-248 1279 0
-1278 1279 0
-248 -1278 0
-256 -1279 0
200 208 216 224 232 240 248 256 0
-257 1281 0
-265 1282 0
-1281 1282 0
-265 -1281 0
-273 1283 0
-1282 1283 0
-273 -1282 0
-281 1284 0
-1283 1284 0
-281 -1283 0
-289 1285 0
-1284 1285 0
-289 -1284 0
-297 1286 0
-1285 1286 0
-297 -1285 0
-305 1287 0
-1286 1287 0
-305 -1286 0
-313 -1287 0
257 265 273 281 289 297 305 313 0
-258 1289 0
-266 1290 0
-1289 1290 0
-266 -1289 0
-274 1291 0
-1290 1291 0
-274 -1290 0
-282 1292 0
-1291 1292 0
-282 -1291 0
-290 1293 0
-1292 1293 0
-290 -1292 0
-298 1294 0
-1293 1294 0
-298 -1293 0
-306 1295 0
-1294 1295 0
-306 -1294 0
-314 -1295 0
258 266 274 282 290 298 306 314 0
-259 1297 0
-267 1298 0
-1297 1298 0
-267 -1297 0
-275 1299 0
-1298 1299 0
-275 -1298 0
-283 1300 0
-1299 1300 0
-283 -1299 0
-291 1301 0
-1300 1301 0
-291 -1300 0
-299 1302 0
-1301 1302 0
-299 -1301 0
-307 1303 0
-1302 1303 0
-307 -1302 0
-315 -1303 0
259 267 275 283 291 299 307 315 0
-260 1305 0
-268 1306 0
-1305 1306 0
-268 -1305 0
-276 1307 0
-1306 1307 0
-276 -1306 0
-284 1308 0
-1307 1308 0
-284 -1307 0
-292 1309 0
-1308 1309 0
-292 -1308 0
-300 1310 0
-1309 1310 0
-300 -1309 0
-308 1311 0
-1310 1311 0
-308 -1310 0
-316 -1311 0
260 268 276 284 292 300 308 316 0
-261 1313 0
-269 1314 0
-1313 1314 0
-269 -1313 0
-277 1315 0
-1314 1315 0
-277 -1314 0
-285 1316 0
-1315 1316 0
-285 -1315 0
-293 1317 0
-1316 1317 0
-293 -1316 0
-301 1318 0
-1317 1318 0
-301 -1317 0
-309 1319 0
-1318 1319 0
-309 -1318 0
-317 -1319 0
261 269 277 285 293 301 309 317 0
-262 1321 0
-270 1322 0
-1321 1322 0
-270 -1321 0
-278 1323 0
-1322 1323 0
-278 -1322 0
-286 1324 0
-1323 1324 0
-286 -1323 0
-294 1325 0
-1324 1325 0
-294 -1324 0
-302 1326 0
-1325 1326 0
-302 -1325 0
-310 1327 0
-1326 1327 0
-310 -1326 0
-318 -1327 0
262 270 278 286 294 302 310 318 0
-263 1329 0
-271 1330 0
-1329 1330 0
-271 -1329 0
-279 1331 0
-1330 1331 0
-279 -1330 0
-287 1332 0
-1331 1332 0
-287 -1331 0
-295 1333 0
-1332 1333 0
-295 -1332 0
-303 1334 0
-1333 1334 0
-303 -1333 0
-311 1335 0
-1334 1335 0
-311 -1334 0
-319 -1335 0
263 271 279 287 295 303 311 319 0
-264 1337 0
-272 1338 0
-1337 1338 0
-272 -1337 0
-280 1339 0
-1338 1339 0
-280 -1338 0
-288 1340 0
-1339 1340 0
-288 -1339 0
-296 1341 0
-1340 1341 0
-296 -1340 0
-304 1342 0
-1341 1342 0
-304 -1341 0
-312 1343 0
-1342 1343 0
-312 -1342 0
-320 -1343 0
264 272 280 288 296 304 312 320 0
-321 1345 0
-329 1346 0
-1345 1346 0
-329 -1345 0
-337 1347 0
-1346 1347 0
-337 -1346 0
-345 1348 0
-1347 1348 0
-345 -1347 0
-353 1349 0
-1348 1349 0
-353 -1348 0
-361 1350 0
-1349 1350 0
-361 -1349 0
-369 1351 0
-1350 1351 0
-369 -1350 0
-377 -1351 0
321 329 337 345 353 361 369 377 0
-322 1353 0
-330 1354 0
-1353 1354 0
-330 -1353 0
-338 1355 0
-1354 1355 0
-338 -1354 0
-346 1356 0
-1355 1356 0
-346 -1355 0
-354 1357 0
-1356 1357 0
-354 -1356 0
-362 1358 0
-1357 1358 0
-362 -1357 0
-370 1359 0
-1358 1359 0
-370 -1358 0
-378 -1359 0
322 330 338 346 354 362 370 378 0
-323 1361 0
-331 1362 0
-1361 1362 0
-331 -1361 0
-339 1363 0
-1362 1363 0
-339 -1362 0
-347 1364 0
-1363 1364 0
-347 -1363 0
-355 1365 0
-1364 1365 0
-355 -1364 0
-363 1366 0
-1365 1366 0
-363 -1365 0
-371 1367 0
-1366 1367 0
-371 -1366 0
-379 -1367 0
323 331 339 347 355 363 371 379 0
-324 1369 0
-332 1370 0
-1369 1370 0
-332 -1369 0
-340 1371 0
-1370 1371 0
-340 -1370 0
-348 1372 0
-1371 1372 0
-348 -1371 0
-356 1373 0
-1372 1373 0
-356 -1372 0
-364 1374 0
-1373 1374 0
-364 -1373 0
-372 1375 0
-1374 1375 0
-372 -1374 0
-380 -1375 0
324 332 340 348 356 364 372 380 0
-325 1377 0
-333 1378 0
-1377 1378 0
-333 -1377 0
-341 1379 0
-1378 1379 0
-341 -1378 0
-349 1380 0
-1379 1380 0
-349 -1379 0
-357 1381 0
-1380 1381 0
-357 -1380 0
-365 1382 0
-1381 1382 0
-365 -1381 0
-373 1383 0
-1382 1383 0
-373 -1382 0
-381 -1383 0
325 333 341 349 357 365 373 381 0
-326 1385 0
-334 1386 0
-1385 1386 0
-334 -1385 0
-342 1387 0
-1386 1387 0
-342 -1386 0
-350 1388 0
-1387 1388 0
-350 -1387 0
-358 1389 0
-1388 1389 0
-358 -1388 0
-366 1390 0
-1389 1390 0
-366 -1389 0
-374 1391 0
-1390 1391 0
-374 -1390 0
-382 -1391 0
326 334 342 350 358 366 374 382 0
-327 1393 0
-335 1394 0
-1393 1394 0
-335 -1393 0
-343 1395 0
-1394 1395 0
-343 -1394 0
-351 1396 0
-1395 1396 0
-351 -1395 0
-359 1397 0
-1396 1397 0
-359 -1396 0
-367 1398 0
-1397 1398 0
-367 -1397 0
-375 1399 0
-1398 1399 0
-375 -1398 0
-383 -1399 0
327 335 343 351 359 367 375 383 0
-328 1401 0
-336 1402 0
-1401 1402 0
-336 -1401 0
-344 1403 0
-1402 1403 0
-344 -1402 0
-352 1404 0
-1403 1404 0
-352 -1403 0
-360 1405 0
-1404 1405 0
-360 -1404 0
-368 1406 0
-1405 1406 0
-368 -1405 0
-376 1407 0
-1406 1407 0
-376 -1406 0
-384 -1407 0
328 336 344 352 360 368 376 384 0
-385 1409 0
-393 1410 0
-1409 1410 0
-393 -1409 0
-401 1411 0
-1410 1411 0
-401 -1410 0
-409 1412 0
-1411 1412 0
-409 -1411 0
-417 1413 0
-1412 1413 0
-417 -1412 0
-425 1414 0
-1413 1414 0
-425 -1413 0
-433 1415 0
-1414 1415 0
-433 -1414 0
-441 -1415 0
385 393 401 409 417 425 433 441 0
-386 1417 0
-394 1418 0
-1417 1418 0
-394 -1417 0
-402 1419 0
-1418 1419 0
-402 -1418 0
-410 1420 0
-1419 1420 0
-410 -1419 0
-418 1421 0
-1420 1421 0
-418 -1420 0
-426 1422 0
-1421 1422 0
-426 -1421 0
-434 1423 0
-1422 1423 0
-434 -1422 0
-442 -1423 0
386 394 402 410 418 426 434 442 0
-387 1425 0
-395 1426 0
-1425 1426 0
-395 -1425 0
-403 1427 0
-1426 1427 0
-403 -1426 0
-411 1428 0
-1427 1428 0
-411 -1427 0
-419 1429 0
-1428 1429 0
-419 -1428 0
-427 1430 0
-1429 1430 0
-427 -1429 0
-435 1431 0
-1430 1431 0
-435 -1430 0
-443 -1431 0
387 395 403 411 419 427 435 443 0
-388 1433 0
-396 1434 0
-1433 1434 0
-396 -1433 0
-404 1435 0
-1434 1435 0
-404 -1434 0
-412 1436 0
-1435 1436 0
-412 -1435 0
-420 1437 0
-1436 1437 0
-420 -1436 0
-428 1438 0
-1437 1438 0
-428 -1437 0
-436 1439 0
-1438 1439 0
-436 -1438 0
-444 -1439 0
388 396 404 412 420 428 436 444 0
-389 1441 0
-397 1442 0
-1441 1442 0
-397 -1441 0
-405 1443 0
-1442 1443 0
-405 -1442 0
-413 1444 0
-1443 1444 0
-413 -1443 0
-421 1445 0
-1444 1445 0
-421 -1444 0
-429 1446 0
-1445 1446 0
-429 -1445 0
-437 1447 0
-1446 1447 0
-437 -1446 0
-445 -1447 0
389 397 405 413 421 429 437 445 0
-390 1449 0
-398 1450 0
-1449 1450 0
-398 -1449 0
-406 1451 0
-1450 1451 0
-406 -1450 0
-414 1452 0
-1451 1452 0
-414 -1451 0
-422 1453 0
-1452 1453 0
-422 -1452 0
-430 1454 0
-1453 1454 0
-430 -1453 0
-438 1455 0
-1454 1455 0
-438 -1454 0
-446 -1455 0
390 398 406 414 422 430 438 446 0
-391 1457 0
-399 1458 0
-1457 1458 0
-399 -1457 0
-407 1459 0
-1458 1459 0
-407 -1458 0
-415 1460 0
-1459 1460 0
-415 -1459 0
-423 1461 0
-1460 1461 0
-423 -1460 0
-431 1462 0
-1461 1462 0
-431 -1461 0
-439 1463 0
-1462 1463 0
-439 -1462 0
-447 -1463 0
391 399 407 415 423 431 439 447 0
-392 1465 0
-400 1466 0
-1465 1466 0
-400 -1465 0
-408 1467 0
-1466 1467 0
-408 -1466 0
-416 1468 0
-1467 1468 0
-416 -1467 0
-424 1469 0
-1468 1469 0
-424 -1468 0
-432 1470 0
-1469 1470 0
-432 -1469 0
-440 1471 0
-1470 1471 0
-440 -1470 0
-448 -1471 0
392 400 408 416 424 432 440 448 0
-449 1473 0
-457 1474 0
-1473 1474 0
-457 -1473 0
-465 1475 0
-1474 1475 0
-465 -1474 0
-473 1476 0
-1475 1476 0
-473 -1475 0
-481 1477 0
-1476 1477 0
-481 -1476 0
-489 1478 0
-1477 1478 0
-489 -1477 0
-497 1479 0
-1478 1479 0
-497 -1478 0
-505 -1479 0
449 457 465 473 481 489 497 505 0
-450 1481 0
-458 1482 0
-1481 1482 0
-458 -1481 0
-466 1483 0
-1482 1483 0
-466 -1482 0
-474 1484 0
-1483 1484 0
-474 -1483 0
-482 1485 0
-1484 1485 0
-482 -1484 0
-490 1486 0
-1485 1486 0
-490 -1485 0
-498 1487 0
-1486 1487 0
-498 -1486 0
-506 -1487 0
450 458 466 474 482 490 498 506 0
-451 1489 0
-459 1490 0
-1489 1490 0
-459 -1489 0
-467 1491 0
-1490 1491 0
-467 -1490 0
-475 1492 0
-1491 1492 0
-475 -1491 0
-483 1493 0
-1492 1493 0
-483 -1492 0
-491 1494 0
-1493 1494 0
-491 -1493 0
-499 1495 0
-1494 1495 0
-499 -1494 0
-507 -1495 0
451 459 467 475 483 491 499 507 0
-452 1497 0
-460 1498 0
-1497 1498 0
-460 -1497 0
-468 1499 0
-1498 1499 0
-468 -1498 0
-476 1500 0
-1499 1500 0
-476 -1499 0
-484 1501 0
-1500 1501 0
-484 -1500 0
-492 1502 0
-1501 1502 0
-492 -1501 0
-500 1503 0
-1502 1503 0
-500 -1502 0
-508 -1503 0
452 460 468 476 484 492 500 508 0
-453 1505 0
-461 1506 0
-1505 1506 0
-461 -1505 0
-469 1507 0
-1506 1507 0
-469 -1506 0
-477 1508 0
-1507 1508 0
-477 -1507 0
-485 1509 0
-1508 1509 0
-485 -1508 0
-493 1510 0
-1509 1510 0
-493 -1509 0
-501 1511 0
-1510 1511 0
-501 -1510 0
-509 -1511 0
453 461 469 477 485 493 501 509 0
-454 1513 0
-462 1514 0
-1513 1514 0
-462 -1513 0
-470 1515 0
-1514 1515 0
-470 -1514 0
-478 1516 0
-1515 1516 0
-478 -1515 0
-486 1517 0
-1516 1517 0
-486 -1516 0
-494 1518 0
-1517 1518 0
-494 -1517 0
-502 1519 0
-1518 1519 0
-502 -1518 0
-510 -1519 0
454 462 470 478 486 494 502 510 0
-455 1521 0
-463 1522 0
-1521 1522 0
-463 -1521 0
-471 1523 0
-1522 1523 0
-471 -1522 0
-479 1524 0
-1523 1524 0
-479 -1523 0
-487 1525 0
-1524 1525 0
-487 -1524 0
-495 1526 0
-1525 1526 0
-495 -1525 0
-503 1527 0
-1526 1527 0
-503 -1526 0
-511 -1527 0
455 463 471 479 487 495 503 511 0
-456 1529 0
-464 1530 0
-1529 1530 0
-464 -1529 0
-472 1531 0
-1530 1531 0
-472 -1530 0
-480 1532 0
-1531 1532 0
-480 -1531 0
-488 1533 0
-1532 1533 0
-488 -1532 0
-496 1534 0
-1533 1534 0
-496 -1533 0
-504 1535 0
-1534 1535 0
-504 -1534 0
-512 -1535 0
456 464 472 480 488 496 504 512 0
-1 1537 0
-65 1538 0
-1537 1538 0
-65 -1537 0
-129 1539 0
-1538 1539 0
-129 -1538 0
-193 1540 0
-1539 1540 0
-193 -1539 0
-257 1541 0
-1540 1541 0
-257 -1540 0
-321 1542 0
-1541 1542 0
-321 -1541 0
-385 1543 0
-1542 1543 0
-385 -1542 0
-449 -1543 0
1 65 129 193 257 321 385 449 0
-2 1545 0
-66 1546 0
-1545 1546 0
-66 -1545 0
-130 1547 0
-1546 1547 0
-130 -1546 0
-194 1548 0
-1547 1548 0
-194 -1547 0
-258 1549 0
-1548 1549 0
-258 -1548 0
-322 1550 0
-1549 1550 0
-322 -1549 0
-386 1551 0
-1550 1551 0
-386 -1550 0
-450 -1551 0
2 66 130 194 258 322 386 450 0
-3 1553 0
-67 1554 0
-1553 1554 0
-67 -1553 0
-131 1555 0
-1554 1555 0
-131 -1554 0
-195 1556 0
-1555 1556 0
-195 -1555 0
-259 1557 0
-1556 1557 0
-259 -1556 0
-323 1558 0
-1557 1558 0
-323 -1557 0
-387 1559 0
-1558 1559 0
-387 -1558 0
-451 -1559 0
3 67 131 195 259 323 387 451 0
-4 1561 0
-68 1562 0
-1561 1562 0
-68 -1561 0
-132 1563 0
-1562 1563 0
-132 -1562 0
-196 1564 0
-1563 1564 0
-196 -1563 0
-260 1565 0
-1564 1565 0
-260 -1564 0
-324 1566 0
-1565 1566 0
-324 -1565 0
-388 1567 0
-1566 1567 0
-388 -1566 0
-452 -1567 0
4 68 132 196 260 324 388 452 0
-5 1569 0
-69 1570 0
-1569 1570 0
-69 -1569 0
-133 1571 0
-1570 1571 0
-133 -1570 0
-197 1572 0
-1571 1572 0
-197 -1571 0
-261 1573 0
-1572 1573 0
-261 -1572 0
-325 1574 0
-1573 1574 0
-325 -1573 0
-389 1575 0
-1574 1575 0
-389 -1574 0
-453 -1575 0
5 69 133 197 261 325 389 453 0
-6 1577 0
-70 1578 0
-1577 1578 0
-70 -1577 0
-134 1579 0
-1578 1579 0
-134 -1578 0
-198 1580 0
-1579 1580 0
-198 -1579 0
-262 1581 0
-1580 1581 0
-262 -1580 0
-326 1582 0
-1581 1582 0
-326 -1581 0
-390 1583 0
-1582 1583 0
-390 -1582 0
-454 -1583 0
6 70 134 198 262 326 390 454 0
-7 1585 0
-71 1586 0
-1585 1586 0
-71 -1585 0
-135 1587 0
-1586 1587 0
-135 -1586 0
-199 1588 0
-1587 1588 0
-199 -1587 0
-263 1589 0
-1588 1589 0
-263 -1588 0
-327 1590 0
-1589 1590 0
-327 -1589 0
-391 1591 0
-1590 1591 0
-391 -1590 0
-455 -1591 0
7 71 135 199 263 327 391 455 0
-8 1593 0
-72 1594 0
-1593 1594 0
-72 -1593 0
-136 1595 0
-1594 1595 0
-136 -1594 0
-200 1596 0
-1595 1596 0
-200 -1595 0
-264 1597 0
-1596 1597 0
-264 -1596 0
-328 1598 0
-1597 1598 0
-328 -1597 0
-392 1599 0
-1598 1599 0
-392 -1598 0
-456 -1599 0
8 72 136 200 264 328 392 456 0
-9 1601 0
-73 1602 0
-1601 1602 0
-73 -1601 0
-137 1603 0
-1602 1603 0
-137 -1602 0
-201 1604 0
-1603 1604 0
-201 -1603 0
-265 1605 0
-1604 1605 0
-265 -1604 0
-329 1606 0
-1605 1606 0
-329 -1605 0
-393 1607 0
-1606 1607 0
-393 -1606 0
-457 -1607 0
9 73 137 201 265 329 393 457 0
-10 1609 0
-74 1610 0
-1609 1610 0
-74 -1609 0
-138 1611 0
-1610 1611 0
-138 -1610 0
-202 1612 0
-1611 1612 0
-202 -1611 0
-266 1613 0
-1612 1613 0
-266 -1612 0
-330 1614 0
-1613 1614 0
-330 -1613 0
-394 1615 0
-1614 1615 0
-394 -1614 0
-458 -1615 0
10 74 138 202 266 330 394 458 0
-11 1617 0
-75 1618 0
-1617 1618 0
-75 -1617 0
-139 1619 0
-1618 1619 0
-139 -1618 0
-203 1620 0
-1619 1620 0
-203 -1619 0
-267 1621 0
-1620 1621 0
-267 -1620 0
-331 1622 0
-1621 1622 0
-331 -1621 0
-395 1623 0
-1622 1623 0
-395 -1622 0
-459 -1623 0
11 75 139 203 267 331 395 459 0
-12 1625 0
-76 1626 0
-1625 1626 0
-76 -1625 0
-140 1627 0
-1626 1627 0
-140 -1626 0
-204 1628 0
-1627 1628 0
-204 -1627 0
-268 1629 0
-1628 1629 0
-268 -1628 0
-332 1630 0
-1629 1630 0
-332 -1629 0
-396 1631 0
-1630 1631 0
-396 -1630 0
-460 -1631 0
12 76 140 204 268 332 396 460 0
-13 1633 0
-77 1634 0
-1633 1634 0
-77 -1633 0
-141 1635 0
-1634 1635 0
-141 -1634 0
-205 1636 0
-1635 1636 0
-205 -1635 0
-269 1637 0
-1636 1637 0
-269 -1636 0
-333 1638 0
-1637 1638 0
-333 -1637 0
-397 1639 0
-1638 1639 0
-397 -1638 0
-461 -1639 0
13 77 141 205 269 333 397 461 0
-14 1641 0
-78 1642 0
-1641 1642 0
-78 -1641 0
-142 1643 0
-1642 1643 0
-142 -1642 0
-206 1644 0
-1643 1644 0
-206 -1643 0
-270 1645 0
-1644 1645 0
-270 -1644 0
-334 1646 0
-1645 1646 0
-334 -1645 0
-398 1647 0
-1646 1647 0
-398 -1646 0
-462 -1647 0
14 78 142 206 270 334 398 462 0
-15 1649 0
-79 1650 0
-1649 1650 0
-79 -1649 0
-143 1651 0
-1650 1651 0
-143 -1650 0
-207 1652 0
-1651 1652 0
-207 -1651 0
-271 1653 0
-1652 1653 0
-271 -1652 0
-335 1654 0
-1653 1654 0
-335 -1653 0
-399 1655 0
-1654 1655 0
-399 -1654 0
-463 -1655 0
15 79 143 207 271 335 399 463 0
-16 1657 0
-80 1658 0
-1657 1658 0
-80 -1657 0
-144 1659 0
-1658 1659 0
-144 -1658 0
-208 1660 0
-1659 1660 0
-208 -1659 0
-272 1661 0
-1660 1661 0
-272 -1660 0
-336 1662 0
-1661 1662 0
-336 -1661 0
-400 1663 0
-1662 1663 0
-400 -1662 0
-464 -1663 0
16 80 144 208 272 336 400 464 0
-17 1665 0
-81 1666 0
-1665 1666 0
-81 -1665 0
-145 1667 0
-1666 1667 0
-145 -1666 0
-209 1668 0
-1667 1668 0
-209 -1667 0
-273 1669 0
-1668 1669 0
-273 -1668 0
-337 1670 0
-1669 1670 0
-337 -1669 0
-401 1671 0
-1670 1671 0
-401 -1670 0
-465 -1671 0
17 81 145 209 273 337 401 465 0
-18 1673 0
-82 1674 0
-1673 1674 0
-82 -1673 0
-146 1675 0
-1674 1675 0
-146 -1674 0
-210 1676 0
-1675 1676 0
-210 -1675 0
-274 1677 0
-1676 1677 0
-274 -1676 0
-338 1678 0
-1677 1678 0
-338 -1677 0
-402 1679 0
-1678 1679 0
-402 -1678 0
-466 -1679 0
18 82 146 210 274 338 402 466 0
-19 1681 0
-83 1682 0
-1681 1682 0
-83 -1681 0
-147 1683 0
-1682 1683 0
-147 -1682 0
-211 1684 0
-1683 1684 0
-211 -1683 0
-275 1685 0
-1684 1685 0
-275 -1684 0
-339 1686 0
-1685 1686 0
-339 -1685 0
-403 1687 0
-1686 1687 0
-403 -1686 0
-467 -1687 0
19 83 147 211 275 339 403 467 0
-20 1689 0
-84 1690 0
-1689 1690 0
-84 -1689 0
-148 1691 0
-1690 1691 0
-148 -1690 0
-212 1692 0
-1691 1692 0
-212 -1691 0
-276 1693 0
-1692 1693 0
-276 -1692 0
-340 1694 0
-1693 1694 0
-340 -1693 0
-404 1695 0
-1694 1695 0
-404 -1694 0
-468 -1695 0
20 84 148 212 276 340 404 468 0
-21 1697 0
-85 1698 0
-1697 1698 0
-85 -1697 0
-149 1699 0
-1698 1699 0
-149 -1698 0
-213 1700 0
-1699 1700 0
-213 -1699 0
-277 1701 0
-1700 1701 0
-277 -1700 0
-341 1702 0
-1701 1702 0
-341 -1701 0
-405 1703 0
-1702 1703 0
-405 -1702 0
-469 -1703 0
21 85 149 213 277 341 405 469 0
-22 1705 0
-86 1706 0
-1705 1706 0
-86 -1705 0
-150 1707 0
-1706 1707 0
-150 -1706 0
-214 1708 0
-1707 1708 0
-214 -1707 0
-278 1709 0
-1708 1709 0
-278 -1708 0
-342 1710 0
-1709 1710 0
-342 -1709 0
-406 1711 0
-1710 1711 0
-406 -1710 0
-470 -1711 0
22 86 150 214 278 342 406 470 0
-23 1713 0
-87 1714 0
-1713 1714 0
-87 -1713 0
-151 1715 0
-1714 1715 0
-151 -1714 0
-215 1716 0
-1715 1716 0
-215 -1715 0
-279 1717 0
-1716 1717 0
-279 -1716 0
-343 1718 0
-1717 1718 0
-343 -1717 0
-407 1719 0
-1718 1719 0
-407 -1718 0
-471 -1719 0
23 87 151 215 279 343 407 471 0
-24 1721 0
-88 1722 0
-1721 1722 0
-88 -1721 0
-152 1723 0
-1722 1723 0
-152 -1722 0
-216 1724 0
-1723 1724 0
-216 -1723 0
-280 1725 0
-1724 1725 0
-280 -1724 0
-344 1726 0
-1725 1726 0
-344 -1725 0
-408 1727 0
-1726 1727 0
-408 -1726 0
-472 -1727 0
24 88 152 216 280 344 408 472 0
-25 1729 0
-89 1730 0
-1729 1730 0
-89 -1729 0
-153 1731 0
-1730 1731 0
-153 -1730 0
-217 1732 0
-1731 1732 0
-217 -1731 0
-281 1733 0
-1732 1733 0
-281 -1732 0
-345 1734 0
-1733 1734 0
-345 -1733 0
-409 1735 0
-1734 1735 0
-409 -1734 0
-473 -1735 0
25 89 153 217 281 345 409 473 0
-26 1737 0
-90 1738 0
-1737 1738 0
-90 -1737 0
-154 1739 0
-1738 1739 0
-154 -1738 0
-218 1740 0
-1739 1740 0
-218 -1739 0
-282 1741 0
-1740 1741 0
-282 -1740 0
-346 1742 0
-1741 1742 0
-346 -1741 0
-410 1743 0
-1742 1743 0
-410 -1742 0
-474 -1743 0
26 90 154 218 282 346 410 474 0
-27 1745 0
-91 1746 0
-1745 1746 0
-91 -1745 0
-155 1747 0
-1746 1747 0
-155 -1746 0
-219 1748 0
-1747 1748 0
-219 -1747 0
-283 1749 0
-1748 1749 0
-283 -1748 0
-347 1750 0
-1749 1750 0
-347 -1749 0
-411 1751 0
-1750 1751 0
-411 -1750 0
-475 -1751 0
27 91 155 219 283 347 411 475 0
-28 1753 0
-92 1754 0
-1753 1754 0
-92 -1753 0
-156 1755 0
-1754 1755 0
-156 -1754 0
-220 1756 0
-1755 1756 0
-220 -1755 0
-284 1757 0
-1756 1757 0
-284 -1756 0
-348 1758 0
-1757 1758 0
-348 -1757 0
-412 1759 0
-1758 1759 0
-412 -1758 0
-476 -1759 0
28 92 156 220 284 348 412 476 0
-29 1761 0
-93 1762 0
-1761 1762 0
-93 -1761 0
-157 1763 0
-1762 1763 0
-157 -1762 0
-221 1764 0
-1763 1764 0
-221 -1763 0
-285 1765 0
-1764 1765 0
-285 -1764 0
-349 1766 0
-1765 1766 0
-349 -1765 0
-413 1767 0
-1766 1767 0
-413 -1766 0
-477 -1767 0
29 93 157 221 285 349 413 477 0
-30 1769 0
-94 1770 0
-1769 1770 0
-94 -1769 0
-158 1771 0
-1770 1771 0
-158 -1770 0
-222 1772 0
-1771 1772 0
-222 -1771 0
-286 1773 0
-1772 1773 0
-286 -1772 0
-350 1774 0
-1773 1774 0
-350 -1773 0
-414 1775 0
-1774 1775 0
-414 -1774 0
-478 -1775 0
30 94 158 222 286 350 414 478 0
-31 1777 0
-95 1778 0
-1777 1778 0
-95 -1777 0
-159 1779 0
-1778 1779 0
-159 -1778 0
-223 1780 0
-1779 1780 0
-223 -1779 0
-287 1781 0
-1780 1781 0
-287 -1780 0
-351 1782 0
-1781 1782 0
-351 -1781 0
-415 1783 0
-1782 1783 0
-415 -1782 0
-479 -1783 0
31 95 159 223 287 351 415 479 0
-32 1785 0
-96 1786 0
-1785 1786 0
-96 -1785 0
-160 1787 0
-1786 1787 0
-160 -1786 0
-224 1788 0
-1787 1788 0
-224 -1787 0
-288 1789 0
-1788 1789 0
-288 -1788 0
-352 1790 0
-1789 1790 0
-352 -1789 0
-416 1791 0
-1790 1791 0
-416 -1790 0
-480 -1791 0
32 96 160 224 288 352 416 480 0
-33 1793 0
-97 1794 0
-1793 1794 0
-97 -1793 0
-161 1795 0
-1794 1795 0
-161 -1794 0
-225 1796 0
-1795 1796 0
-225 -1795 0
-289 1797 0
-1796 1797 0
-289 -1796 0
-353 1798 0
-1797 1798 0
-353 -1797 0
-417 1799 0
-1798 1799 0
-417 -1798 0
-481 -1799 0
33 97 161 225 289 353 417 481 0
-34 1801 0
-98 1802 0
-1801 1802 0
-98 -1801 0
-162 1803 0
-1802 1803 0
-162 -1802 0
-226 1804 0
-1803 1804 0
-226 -1803 0
-290 1805 0
-1804 1805 0
-290 -1804 0
-354 1806 0
-1805 1806 0
-354 -1805 0
-418 1807 0
-1806 1807 0
-418 -1806 0
-482 -1807 0
34 98 162 226 290 354 418 482 0
-35 1809 0
-99 1810 0
-1809 1810 0
-99 -1809 0
-163 1811 0
-1810 1811 0
-163 -1810 0
-227 1812 0
-1811 1812 0
-227 -1811 0
-291 1813 0
-1812 1813 0
-291 -1812 0
-355 1814 0
-1813 1814 0
-355 -1813 0
-419 1815 0
-1814 1815 0
-419 -1814 0
-483 -1815 0
35 99 163 227 291 355 419 483 0
-36 1817 0
-100 1818 0
-1817 1818 0
-100 -1817 0
-164 1819 0
-1818 1819 0
-164 -1818 0
-228 1820 0
-1819 1820 0
-228 -1819 0
-292 1821 0
-1820 1821 0
-292 -1820 0
-356 1822 0
-1821 1822 0
-356 -1821 0
-420 1823 0
-1822 1823 0
-420 -1822 0
-484 -1823 0
36 100 164 228 292 356 420 484 0
-37 1825 0
-101 1826 0
-1825 1826 0
-101 -1825 0
-165 1827 0
-1826 1827 0
-165 -1826 0
-229 1828 0
-1827 1828 0
-229 -1827 0
-293 1829 0
-1828 1829 0
-293 -1828 0
-357 1830 0
-1829 1830 0
-357 -1829 0
-421 1831 0
-1830 1831 0
-421 -1830 0
-485 -1831 0
37 101 165 229 293 357 421 485 0
-38 1833 0
-102 1834 0
-1833 1834 0
-102 -1833 0
-166 1835 0
-1834 1835 0
-166 -1834 0
-230 1836 0
-1835 1836 0
-230 -1835 0
-294 1837 0
-1836 1837 0
-294 -1836 0
-358 1838 0
-1837 1838 0
-358 -1837 0
-422 1839 0
-1838 1839 0
-422 -1838 0
-486 -1839 0
38 102 166 230 294 358 422 486 0
-39 1841 0
-103 1842 0
-1841 1842 0
-103 -1841 0
-167 1843 0
-1842 1843 0
-167 -1842 0
-231 1844 0
-1843 1844 0
-231 -1843 0
-295 1845 0
-1844 1845 0
-295 -1844 0
-359 1846 0
-1845 1846 0
-359 -1845 0
-423 1847 0
-1846 1847 0
-423 -1846 0
-487 -1847 0
39 103 167 231 295 359 423 487 0
-40 1849 0
-104 1850 0
-1849 1850 0
-104 -1849 0
-168 1851 0
-1850 1851 0
-168 -1850 0
-232 1852 0
-1851 1852 0
-232 -1851 0
-296 1853 0
-1852 1853 0
-296 -1852 0
-360 1854 0
-1853 1854 0
-360 -1853 0
-424 1855 0
-1854 1855 0
-424 -1854 0
-488 -1855 0
40 104 168 232 296 360 424 488 0
-41 1857 0
-105 1858 0
-1857 1858 0
-105 -1857 0
-169 1859 0
-1858 1859 0
-169 -1858 0
-233 1860 0
-1859 1860 0
-233 -1859 0
-297 1861 0
-1860 1861 0
-297 -1860 0
-361 1862 0
-1861 1862 0
-361 -1861 0
-425 1863 0
-1862 1863 0
-425 -1862 0
-489 -1863 0
41 105 169 233 297 361 425 489 0
-42 1865 0
-106 1866 0
-1865 1866 0
-106 -1865 0
-170 1867 0
-1866 1867 0
-170 -1866 0
-234 1868 0
-1867 1868 0
-234 -1867 0
-298 1869 0
-1868 1869 0
-298 -1868 0
-362 1870 0
-1869 1870 0
-362 -1869 0
-426 1871 0
-1870 1871 0
-426 -1870 0
-490 -1871 0
42 106 170 234 298 362 426 490 0
-43 1873 0
-107 1874 0
-1873 1874 0
-107 -1873 0
-171 1875 0
-1874 1875 0
-171 -1874 0
-235 1876 0
-1875 1876 0
-235 -1875 0
-299 1877 0
-1876 1877 0
-299 -1876 0
-363 1878 0
-1877 1878 0
-363 -1877 0
-427 1879 0
-1878 1879 0
-427 -1878 0
-491 -1879 0
43 107 171 235 299 363 427 491 0
-44 1881 0
-108 1882 0
-1881 1882 0
-108 -1881 0
-172 1883 0
-1882 1883 0
-172 -1882 0
-236 1884 0
-1883 1884 0
-236 -1883 0
-300 1885 0
-1884 1885 0
-300 -1884 0
-364 1886 0
-1885 1886 0
-364 -1885 0
-428 1887 0
-1886 1887 0
-428 -1886 0
-492 -1887 0
44 108 172 236 300 364 428 492 0
-45 1889 0
-109 1890 0
-1889 1890 0
-109 -1889 0
-173 1891 0
-1890 1891 0
-173 -1890 0
-237 1892 0
-1891 1892 0
-237 -1891 0
-301 1893 0
-1892 1893 0
-301 -1892 0
-365 1894 0
-1893 1894 0
-365 -1893 0
-429 1895 0
-1894 1895 0
-429 -1894 0
-493 -1895 0
45 109 173 237 301 365 429 493 0
-46 1897 0
-110 1898 0
-1897 1898 0
-110 -1897 0
-174 1899 0
-1898 1899 0
-174 -1898 0
-238 1900 0
-1899 1900 0
-238 -1899 0
-302 1901 0
-1900 1901 0
-302 -1900 0
-366 1902 0
-1901 1902 0
-366 -1901 0
-430 1903 0
-1902 1903 0
-430 -1902 0
-494 -1903 0
46 110 174 238 302 366 430 494 0
-47 1905 0
-111 1906 0
-1905 1906 0
-111 -1905 0
-175 1907 0
-1906 1907 0
-175 -1906 0
-239 1908 0
-1907 1908 0
-239 -1907 0
-303 1909 0
-1908 1909 0
-303 -1908 0
-367 1910 0
-1909 1910 0
-367 -1909 0
-431 1911 0
-1910 1911 0
-431 -1910 0
-495 -1911 0
47 111 175 239 303 367 431 495 0
-48 1913 0
-112 1914 0
-1913 1914 0
-112 -1913 0
-176 1915 0
-1914 1915 0
-176 -1914 0
-240 1916 0
-1915 1916 0
-240 -1915 0
-304 1917 0
-1916 1917 0
-304 -1916 0
-368 1918 0
-1917 1918 0
-368 -1917 0
-432 1919 0
-1918 1919 0
-432 -1918 0
-496 -1919 0
48 112 176 240 304 368 432 496 0
-49 1921 0
-113 1922 0
-1921 1922 0
-113 -1921 0
-177 1923 0
-1922 1923 0
-177 -1922 0
-241 1924 0
-1923 1924 0
-241 -1923 0
-305 1925 0
-1924 1925 0
-305 -1924 0
-369 1926 0
-1925 1926 0
-369 -1925 0
-433 1927 0
-1926 1927 0
-433 -1926 0
-497 -1927 0
49 113 177 241 305 369 433 497 0
-50 1929 0
-114 1930 0
-1929 1930 0
-114 -1929 0
-178 1931 0
-1930 1931 0
-178 -1930 0
-242 1932 0
-1931 1932 0
-242 -1931 0
-306 1933 0
-1932 1933 0
-306 -1932 0
-370 1934 0
-1933 1934 0
-370 -1933 0
-434 1935 0
-1934 1935 0
-434 -1934 0
-498 -1935 0
50 114 178 242 306 370 434 498 0
-51 1937 0
-115 1938 0
-1937 1938 0
-115 -1937 0
-179 1939 0
-1938 1939 0
-179 -1938 0
-243 1940 0
-1939 1940 0
-243 -1939 0
-307 1941 0
-1940 1941 0
-307 -1940 0
-371 1942 0
-1941 1942 0
-371 -1941 0
-435 1943 0
-1942 1943 0
-435 -1942 0
-499 -1943 0
51 115 179 243 307 371 435 499 0
-52 1945 0
-116 1946 0
-1945 1946 0
-116 -1945 0
-180 1947 0
-1946 1947 0
-180 -1946 0
-244 1948 0
-1947 1948 0
-244 -1947 0
-308 1949 0
-1948 1949 0
-308 -1948 0
-372 1950 0
-1949 1950 0
-372 -1949 0
-436 1951 0
-1950 1951 0
-436 -1950 0
-500 -1951 0
52 116 180 244 308 372 436 500 0
-53 1953 0
-117 1954 0
-1953 1954 0
-117 -1953 0
-181 1955 0
-1954 1955 0
-181 -1954 0
-245 1956 0
-1955 1956 0
-245 -1955 0
-309 1957 0
-1956 1957 0
-309 -1956 0
-373 1958 0
-1957 1958 0
-373 -1957 0
-437 1959 0
-1958 1959 0
-437 -1958 0
-501 -1959 0
53 117 181 245 309 373 437 501 0
-54 1961 0
-118 1962 0
-1961 1962 0
-118 -1961 0
-182 1963 0
-1962 1963 0
-182 -1962 0
-246 1964 0
-1963 1964 0
-246 -1963 0
-310 1965 0
-1964 1965 0
-310 -1964 0
-374 1966 0
-1965 1966 0
-374 -1965 0
-438 1967 0
-1966 1967 0
-438 -1966 0
-502 -1967 0
54 118 182 246 310 374 438 502 0
-55 1969 0
-119 1970 0
-1969 1970 0
-119 -1969 0
-183 1971 0
-1970 1971 0
-183 -1970 0
-247 1972 0
-1971 1972 0
-247 -1971 0
-311 1973 0
-1972 1973 0
-311 -1972 0
-375 1974 0
-1973 1974 0
-375 -1973 0
-439 1975 0
-1974 1975 0
-439 -1974 0
-503 -1975 0
55 119 183 247 311 375 439 503 0
-56 1977 0
-120 1978 0
-1977 1978 0
-120 -1977 0
-184 1979 0
-1978 1979 0
-184 -1978 0
-248 1980 0
-1979 1980 0
-248 -1979 0
-312 1981 0
-1980 1981 0
-312 -1980 0
-376 1982 0
-1981 1982 0
-376 -1981 0
-440 1983 0
-1982 1983 0
-440 -1982 0
-504 -1983 0
56 120 184 248 312 376 440 504 0
-57 1985 0
-121 1986 0
-1985 1986 0
-121 -1985 0
-185 1987 0
-1986 1987 0
-185 -1986 0
-249 1988 0
-1987 1988 0
-249 -1987 0
-313 1989 0
-1988 1989 0
-313 -1988 0
-377 1990 0
-1989 1990 0
-377 -1989 0
-441 1991 0
-1990 1991 0
-441 -1990 0
-505 -1991 0
57 121 185 249 313 377 441 505 0
-58 1993 0
-122 1994 0
-1993 1994 0
-122 -1993 0
-186 1995 0
-1994 1995 0
-186 -1994 0
-250 1996 0
-1995 1996 0
-250 -1995 0
-314 1997 0
-1996 1997 0
-314 -1996 0
-378 1998 0
-1997 1998 0
-378 -1997 0
-442 1999 0
-1998 1999 0
-442 -1998 0
-506 -1999 0
58 122 186 250 314 378 442 506 0
-59 2001 0
-123 2002 0
-2001 2002 0
-123 -2001 0
-187 2003 0
-2002 2003 0
-187 -2002 0
-251 2004 0
-2003 2004 0
-251 -2003 0
-315 2005 0
-2004 2005 0
-315 -2004 0
-379 2006 0
-2005 2006 0
-379 -2005 0
-443 2007 0
-2006 2007 0
-443 -2006 0
-507 -2007 0
59 123 187 251 315 379 443 507 0
-60 2009 0
-124 2010 0
-2009 2010 0
-124 -2009 0
-188 2011 0
-2010 2011 0
-188 -2010 0
-252 2012 0
-2011 2012 0
-252 -2011 0
-316 2013 0
-2012 2013 0
-316 -2012 0
-380 2014 0
-2013 2014 0
-380 -2013 0
-444 2015 0
-2014 2015 0
-444 -2014 0
-508 -2015 0
60 124 188 252 316 380 444 508 0
-61 2017 0
-125 2018 0
-2017 2018 0
-125 -2017 0
-189 2019 0
-2018 2019 0
-189 -2018 0
-253 2020 0
-2019 2020 0
-253 -2019 0
-317 2021 0
-2020 2021 0
-317 -2020 0
-381 2022 0
-2021 2022 0
-381 -2021 0
-445 2023 0
-2022 2023 0
-445 -2022 0
-509 -2023 0
61 125 189 253 317 381 445 509 0
-62 2025 0
-126 2026 0
-2025 2026 0
-126 -2025 0
-190 2027 0
-2026 2027 0
-190 -2026 0
-254 2028 0
-2027 2028 0
-254 -2027 0
-318 2029 0
-2028 2029 0
-318 -2028 0
-382 2030 0
-2029 2030 0
-382 -2029 0
-446 2031 0
-2030 2031 0
-446 -2030 0
-510 -2031 0
62 126 190 254 318 382 446 510 0
-63 2033 0
-127 2034 0
-2033 2034 0
-127 -2033 0
-191 2035 0
-2034 2035 0
-191 -2034 0
-255 2036 0
-2035 2036 0
-255 -2035 0
-319 2037 0
-2036 2037 0
-319 -2036 0
-383 2038 0
-2037 2038 0
-383 -2037 0
-447 2039 0
-2038 2039 0
-447 -2038 0
-511 -2039 0
63 127 191 255 319 383 447 511 0
-64 2041 0
-128 2042 0
-2041 2042 0
-128 -2041 0
-192 2043 0
-2042 2043 0
-192 -2042 0
-256 2044 0
-2043 2044 0
-256 -2043 0
-320 2045 0
-2044 2045 0
-320 -2044 0
-384 2046 0
-2045 2046 0
-384 -2045 0
-448 2047 0
-2046 2047 0
-448 -2046 0
-512 -2047 0
64 128 192 256 320 384 448 512 0
-2049 2057 0
-2058 0
-2059 0
-2060 0
-2061 0
-2062 0
-2050 2063 0
-2057 2063 0
-2050 -2057 2064 0
-2058 2064 0
-2050 -2058 2065 0
-2059 2065 0
-2050 -2059 2066 0
-2060 2066 0
-2050 -2060 2067 0
-2061 2067 0
-2050 -2061 2068 0
-2062 2068 0
-2050 -2062 0
-2051 2069 0
-2063 2069 0
-2051 -2063 2070 0
-2064 2070 0
-2051 -2064 2071 0
-2065 2071 0
-2051 -2065 2072 0
-2066 2072 0
-2051 -2066 2073 0
-2067 2073 0
-2051 -2067 2074 0
-2068 2074 0
-2051 -2068 0
-2052 2075 0
-2069 2075 0
-2052 -2069 2076 0
-2070 2076 0
-2052 -2070 2077 0
-2071 2077 0
-2052 -2071 2078 0
-2072 2078 0
-2052 -2072 2079 0
-2073 2079 0
-2052 -2073 2080 0
-2074 2080 0
-2052 -2074 0
-2053 2081 0
-2075 2081 0
-2053 -2075 2082 0
-2076 2082 0
-2053 -2076 2083 0
-2077 2083 0
-2053 -2077 2084 0
-2078 2084 0
-2053 -2078 2085 0
-2079 2085 0
-2053 -2079 2086 0
-2080 2086 0
-2053 -2080 0
-2054 2087 0
-2081 2087 0
-2054 -2081 2088 0
-2082 2088 0
-2054 -2082 2089 0
-2083 2089 0
-2054 -2083 2090 0
-2084 2090 0
-2054 -2084 2091 0
-2085 2091 0
-2054 -2085 2092 0
-2086 2092 0
-2054 -2086 0
-2055 2093 0
-2087 2093 0
-2055 -2087 2094 0
-2088 2094 0
-2055 -2088 2095 0
-2089 2095 0
-2055 -2089 2096 0
-2090 2096 0
-2055 -2090 2097 0
-2091 2097 0
-2055 -2091 2098 0
-2092 2098 0
-2055 -2092 0
-2056 -2098 0
2049 2105 0
-2106 0
2050 2107 0
-2105 2107 0
2050 -2105 2108 0
-2106 2108 0
2050 -2106 0
2051 2109 0
-2107 2109 0
2051 -2107 2110 0
-2108 2110 0
2051 -2108 0
2052 2111 0
-2109 2111 0
2052 -2109 2112 0
-2110 2112 0
2052 -2110 0
2053 2113 0
-2111 2113 0
2053 -2111 2114 0
-2112 2114 0
2053 -2112 0
2054 2115 0
-2113 2115 0
2054 -2113 2116 0
-2114 2116 0
2054 -2114 0
2055 2117 0
-2115 2117 0
2055 -2115 2118 0
-2116 2118 0
2055 -2116 0
2056 -2118 0
-49 2121 0
-121 2122 0
-2121 2122 0
-121 -2121 0
-2049 -2122 0
49 121 2049 0
-50 2124 0
-122 2125 0
-2124 2125 0
-122 -2124 0
-2050 -2125 0
50 122 2050 0
-51 2127 0
-123 2128 0
-2127 2128 0
-123 -2127 0
-2051 -2128 0
51 123 2051 0
-52 2130 0
-124 2131 0
-2130 2131 0
-124 -2130 0
-2052 -2131 0
52 124 2052 0
-53 2133 0
-125 2134 0
-2133 2134 0
-125 -2133 0
-2053 -2134 0
53 125 2053 0
-54 2136 0
-126 2137 0
-2136 2137 0
-126 -2136 0
-2054 -2137 0
54 126 2054 0
-55 2139 0
-127 2140 0
-2139 2140 0
-127 -2139 0
-2055 -2140 0
55 127 2055 0
-56 2142 0
-128 2143 0
-2142 2143 0
-128 -2142 0
-2056 -2143 0
56 128 2056 0
-2145 2153 0
-2154 0
-2155 0
-2156 0
-2157 0
-2146 2158 0
-2153 2158 0
-2146 -2153 2159 0
-2154 2159 0
-2146 -2154 2160 0
-2155 2160 0
-2146 -2155 2161 0
-2156 2161 0
-2146 -2156 2162 0
-2157 2162 0
-2146 -2157 0
-2147 2163 0
-2158 2163 0
-2147 -2158 2164 0
-2159 2164 0
-2147 -2159 2165 0
-2160 2165 0
-2147 -2160 2166 0
-2161 2166 0
-2147 -2161 2167 0
-2162 2167 0
-2147 -2162 0
-2148 2168 0
-2163 2168 0
-2148 -2163 2169 0
-2164 2169 0
-2148 -2164 2170 0
-2165 2170 0
-2148 -2165 2171 0
-2166 2171 0
-2148 -2166 2172 0
-2167 2172 0
-2148 -2167 0
-2149 2173 0
-2168 2173 0
-2149 -2168 2174 0
-2169 2174 0
-2149 -2169 2175 0
-2170 2175 0
-2149 -2170 2176 0
-2171 2176 0
-2149 -2171 2177 0
-2172 2177 0
-2149 -2172 0
-2150 2178 0
-2173 2178 0
-2150 -2173 2179 0
-2174 2179 0
-2150 -2174 2180 0
-2175 2180 0
-2150 -2175 2181 0
-2176 2181 0
-2150 -2176 2182 0
-2177 2182 0
-2150 -2177 0
-2151 2183 0
-2178 2183 0
-2151 -2178 2184 0
-2179 2184 0
-2151 -2179 2185 0
-2180 2185 0
-2151 -2180 2186 0
-2181 2186 0
-2151 -2181 2187 0
-2182 2187 0
-2151 -2182 0
-2152 -2187 0
2145 2193 0
-2194 0
-2195 0
2146 2196 0
-2193 2196 0
2146 -2193 2197 0
-2194 2197 0
2146 -2194 2198 0
-2195 2198 0
2146 -2195 0
2147 2199 0
-2196 2199 0
2147 -2196 2200 0
-2197 2200 0
2147 -2197 2201 0
-2198 2201 0
2147 -2198 0
2148 2202 0
-2199 2202 0
2148 -2199 2203 0
-2200 2203 0
2148 -2200 2204 0
-2201 2204 0
2148 -2201 0
2149 2205 0
-2202 2205 0
2149 -2202 2206 0
-2203 2206 0
2149 -2203 2207 0
-2204 2207 0
2149 -2204 0
2150 2208 0
-2205 2208 0
2150 -2205 2209 0
-2206 2209 0
2150 -2206 2210 0
-2207 2210 0
2150 -2207 0
2151 2211 0
-2208 2211 0
2151 -2208 2212 0
-2209 2212 0
2151 -2209 2213 0
-2210 2213 0
2151 -2210 0
2152 -2213 0
-41 2217 0
-113 2218 0
-2217 2218 0
-113 -2217 0
-185 2219 0
-2218 2219 0
-185 -2218 0
-2145 -2219 0
41 113 185 2145 0
-42 2221 0
-114 2222 0
-2221 2222 0
-114 -2221 0
-186 2223 0
-2222 2223 0
-186 -2222 0
-2146 -2223 0
42 114 186 2146 0
-43 2225 0
-115 2226 0
-2225 2226 0
-115 -2225 0
-187 2227 0
-2226 2227 0
-187 -2226 0
-2147 -2227 0
43 115 187 2147 0
-44 2229 0
-116 2230 0
-2229 2230 0
-116 -2229 0
-188 2231 0
-2230 2231 0
-188 -2230 0
-2148 -2231 0
44 116 188 2148 0
-45 2233 0
-117 2234 0
-2233 2234 0
-117 -2233 0
-189 2235 0
-2234 2235 0
-189 -2234 0
-2149 -2235 0
45 117 189 2149 0
-46 2237 0
-118 2238 0
-2237 2238 0
-118 -2237 0
-190 2239 0
-2238 2239 0
-190 -2238 0
-2150 -2239 0
46 118 190 2150 0
-47 2241 0
-119 2242 0
-2241 2242 0
-119 -2241 0
-191 2243 0
-2242 2243 0
-191 -2242 0
-2151 -2243 0
47 119 191 2151 0
-48 2245 0
-120 2246 0
-2245 2246 0
-120 -2245 0
-192 2247 0
-2246 2247 0
-192 -2246 0
-2152 -2247 0
48 120 192 2152 0
-2249 2257 0
-2258 0
-2259 0
-2260 0
-2250 2261 0
-2257 2261 0
-2250 -2257 2262 0
-2258 2262 0
-2250 -2258 2263 0
-2259 2263 0
-2250 -2259 2264 0
-2260 2264 0
-2250 -2260 0
-2251 2265 0
-2261 2265 0
-2251 -2261 2266 0
-2262 2266 0
-2251 -2262 2267 0
-2263 2267 0
-2251 -2263 2268 0
-2264 2268 0
-2251 -2264 0
-2252 2269 0
-2265 2269 0
-2252 -2265 2270 0
-2266 2270 0
-2252 -2266 2271 0
-2267 2271 0
-2252 -2267 2272 0
-2268 2272 0
-2252 -2268 0
-2253 2273 0
-2269 2273 0
-2253 -2269 2274 0
-2270 2274 0
-2253 -2270 2275 0
-2271 2275 0
-2253 -2271 2276 0
-2272 2276 0
-2253 -2272 0
-2254 2277 0
-2273 2277 0
-2254 -2273 2278 0
-2274 2278 0
-2254 -2274 2279 0
-2275 2279 0
-2254 -2275 2280 0
-2276 2280 0
-2254 -2276 0
-2255 2281 0
-2277 2281 0
-2255 -2277 2282 0
-2278 2282 0
-2255 -2278 2283 0
-2279 2283 0
-2255 -2279 2284 0
-2280 2284 0
-2255 -2280 0
-2256 -2284 0
2249 2289 0
-2290 0
-2291 0
-2292 0
2250 2293 0
-2289 2293 0
2250 -2289 2294 0
-2290 2294 0
2250 -2290 2295 0
-2291 2295 0
2250 -2291 2296 0
-2292 2296 0
2250 -2292 0
2251 2297 0
-2293 2297 0
2251 -2293 2298 0
-2294 2298 0
2251 -2294 2299 0
-2295 2299 0
2251 -2295 2300 0
-2296 2300 0
2251 -2296 0
2252 2301 0
-2297 2301 0
2252 -2297 2302 0
-2298 2302 0
2252 -2298 2303 0
-2299 2303 0
2252 -2299 2304 0
-2300 2304 0
2252 -2300 0
2253 2305 0
-2301 2305 0
2253 -2301 2306 0
-2302 2306 0
2253 -2302 2307 0
-2303 2307 0
2253 -2303 2308 0
-2304 2308 0
2253 -2304 0
2254 2309 0
-2305 2309 0
2254 -2305 2310 0
-2306 2310 0
2254 -2306 2311 0
-2307 2311 0
2254 -2307 2312 0
-2308 2312 0
2254 -2308 0
2255 2313 0
-2309 2313 0
2255 -2309 2314 0
-2310 2314 0
2255 -2310 2315 0
-2311 2315 0
2255 -2311 2316 0
-2312 2316 0
2255 -2312 0
2256 -2316 0
-33 2321 0
-105 2322 0
-2321 2322 0
-105 -2321 0
-177 2323 0
-2322 2323 0
-177 -2322 0
-249 2324 0
-2323 2324 0
-249 -2323 0
-2249 -2324 0
33 105 177 249 2249 0
-34 2326 0
-106 2327 0
-2326 2327 0
-106 -2326 0
-178 2328 0
-2327 2328 0
-178 -2327 0
-250 2329 0
-2328 2329 0
-250 -2328 0
-2250 -2329 0
34 106 178 250 2250 0
-35 2331 0
-107 2332 0
-2331 2332 0
-107 -2331 0
-179 2333 0
-2332 2333 0
-179 -2332 0
-251 2334 0
-2333 2334 0
-251 -2333 0
-2251 -2334 0
35 107 179 251 2251 0
-36 2336 0
-108 2337 0
-2336 2337 0
-108 -2336 0
-180 2338 0
-2337 2338 0
-180 -2337 0
-252 2339 0
-2338 2339 0
-252 -2338 0
-2252 -2339 0
36 108 180 252 2252 0
-37 2341 0
-109 2342 0
-2341 2342 0
-109 -2341 0
-181 2343 0
-2342 2343 0
-181 -2342 0
-253 2344 0
-2343 2344 0
-253 -2343 0
-2253 -2344 0
37 109 181 253 2253 0
-38 2346 0
-110 2347 0
-2346 2347 0
-110 -2346 0
-182 2348 0
-2347 2348 0
-182 -2347 0
-254 2349 0
-2348 2349 0
-254 -2348 0
-2254 -2349 0
38 110 182 254 2254 0
-39 2351 0
-111 2352 0
-2351 2352 0
-111 -2351 0
-183 2353 0
-2352 2353 0
-183 -2352 0
-255 2354 0
-2353 2354 0
-255 -2353 0
-2255 -2354 0
39 111 183 255 2255 0
-40 2356 0
-112 2357 0
-2356 2357 0
-112 -2356 0
-184 2358 0
-2357 2358 0
-184 -2357 0
-256 2359 0
-2358 2359 0
-256 -2358 0
-2256 -2359 0
40 112 184 256 2256 0
-2361 2369 0
-2370 0
-2371 0
-2362 2372 0
-2369 2372 0
-2362 -2369 2373 0
-2370 2373 0
-2362 -2370 2374 0
-2371 2374 0
-2362 -2371 0
-2363 2375 0
-2372 2375 0
-2363 -2372 2376 0
-2373 2376 0
-2363 -2373 2377 0
-2374 2377 0
-2363 -2374 0
-2364 2378 0
-2375 2378 0
-2364 -2375 2379 0
-2376 2379 0
-2364 -2376 2380 0
-2377 2380 0
-2364 -2377 0
-2365 2381 0
-2378 2381 0
-2365 -2378 2382 0
-2379 2382 0
-2365 -2379 2383 0
-2380 2383 0
-2365 -2380 0
-2366 2384 0
-2381 2384 0
-2366 -2381 2385 0
-2382 2385 0
-2366 -2382 2386 0
-2383 2386 0
-2366 -2383 0
-2367 2387 0
-2384 2387 0
-2367 -2384 2388 0
-2385 2388 0
-2367 -2385 2389 0
-2386 2389 0
-2367 -2386 0
-2368 -2389 0
2361 2393 0
-2394 0
-2395 0
-2396 0
-2397 0
2362 2398 0
-2393 2398 0
2362 -2393 2399 0
-2394 2399 0
2362 -2394 2400 0
-2395 2400 0
2362 -2395 2401 0
-2396 2401 0
2362 -2396 2402 0
-2397 2402 0
2362 -2397 0
2363 2403 0
-2398 2403 0
2363 -2398 2404 0
-2399 2404 0
2363 -2399 2405 0
-2400 2405 0
2363 -2400 2406 0
-2401 2406 0
2363 -2401 2407 0
-2402 2407 0
2363 -2402 0
2364 2408 0
-2403 2408 0
2364 -2403 2409 0
-2404 2409 0
2364 -2404 2410 0
-2405 2410 0
2364 -2405 2411 0
-2406 2411 0
2364 -2406 2412 0
-2407 2412 0
2364 -2407 0
2365 2413 0
-2408 2413 0
2365 -2408 2414 0
-2409 2414 0
2365 -2409 2415 0
-2410 2415 0
2365 -2410 2416 0
-2411 2416 0
2365 -2411 2417 0
-2412 2417 0
2365 -2412 0
2366 2418 0
-2413 2418 0
2366 -2413 2419 0
-2414 2419 0
2366 -2414 2420 0
-2415 2420 0
2366 -2415 2421 0
-2416 2421 0
2366 -2416 2422 0
-2417 2422 0
2366 -2417 0
2367 2423 0
-2418 2423 0
2367 -2418 2424 0
-2419 2424 0
2367 -2419 2425 0
-2420 2425 0
2367 -2420 2426 0
-2421 2426 0
2367 -2421 2427 0
-2422 2427 0
2367 -2422 0
2368 -2427 0
-25 2433 0
-97 2434 0
-2433 2434 0
-97 -2433 0
-169 2435 0
-2434 2435 0
-169 -2434 0
-241 2436 0
-2435 2436 0
-241 -2435 0
-313 2437 0
-2436 2437 0
-313 -2436 0
-2361 -2437 0
25 97 169 241 313 2361 0
-26 2439 0
-98 2440 0
-2439 2440 0
-98 -2439 0
-170 2441 0
-2440 2441 0
-170 -2440 0
-242 2442 0
-2441 2442 0
-242 -2441 0
-314 2443 0
-2442 2443 0
-314 -2442 0
-2362 -2443 0
26 98 170 242 314 2362 0
-27 2445 0
-99 2446 0
-2445 2446 0
-99 -2445 0
-171 2447 0
-2446 2447 0
-171 -2446 0
-243 2448 0
-2447 2448 0
-243 -2447 0
-315 2449 0
-2448 2449 0
-315 -2448 0
-2363 -2449 0
27 99 171 243 315 2363 0
-28 2451 0
-100 2452 0
-2451 2452 0
-100 -2451 0
-172 2453 0
-2452 2453 0
-172 -2452 0
-244 2454 0
-2453 2454 0
-244 -2453 0
-316 2455 0
-2454 2455 0
-316 -2454 0
-2364 -2455 0
28 100 172 244 316 2364 0
-29 2457 0
-101 2458 0
-2457 2458 0
-101 -2457 0
-173 2459 0
-2458 2459 0
-173 -2458 0
-245 2460 0
-2459 2460 0
-245 -2459 0
-317 2461 0
-2460 2461 0
-317 -2460 0
-2365 -2461 0
29 101 173 245 317 2365 0
-30 2463 0
-102 2464 0
-2463 2464 0
-102 -2463 0
-174 2465 0
-2464 2465 0
-174 -2464 0
-246 2466 0
-2465 2466 0
-246 -2465 0
-318 2467 0
-2466 2467 0
-318 -2466 0
-2366 -2467 0
30 102 174 246 318 2366 0
-31 2469 0
-103 2470 0
-2469 2470 0
-103 -2469 0
-175 2471 0
-2470 2471 0
-175 -2470 0
-247 2472 0
-2471 2472 0
-247 -2471 0
-319 2473 0
-2472 2473 0
-319 -2472 0
-2367 -2473 0
31 103 175 247 319 2367 0
-32 2475 0
-104 2476 0
-2475 2476 0
-104 -2475 0
-176 2477 0
-2476 2477 0
-176 -2476 0
-248 2478 0
-2477 2478 0
-248 -2477 0
-320 2479 0
-2478 2479 0
-320 -2478 0
-2368 -2479 0
32 104 176 248 320 2368 0
-2481 2489 0
-2490 0
-2482 2491 0
-2489 2491 0
-2482 -2489 2492 0
-2490 2492 0
-2482 -2490 0
-2483 2493 0
-2491 2493 0
-2483 -2491 2494 0
-2492 2494 0
-2483 -2492 0
-2484 2495 0
-2493 2495 0
-2484 -2493 2496 0
-2494 2496 0
-2484 -2494 0
-2485 2497 0
-2495 2497 0
-2485 -2495 2498 0
-2496 2498 0
-2485 -2496 0
-2486 2499 0
-2497 2499 0
-2486 -2497 2500 0
-2498 2500 0
-2486 -2498 0
-2487 2501 0
-2499 2501 0
-2487 -2499 2502 0
-2500 2502 0
-2487 -2500 0
-2488 -2502 0
2481 2505 0
-2506 0
-2507 0
-2508 0
-2509 0
-2510 0
2482 2511 0
-2505 2511 0
2482 -2505 2512 0
-2506 2512 0
2482 -2506 2513 0
-2507 2513 0
2482 -2507 2514 0
-2508 2514 0
2482 -2508 2515 0
-2509 2515 0
2482 -2509 2516 0
-2510 2516 0
2482 -2510 0
2483 2517 0
-2511 2517 0
2483 -2511 2518 0
-2512 2518 0
2483 -2512 2519 0
-2513 2519 0
2483 -2513 2520 0
-2514 2520 0
2483 -2514 2521 0
-2515 2521 0
2483 -2515 2522 0
-2516 2522 0
2483 -2516 0
2484 2523 0
-2517 2523 0
2484 -2517 2524 0
-2518 2524 0
2484 -2518 2525 0
-2519 2525 0
2484 -2519 2526 0
-2520 2526 0
2484 -2520 2527 0
-2521 2527 0
2484 -2521 2528 0
-2522 2528 0
2484 -2522 0
2485 2529 0
-2523 2529 0
2485 -2523 2530 0
-2524 2530 0
2485 -2524 2531 0
-2525 2531 0
2485 -2525 2532 0
-2526 2532 0
2485 -2526 2533 0
-2527 2533 0
2485 -2527 2534 0
-2528 2534 0
2485 -2528 0
2486 2535 0
-2529 2535 0
2486 -2529 2536 0
-2530 2536 0
2486 -2530 2537 0
-2531 2537 0
2486 -2531 2538 0
-2532 2538 0
2486 -2532 2539 0
-2533 2539 0
2486 -2533 2540 0
-2534 2540 0
2486 -2534 0
2487 2541 0
-2535 2541 0
2487 -2535 2542 0
-2536 2542 0
2487 -2536 2543 0
-2537 2543 0
2487 -2537 2544 0
-2538 2544 0
2487 -2538 2545 0
-2539 2545 0
2487 -2539 2546 0
-2540 2546 0
2487 -2540 0
2488 -2546 0
-17 2553 0
-89 2554 0
-2553 2554 0
-89 -2553 0
-161 2555 0
-2554 2555 0
-161 -2554 0
-233 2556 0
-2555 2556 0
-233 -2555 0
-305 2557 0
-2556 2557 0
-305 -2556 0
-377 2558 0
-2557 2558 0
-377 -2557 0
-2481 -2558 0
17 89 161 233 305 377 2481 0
-18 2560 0
-90 2561 0
-2560 2561 0
-90 -2560 0
-162 2562 0
-2561 2562 0
-162 -2561 0
-234 2563 0
-2562 2563 0
-234 -2562 0
-306 2564 0
-2563 2564 0
-306 -2563 0
-378 2565 0
-2564 2565 0
-378 -2564 0
-2482 -2565 0
18 90 162 234 306 378 2482 0
-19 2567 0
-91 2568 0
-2567 2568 0
-91 -2567 0
-163 2569 0
-2568 2569 0
-163 -2568 0
-235 2570 0
-2569 2570 0
-235 -2569 0
-307 2571 0
-2570 2571 0
-307 -2570 0
-379 2572 0
-2571 2572 0
-379 -2571 0
-2483 -2572 0
19 91 163 235 307 379 2483 0
-20 2574 0
-92 2575 0
-2574 2575 0
-92 -2574 0
-164 2576 0
-2575 2576 0
-164 -2575 0
-236 2577 0
-2576 2577 0
-236 -2576 0
-308 2578 0
-2577 2578 0
-308 -2577 0
-380 2579 0
-2578 2579 0
-380 -2578 0
-2484 -2579 0
20 92 164 236 308 380 2484 0
-21 2581 0
-93 2582 0
-2581 2582 0
-93 -2581 0
-165 2583 0
-2582 2583 0
-165 -2582 0
-237 2584 0
-2583 2584 0
-237 -2583 0
-309 2585 0
-2584 2585 0
-309 -2584 0
-381 2586 0
-2585 2586 0
-381 -2585 0
-2485 -2586 0
21 93 165 237 309 381 2485 0
-22 2588 0
-94 2589 0
-2588 2589 0
-94 -2588 0
-166 2590 0
-2589 2590 0
-166 -2589 0
-238 2591 0
-2590 2591 0
-238 -2590 0
-310 2592 0
-2591 2592 0
-310 -2591 0
-382 2593 0
-2592 2593 0
-382 -2592 0
-2486 -2593 0
22 94 166 238 310 382 2486 0
-23 2595 0
-95 2596 0
-2595 2596 0
-95 -2595 0
-167 2597 0
-2596 2597 0
-167 -2596 0
-239 2598 0
-2597 2598 0
-239 -2597 0
-311 2599 0
-2598 2599 0
-311 -2598 0
-383 2600 0
-2599 2600 0
-383 -2599 0
-2487 -2600 0
23 95 167 239 311 383 2487 0
-24 2602 0
-96 2603 0
-2602 2603 0
-96 -2602 0
-168 2604 0
-2603 2604 0
-168 -2603 0
-240 2605 0
-2604 2605 0
-240 -2604 0
-312 2606 0
-2605 2606 0
-312 -2605 0
-384 2607 0
-2606 2607 0
-384 -2606 0
-2488 -2607 0
24 96 168 240 312 384 2488 0
-2609 2617 0
-2610 2618 0
-2617 2618 0
-2610 -2617 0
-2611 2619 0
-2618 2619 0
-2611 -2618 0
-2612 2620 0
-2619 2620 0
-2612 -2619 0
-2613 2621 0
-2620 2621 0
-2613 -2620 0
-2614 2622 0
-2621 2622 0
-2614 -2621 0
-2615 2623 0
-2622 2623 0
-2615 -2622 0
-2616 -2623 0
2609 2625 0
-2626 0
-2627 0
-2628 0
-2629 0
-2630 0
-2631 0
2610 2632 0
-2625 2632 0
2610 -2625 2633 0
-2626 2633 0
2610 -2626 2634 0
-2627 2634 0
2610 -2627 2635 0
-2628 2635 0
2610 -2628 2636 0
-2629 2636 0
2610 -2629 2637 0
-2630 2637 0
2610 -2630 2638 0
-2631 2638 0
2610 -2631 0
2611 2639 0
-2632 2639 0
2611 -2632 2640 0
-2633 2640 0
2611 -2633 2641 0
-2634 2641 0
2611 -2634 2642 0
-2635 2642 0
2611 -2635 2643 0
-2636 2643 0
2611 -2636 2644 0
-2637 2644 0
2611 -2637 2645 0
-2638 2645 0
2611 -2638 0
2612 2646 0
-2639 2646 0
2612 -2639 2647 0
-2640 2647 0
2612 -2640 2648 0
-2641 2648 0
2612 -2641 2649 0
-2642 2649 0
2612 -2642 2650 0
-2643 2650 0
2612 -2643 2651 0
-2644 2651 0
2612 -2644 2652 0
-2645 2652 0
2612 -2645 0
2613 2653 0
-2646 2653 0
2613 -2646 2654 0
-2647 2654 0
2613 -2647 2655 0
-2648 2655 0
2613 -2648 2656 0
-2649 2656 0
2613 -2649 2657 0
-2650 2657 0
2613 -2650 2658 0
-2651 2658 0
2613 -2651 2659 0
-2652 2659 0
2613 -2652 0
2614 2660 0
-2653 2660 0
2614 -2653 2661 0
-2654 2661 0
2614 -2654 2662 0
-2655 2662 0
2614 -2655 2663 0
-2656 2663 0
2614 -2656 2664 0
-2657 2664 0
2614 -2657 2665 0
-2658 2665 0
2614 -2658 2666 0
-2659 2666 0
2614 -2659 0
2615 2667 0
-2660 2667 0
2615 -2660 2668 0
-2661 2668 0
2615 -2661 2669 0
-2662 2669 0
2615 -2662 2670 0
-2663 2670 0
2615 -2663 2671 0
-2664 2671 0
2615 -2664 2672 0
-2665 2672 0
2615 -2665 2673 0
-2666 2673 0
2615 -2666 0
2616 -2673 0
-9 2681 0
-81 2682 0
-2681 2682 0
-81 -2681 0
-153 2683 0
-2682 2683 0
-153 -2682 0
-225 2684 0
-2683 2684 0
-225 -2683 0
-297 2685 0
-2684 2685 0
-297 -2684 0
-369 2686 0
-2685 2686 0
-369 -2685 0
-441 2687 0
-2686 2687 0
-441 -2686 0
-2609 -2687 0
9 81 153 225 297 369 441 2609 0
-10 2689 0
-82 2690 0
-2689 2690 0
-82 -2689 0
-154 2691 0
-2690 2691 0
-154 -2690 0
-226 2692 0
-2691 2692 0
-226 -2691 0
-298 2693 0
-2692 2693 0
-298 -2692 0
-370 2694 0
-2693 2694 0
-370 -2693 0
-442 2695 0
-2694 2695 0
-442 -2694 0
-2610 -2695 0
10 82 154 226 298 370 442 2610 0
-11 2697 0
-83 2698 0
-2697 2698 0
-83 -2697 0
-155 2699 0
-2698 2699 0
-155 -2698 0
-227 2700 0
-2699 2700 0
-227 -2699 0
-299 2701 0
-2700 2701 0
-299 -2700 0
-371 2702 0
-2701 2702 0
-371 -2701 0
-443 2703 0
-2702 2703 0
-443 -2702 0
-2611 -2703 0
11 83 155 227 299 371 443 2611 0
-12 2705 0
-84 2706 0
-2705 2706 0
-84 -2705 0
-156 2707 0
-2706 2707 0
-156 -2706 0
-228 2708 0
-2707 2708 0
-228 -2707 0
-300 2709 0
-2708 2709 0
-300 -2708 0
-372 2710 0
-2709 2710 0
-372 -2709 0
-444 2711 0
-2710 2711 0
-444 -2710 0
-2612 -2711 0
12 84 156 228 300 372 444 2612 0
-13 2713 0
-85 2714 0
-2713 2714 0
-85 -2713 0
-157 2715 0
-2714 2715 0
-157 -2714 0
-229 2716 0
-2715 2716 0
-229 -2715 0
-301 2717 0
-2716 2717 0
-301 -2716 0
-373 2718 0
-2717 2718 0
-373 -2717 0
-445 2719 0
-2718 2719 0
-445 -2718 0
-2613 -2719 0
13 85 157 229 301 373 445 2613 0
-14 2721 0
-86 2722 0
-2721 2722 0
-86 -2721 0
-158 2723 0
-2722 2723 0
-158 -2722 0
-230 2724 0
-2723 2724 0
-230 -2723 0
-302 2725 0
-2724 2725 0
-302 -2724 0
-374 2726 0
-2725 2726 0
-374 -2725 0
-446 2727 0
-2726 2727 0
-446 -2726 0
-2614 -2727 0
14 86 158 230 302 374 446 2614 0
-15 2729 0
-87 2730 0
-2729 2730 0
-87 -2729 0
-159 2731 0
-2730 2731 0
-159 -2730 0
-231 2732 0
-2731 2732 0
-231 -2731 0
-303 2733 0
-2732 2733 0
-303 -2732 0
-375 2734 0
-2733 2734 0
-375 -2733 0
-447 2735 0
-2734 2735 0
-447 -2734 0
-2615 -2735 0
15 87 159 231 303 375 447 2615 0
-16 2737 0
-88 2738 0
-2737 2738 0
-88 -2737 0
-160 2739 0
-2738 2739 0
-160 -2738 0
-232 2740 0
-2739 2740 0
-232 -2739 0
-304 2741 0
-2740 2741 0
-304 -2740 0
-376 2742 0
-2741 2742 0
-376 -2741 0
-448 2743 0
-2742 2743 0
-448 -2742 0
-2616 -2743 0
16 88 160 232 304 376 448 2616 0
-1 2745 0
-73 2746 0
-2745 2746 0
-73 -2745 0
-145 2747 0
-2746 2747 0
-145 -2746 0
-217 2748 0
-2747 2748 0
-217 -2747 0
-289 2749 0
-2748 2749 0
-289 -2748 0
-361 2750 0
-2749 2750 0
-361 -2749 0
-433 2751 0
-2750 2751 0
-433 -2750 0
-505 -2751 0
1 73 145 217 289 361 433 505 0
-2 2753 0
-74 2754 0
-2753 2754 0
-74 -2753 0
-146 2755 0
-2754 2755 0
-146 -2754 0
-218 2756 0
-2755 2756 0
-218 -2755 0
-290 2757 0
-2756 2757 0
-290 -2756 0
-362 2758 0
-2757 2758 0
-362 -2757 0
-434 2759 0
-2758 2759 0
-434 -2758 0
-506 -2759 0
2 74 146 218 290 362 434 506 0
-3 2761 0
-75 2762 0
-2761 2762 0
-75 -2761 0
-147 2763 0
-2762 2763 0
-147 -2762 0
-219 2764 0
-2763 2764 0
-219 -2763 0
-291 2765 0
-2764 2765 0
-291 -2764 0
-363 2766 0
-2765 2766 0
-363 -2765 0
-435 2767 0
-2766 2767 0
-435 -2766 0
-507 -2767 0
3 75 147 219 291 363 435 507 0
-4 2769 0
-76 2770 0
-2769 2770 0
-76 -2769 0
-148 2771 0
-2770 2771 0
-148 -2770 0
-220 2772 0
-2771 2772 0
-220 -2771 0
-292 2773 0
-2772 2773 0
-292 -2772 0
-364 2774 0
-2773 2774 0
-364 -2773 0
-436 2775 0
-2774 2775 0
-436 -2774 0
-508 -2775 0
4 76 148 220 292 364 436 508 0
-5 2777 0
-77 2778 0
-2777 2778 0
-77 -2777 0
-149 2779 0
-2778 2779 0
-149 -2778 0
-221 2780 0
-2779 2780 0
-221 -2779 0
-293 2781 0
-2780 2781 0
-293 -2780 0
-365 2782 0
-2781 2782 0
-365 -2781 0
-437 2783 0
-2782 2783 0
-437 -2782 0
-509 -2783 0
5 77 149 221 293 365 437 509 0
-6 2785 0
-78 2786 0
-2785 2786 0
-78 -2785 0
-150 2787 0
-2786 2787 0
-150 -2786 0
-222 2788 0
-2787 2788 0
-222 -2787 0
-294 2789 0
-2788 2789 0
-294 -2788 0
-366 2790 0
-2789 2790 0
-366 -2789 0
-438 2791 0
-2790 2791 0
-438 -2790 0
-510 -2791 0
6 78 150 222 294 366 438 510 0
-7 2793 0
-79 2794 0
-2793 2794 0
-79 -2793 0
-151 2795 0
-2794 2795 0
-151 -2794 0
-223 2796 0
-2795 2796 0
-223 -2795 0
-295 2797 0
-2796 2797 0
-295 -2796 0
-367 2798 0
-2797 2798 0
-367 -2797 0
-439 2799 0
-2798 2799 0
-439 -2798 0
-511 -2799 0
7 79 151 223 295 367 439 511 0
-8 2801 0
-80 2802 0
-2801 2802 0
-80 -2801 0
-152 2803 0
-2802 2803 0
-152 -2802 0
-224 2804 0
-2803 2804 0
-224 -2803 0
-296 2805 0
-2804 2805 0
-296 -2804 0
-368 2806 0
-2805 2806 0
-368 -2805 0
-440 2807 0
-2806 2807 0
-440 -2806 0
-512 -2807 0
8 80 152 224 296 368 440 512 0
-2809 2817 0
-2810 2818 0
-2817 2818 0
-2810 -2817 0
-2811 2819 0
-2818 2819 0
-2811 -2818 0
-2812 2820 0
-2819 2820 0
-2812 -2819 0
-2813 2821 0
-2820 2821 0
-2813 -2820 0
-2814 2822 0
-2821 2822 0
-2814 -2821 0
-2815 2823 0
-2822 2823 0
-2815 -2822 0
-2816 -2823 0
2809 2825 0
-2826 0
-2827 0
-2828 0
-2829 0
-2830 0
-2831 0
2810 2832 0
-2825 2832 0
2810 -2825 2833 0
-2826 2833 0
2810 -2826 2834 0
-2827 2834 0
2810 -2827 2835 0
-2828 2835 0
2810 -2828 2836 0
-2829 2836 0
2810 -2829 2837 0
-2830 2837 0
2810 -2830 2838 0
-2831 2838 0
2810 -2831 0
2811 2839 0
-2832 2839 0
2811 -2832 2840 0
-2833 2840 0
2811 -2833 2841 0
-2834 2841 0
2811 -2834 2842 0
-2835 2842 0
2811 -2835 2843 0
-2836 2843 0
2811 -2836 2844 0
-2837 2844 0
2811 -2837 2845 0
-2838 2845 0
2811 -2838 0
2812 2846 0
-2839 2846 0
2812 -2839 2847 0
-2840 2847 0
2812 -2840 2848 0
-2841 2848 0
2812 -2841 2849 0
-2842 2849 0
2812 -2842 2850 0
-2843 2850 0
2812 -2843 2851 0
-2844 2851 0
2812 -2844 2852 0
-2845 2852 0
2812 -2845 0
2813 2853 0
-2846 2853 0
2813 -2846 2854 0
-2847 2854 0
2813 -2847 2855 0
-2848 2855 0
2813 -2848 2856 0
-2849 2856 0
2813 -2849 2857 0
-2850 2857 0
2813 -2850 2858 0
-2851 2858 0
2813 -2851 2859 0
-2852 2859 0
2813 -2852 0
2814 2860 0
-2853 2860 0
2814 -2853 2861 0
-2854 2861 0
2814 -2854 2862 0
-2855 2862 0
2814 -2855 2863 0
-2856 2863 0
2814 -2856 2864 0
-2857 2864 0
2814 -2857 2865 0
-2858 2865 0
2814 -2858 2866 0
-2859 2866 0
2814 -2859 0
2815 2867 0
-2860 2867 0
2815 -2860 2868 0
-2861 2868 0
2815 -2861 2869 0
-2862 2869 0
2815 -2862 2870 0
-2863 2870 0
2815 -2863 2871 0
-2864 2871 0
2815 -2864 2872 0
-2865 2872 0
2815 -2865 2873 0
-2866 2873 0
2815 -2866 0
2816 -2873 0
-65 2881 0
-137 2882 0
-2881 2882 0
-137 -2881 0
-209 2883 0
-2882 2883 0
-209 -2882 0
-281 2884 0
-2883 2884 0
-281 -2883 0
-353 2885 0
-2884 2885 0
-353 -2884 0
-425 2886 0
-2885 2886 0
-425 -2885 0
-497 2887 0
-2886 2887 0
-497 -2886 0
-2809 -2887 0
65 137 209 281 353 425 497 2809 0
-66 2889 0
-138 2890 0
-2889 2890 0
-138 -2889 0
-210 2891 0
-2890 2891 0
-210 -2890 0
-282 2892 0
-2891 2892 0
-282 -2891 0
-354 2893 0
-2892 2893 0
-354 -2892 0
-426 2894 0
-2893 2894 0
-426 -2893 0
-498 2895 0
-2894 2895 0
-498 -2894 0
-2810 -2895 0
66 138 210 282 354 426 498 2810 0
-67 2897 0
-139 2898 0
-2897 2898 0
-139 -2897 0
-211 2899 0
-2898 2899 0
-211 -2898 0
-283 2900 0
-2899 2900 0
-283 -2899 0
-355 2901 0
-2900 2901 0
-355 -2900 0
-427 2902 0
-2901 2902 0
-427 -2901 0
-499 2903 0
-2902 2903 0
-499 -2902 0
-2811 -2903 0
67 139 211 283 355 427 499 2811 0
-68 2905 0
-140 2906 0
-2905 2906 0
-140 -2905 0
-212 2907 0
-2906 2907 0
-212 -2906 0
-284 2908 0
-2907 2908 0
-284 -2907 0
-356 2909 0
-2908 2909 0
-356 -2908 0
-428 2910 0
-2909 2910 0
-428 -2909 0
-500 2911 0
-2910 2911 0
-500 -2910 0
-2812 -2911 0
68 140 212 284 356 428 500 2812 0
-69 2913 0
-141 2914 0
-2913 2914 0
-141 -2913 0
-213 2915 0
-2914 2915 0
-213 -2914 0
-285 2916 0
-2915 2916 0
-285 -2915 0
-357 2917 0
-2916 2917 0
-357 -2916 0
-429 2918 0
-2917 2918 0
-429 -2917 0
-501 2919 0
-2918 2919 0
-501 -2918 0
-2813 -2919 0
69 141 213 285 357 429 501 2813 0
-70 2921 0
-142 2922 0
-2921 2922 0
-142 -2921 0
-214 2923 0
-2922 2923 0
-214 -2922 0
-286 2924 0
-2923 2924 0
-286 -2923 0
-358 2925 0
-2924 2925 0
-358 -2924 0
-430 2926 0
-2925 2926 0
-430 -2925 0
-502 2927 0
-2926 2927 0
-502 -2926 0
-2814 -2927 0
70 142 214 286 358 430 502 2814 0
-71 2929 0
-143 2930 0
-2929 2930 0
-143 -2929 0
-215 2931 0
-2930 2931 0
-215 -2930 0
-287 2932 0
-2931 2932 0
-287 -2931 0
-359 2933 0
-2932 2933 0
-359 -2932 0
-431 2934 0
-2933 2934 0
-431 -2933 0
-503 2935 0
-2934 2935 0
-503 -2934 0
-2815 -2935 0
71 143 215 287 359 431 503 2815 0
-72 2937 0
-144 2938 0
-2937 2938 0
-144 -2937 0
-216 2939 0
-2938 2939 0
-216 -2938 0
-288 2940 0
-2939 2940 0
-288 -2939 0
-360 2941 0
-2940 2941 0
-360 -2940 0
-432 2942 0
-2941 2942 0
-432 -2941 0
-504 2943 0
-2942 2943 0
-504 -2942 0
-2816 -2943 0
72 144 216 288 360 432 504 2816 0
-2945 2953 0
-2954 0
-2946 2955 0
-2953 2955 0
-2946 -2953 2956 0
-2954 2956 0
-2946 -2954 0
-2947 2957 0
-2955 2957 0
-2947 -2955 2958 0
-2956 2958 0
-2947 -2956 0
-2948 2959 0
-2957 2959 0
-2948 -2957 2960 0
-2958 2960 0
-2948 -2958 0
-2949 2961 0
-2959 2961 0
-2949 -2959 2962 0
-2960 2962 0
-2949 -2960 0
-2950 2963 0
-2961 2963 0
-2950 -2961 2964 0
-2962 2964 0
-2950 -2962 0
-2951 2965 0
-2963 2965 0
-2951 -2963 2966 0
-2964 2966 0
-2951 -2964 0
-2952 -2966 0
2945 2969 0
-2970 0
-2971 0
-2972 0
-2973 0
-2974 0
2946 2975 0
-2969 2975 0
2946 -2969 2976 0
-2970 2976 0
2946 -2970 2977 0
-2971 2977 0
2946 -2971 2978 0
-2972 2978 0
2946 -2972 2979 0
-2973 2979 0
2946 -2973 2980 0
-2974 2980 0
2946 -2974 0
2947 2981 0
-2975 2981 0
2947 -2975 2982 0
-2976 2982 0
2947 -2976 2983 0
-2977 2983 0
2947 -2977 2984 0
-2978 2984 0
2947 -2978 2985 0
-2979 2985 0
2947 -2979 2986 0
-2980 2986 0
2947 -2980 0
2948 2987 0
-2981 2987 0
2948 -2981 2988 0
-2982 2988 0
2948 -2982 2989 0
-2983 2989 0
2948 -2983 2990 0
-2984 2990 0
2948 -2984 2991 0
-2985 2991 0
2948 -2985 2992 0
-2986 2992 0
2948 -2986 0
2949 2993 0
-2987 2993 0
2949 -2987 2994 0
-2988 2994 0
2949 -2988 2995 0
-2989 2995 0
2949 -2989 2996 0
-2990 2996 0
2949 -2990 2997 0
-2991 2997 0
2949 -2991 2998 0
-2992 2998 0
2949 -2992 0
2950 2999 0
-2993 2999 0
2950 -2993 3000 0
-2994 3000 0
2950 -2994 3001 0
-2995 3001 0
2950 -2995 3002 0
-2996 3002 0
2950 -2996 3003 0
-2997 3003 0
2950 -2997 3004 0
-2998 3004 0
2950 -2998 0
2951 3005 0
-2999 3005 0
2951 -2999 3006 0
-3000 3006 0
2951 -3000 3007 0
-3001 3007 0
2951 -3001 3008 0
-3002 3008 0
2951 -3002 3009 0
-3003 3009 0
2951 -3003 3010 0
-3004 3010 0
2951 -3004 0
2952 -3010 0
-129 3017 0
-201 3018 0
-3017 3018 0
-201 -3017 0
-273 3019 0
-3018 3019 0
-273 -3018 0
-345 3020 0
-3019 3020 0
-345 -3019 0
-417 3021 0
-3020 3021 0
-417 -3020 0
-489 3022 0
-3021 3022 0
-489 -3021 0
-2945 -3022 0
129 201 273 345 417 489 2945 0
-130 3024 0
-202 3025 0
-3024 3025 0
-202 -3024 0
-274 3026 0
-3025 3026 0
-274 -3025 0
-346 3027 0
-3026 3027 0
-346 -3026 0
-418 3028 0
-3027 3028 0
-418 -3027 0
-490 3029 0
-3028 3029 0
-490 -3028 0
-2946 -3029 0
130 202 274 346 418 490 2946 0
-131 3031 0
-203 3032 0
-3031 3032 0
-203 -3031 0
-275 3033 0
-3032 3033 0
-275 -3032 0
-347 3034 0
-3033 3034 0
-347 -3033 0
-419 3035 0
-3034 3035 0
-419 -3034 0
-491 3036 0
-3035 3036 0
-491 -3035 0
-2947 -3036 0
131 203 275 347 419 491 2947 0
-132 3038 0
-204 3039 0
-3038 3039 0
-204 -3038 0
-276 3040 0
-3039 3040 0
-276 -3039 0
-348 3041 0
-3040 3041 0
-348 -3040 0
-420 3042 0
-3041 3042 0
-420 -3041 0
-492 3043 0
-3042 3043 0
-492 -3042 0
-2948 -3043 0
132 204 276 348 420 492 2948 0
-133 3045 0
-205 3046 0
-3045 3046 0
-205 -3045 0
-277 3047 0
-3046 3047 0
-277 -3046 0
-349 3048 0
-3047 3048 0
-349 -3047 0
-421 3049 0
-3048 3049 0
-421 -3048 0
-493 3050 0
-3049 3050 0
-493 -3049 0
-2949 -3050 0
133 205 277 349 421 493 2949 0
-134 3052 0
-206 3053 0
-3052 3053 0
-206 -3052 0
-278 3054 0
-3053 3054 0
-278 -3053 0
-350 3055 0
-3054 3055 0
-350 -3054 0
-422 3056 0
-3055 3056 0
-422 -3055 0
-494 3057 0
-3056 3057 0
-494 -3056 0
-2950 -3057 0
134 206 278 350 422 494 2950 0
-135 3059 0
-207 3060 0
-3059 3060 0
-207 -3059 0
-279 3061 0
-3060 3061 0
-279 -3060 0
-351 3062 0
-3061 3062 0
-351 -3061 0
-423 3063 0
-3062 3063 0
-423 -3062 0
-495 3064 0
-3063 3064 0
-495 -3063 0
-2951 -3064 0
135 207 279 351 423 495 2951 0
-136 3066 0
-208 3067 0
-3066 3067 0
-208 -3066 0
-280 3068 0
-3067 3068 0
-280 -3067 0
-352 3069 0
-3068 3069 0
-352 -3068 0
-424 3070 0
-3069 3070 0
-424 -3069 0
-496 3071 0
-3070 3071 0
-496 -3070 0
-2952 -3071 0
136 208 280 352 424 496 2952 0
-3073 3081 0
-3082 0
-3083 0
-3074 3084 0
-3081 3084 0
-3074 -3081 3085 0
-3082 3085 0
-3074 -3082 3086 0
-3083 3086 0
-3074 -3083 0
-3075 3087 0
-3084 3087 0
-3075 -3084 3088 0
-3085 3088 0
-3075 -3085 3089 0
-3086 3089 0
-3075 -3086 0
-3076 3090 0
-3087 3090 0
-3076 -3087 3091 0
-3088 3091 0
-3076 -3088 3092 0
-3089 3092 0
-3076 -3089 0
-3077 3093 0
-3090 3093 0
-3077 -3090 3094 0
-3091 3094 0
-3077 -3091 3095 0
-3092 3095 0
-3077 -3092 0
-3078 3096 0
-3093 3096 0
-3078 -3093 3097 0
-3094 3097 0
-3078 -3094 3098 0
-3095 3098 0
-3078 -3095 0
-3079 3099 0
-3096 3099 0
-3079 -3096 3100 0
-3097 3100 0
-3079 -3097 3101 0
-3098 3101 0
-3079 -3098 0
-3080 -3101 0
3073 3105 0
-3106 0
-3107 0
-3108 0
-3109 0
3074 3110 0
-3105 3110 0
3074 -3105 3111 0
-3106 3111 0
3074 -3106 3112 0
-3107 3112 0
3074 -3107 3113 0
-3108 3113 0
3074 -3108 3114 0
-3109 3114 0
3074 -3109 0
3075 3115 0
-3110 3115 0
3075 -3110 3116 0
-3111 3116 0
3075 -3111 3117 0
-3112 3117 0
3075 -3112 3118 0
-3113 3118 0
3075 -3113 3119 0
-3114 3119 0
3075 -3114 0
3076 3120 0
-3115 3120 0
3076 -3115 3121 0
-3116 3121 0
3076 -3116 3122 0
-3117 3122 0
3076 -3117 3123 0
-3118 3123 0
3076 -3118 3124 0
-3119 3124 0
3076 -3119 0
3077 3125 0
-3120 3125 0
3077 -3120 3126 0
-3121 3126 0
3077 -3121 3127 0
-3122 3127 0
3077 -3122 3128 0
-3123 3128 0
3077 -3123 3129 0
-3124 3129 0
3077 -3124 0
3078 3130 0
-3125 3130 0
3078 -3125 3131 0
-3126 3131 0
3078 -3126 3132 0
-3127 3132 0
3078 -3127 3133 0
-3128 3133 0
3078 -3128 3134 0
-3129 3134 0
3078 -3129 0
3079 3135 0
-3130 3135 0
3079 -3130 3136 0
-3131 3136 0
3079 -3131 3137 0
-3132 3137 0
3079 -3132 3138 0
-3133 3138 0
3079 -3133 3139 0
-3134 3139 0
3079 -3134 0
3080 -3139 0
-193 3145 0
-265 3146 0
-3145 3146 0
-265 -3145 0
-337 3147 0
-3146 3147 0
-337 -3146 0
-409 3148 0
-3147 3148 0
-409 -3147 0
-481 3149 0
-3148 3149 0
-481 -3148 0
-3073 -3149 0
193 265 337 409 481 3073 0
-194 3151 0
-266 3152 0
-3151 3152 0
-266 -3151 0
-338 3153 0
-3152 3153 0
-338 -3152 0
-410 3154 0
-3153 3154 0
-410 -3153 0
-482 3155 0
-3154 3155 0
-482 -3154 0
-3074 -3155 0
194 266 338 410 482 3074 0
-195 3157 0
-267 3158 0
-3157 3158 0
-267 -3157 0
-339 3159 0
-3158 3159 0
-339 -3158 0
-411 3160 0
-3159 3160 0
-411 -3159 0
-483 3161 0
-3160 3161 0
-483 -3160 0
-3075 -3161 0
195 267 339 411 483 3075 0
-196 3163 0
-268 3164 0
-3163 3164 0
-268 -3163 0
-340 3165 0
-3164 3165 0
-340 -3164 0
-412 3166 0
-3165 3166 0
-412 -3165 0
-484 3167 0
-3166 3167 0
-484 -3166 0
-3076 -3167 0
196 268 340 412 484 3076 0
-197 3169 0
-269 3170 0
-3169 3170 0
-269 -3169 0
-341 3171 0
-3170 3171 0
-341 -3170 0
-413 3172 0
-3171 3172 0
-413 -3171 0
-485 3173 0
-3172 3173 0
-485 -3172 0
-3077 -3173 0
197 269 341 413 485 3077 0
-198 3175 0
-270 3176 0
-3175 3176 0
-270 -3175 0
-342 3177 0
-3176 3177 0
-342 -3176 0
-414 3178 0
-3177 3178 0
-414 -3177 0
-486 3179 0
-3178 3179 0
-486 -3178 0
-3078 -3179 0
198 270 342 414 486 3078 0
-199 3181 0
-271 3182 0
-3181 3182 0
-271 -3181 0
-343 3183 0
-3182 3183 0
-343 -3182 0
-415 3184 0
-3183 3184 0
-415 -3183 0
-487 3185 0
-3184 3185 0
-487 -3184 0
-3079 -3185 0
199 271 343 415 487 3079 0
-200 3187 0
-272 3188 0
-3187 3188 0
-272 -3187 0
-344 3189 0
-3188 3189 0
-344 -3188 0
-416 3190 0
-3189 3190 0
-416 -3189 0
-488 3191 0
-3190 3191 0
-488 -3190 0
-3080 -3191 0
200 272 344 416 488 3080 0
-3193 3201 0
-3202 0
-3203 0
-3204 0
-3194 3205 0
-3201 3205 0
-3194 -3201 3206 0
-3202 3206 0
-3194 -3202 3207 0
-3203 3207 0
-3194 -3203 3208 0
-3204 3208 0
-3194 -3204 0
-3195 3209 0
-3205 3209 0
-3195 -3205 3210 0
-3206 3210 0
-3195 -3206 3211 0
-3207 3211 0
-3195 -3207 3212 0
-3208 3212 0
-3195 -3208 0
-3196 3213 0
-3209 3213 0
-3196 -3209 3214 0
-3210 3214 0
-3196 -3210 3215 0
-3211 3215 0
-3196 -3211 3216 0
-3212 3216 0
-3196 -3212 0
-3197 3217 0
-3213 3217 0
-3197 -3213 3218 0
-3214 3218 0
-3197 -3214 3219 0
-3215 3219 0
-3197 -3215 3220 0
-3216 3220 0
-3197 -3216 0
-3198 3221 0
-3217 3221 0
-3198 -3217 3222 0
-3218 3222 0
-3198 -3218 3223 0
-3219 3223 0
-3198 -3219 3224 0
-3220 3224 0
-3198 -3220 0
-3199 3225 0
-3221 3225 0
-3199 -3221 3226 0
-3222 3226 0
-3199 -3222 3227 0
-3223 3227 0
-3199 -3223 3228 0
-3224 3228 0
-3199 -3224 0
-3200 -3228 0
3193 3233 0
-3234 0
-3235 0
-3236 0
3194 3237 0
-3233 3237 0
3194 -3233 3238 0
-3234 3238 0
3194 -3234 3239 0
-3235 3239 0
3194 -3235 3240 0
-3236 3240 0
3194 -3236 0
3195 3241 0
-3237 3241 0
3195 -3237 3242 0
-3238 3242 0
3195 -3238 3243 0
-3239 3243 0
3195 -3239 3244 0
-3240 3244 0
3195 -3240 0
3196 3245 0
-3241 3245 0
3196 -3241 3246 0
-3242 3246 0
3196 -3242 3247 0
-3243 3247 0
3196 -3243 3248 0
-3244 3248 0
3196 -3244 0
3197 3249 0
-3245 3249 0
3197 -3245 3250 0
-3246 3250 0
3197 -3246 3251 0
-3247 3251 0
3197 -3247 3252 0
-3248 3252 0
3197 -3248 0
3198 3253 0
-3249 3253 0
3198 -3249 3254 0
-3250 3254 0
3198 -3250 3255 0
-3251 3255 0
3198 -3251 3256 0
-3252 3256 0
3198 -3252 0
3199 3257 0
-3253 3257 0
3199 -3253 3258 0
-3254 3258 0
3199 -3254 3259 0
-3255 3259 0
3199 -3255 3260 0
-3256 3260 0
3199 -3256 0
3200 -3260 0
-257 3265 0
-329 3266 0
-3265 3266 0
-329 -3265 0
-401 3267 0
-3266 3267 0
-401 -3266 0
-473 3268 0
-3267 3268 0
-473 -3267 0
-3193 -3268 0
257 329 401 473 3193 0
-258 3270 0
-330 3271 0
-3270 3271 0
-330 -3270 0
-402 3272 0
-3271 3272 0
-402 -3271 0
-474 3273 0
-3272 3273 0
-474 -3272 0
-3194 -3273 0
258 330 402 474 3194 0
-259 3275 0
-331 3276 0
-3275 3276 0
-331 -3275 0
-403 3277 0
-3276 3277 0
-403 -3276 0
-475 3278 0
-3277 3278 0
-475 -3277 0
-3195 -3278 0
259 331 403 475 3195 0
-260 3280 0
-332 3281 0
-3280 3281 0
-332 -3280 0
-404 3282 0
-3281 3282 0
-404 -3281 0
-476 3283 0
-3282 3283 0
-476 -3282 0
-3196 -3283 0
260 332 404 476 3196 0
-261 3285 0
-333 3286 0
-3285 3286 0
-333 -3285 0
-405 3287 0
-3286 3287 0
-405 -3286 0
-477 3288 0
-3287 3288 0
-477 -3287 0
-3197 -3288 0
261 333 405 477 3197 0
-262 3290 0
-334 3291 0
-3290 3291 0
-334 -3290 0
-406 3292 0
-3291 3292 0
-406 -3291 0
-478 3293 0
-3292 3293 0
-478 -3292 0
-3198 -3293 0
262 334 406 478 3198 0
-263 3295 0
-335 3296 0
-3295 3296 0
-335 -3295 0
-407 3297 0
-3296 3297 0
-407 -3296 0
-479 3298 0
-3297 3298 0
-479 -3297 0
-3199 -3298 0
263 335 407 479 3199 0
-264 3300 0
-336 3301 0
-3300 3301 0
-336 -3300 0
-408 3302 0
-3301 3302 0
-408 -3301 0
-480 3303 0
-3302 3303 0
-480 -3302 0
-3200 -3303 0
264 336 408 480 3200 0
-3305 3313 0
-3314 0
-3315 0
-3316 0
-3317 0
-3306 3318 0
-3313 3318 0
-3306 -3313 3319 0
-3314 3319 0
-3306 -3314 3320 0
-3315 3320 0
-3306 -3315 3321 0
-3316 3321 0
-3306 -3316 3322 0
-3317 3322 0
-3306 -3317 0
-3307 3323 0
-3318 3323 0
-3307 -3318 3324 0
-3319 3324 0
-3307 -3319 3325 0
-3320 3325 0
-3307 -3320 3326 0
-3321 3326 0
-3307 -3321 3327 0
-3322 3327 0
-3307 -3322 0
-3308 3328 0
-3323 3328 0
-3308 -3323 3329 0
-3324 3329 0
-3308 -3324 3330 0
-3325 3330 0
-3308 -3325 3331 0
-3326 3331 0
-3308 -3326 3332 0
-3327 3332 0
-3308 -3327 0
-3309 3333 0
-3328 3333 0
-3309 -3328 3334 0
-3329 3334 0
-3309 -3329 3335 0
-3330 3335 0
-3309 -3330 3336 0
-3331 3336 0
-3309 -3331 3337 0
-3332 3337 0
-3309 -3332 0
-3310 3338 0
-3333 3338 0
-3310 -3333 3339 0
-3334 3339 0
-3310 -3334 3340 0
-3335 3340 0
-3310 -3335 3341 0
-3336 3341 0
-3310 -3336 3342 0
-3337 3342 0
-3310 -3337 0
-3311 3343 0
-3338 3343 0
-3311 -3338 3344 0
-3339 3344 0
-3311 -3339 3345 0
-3340 3345 0
-3311 -3340 3346 0
-3341 3346 0
-3311 -3341 3347 0
-3342 3347 0
-3311 -3342 0
-3312 -3347 0
3305 3353 0
-3354 0
-3355 0
3306 3356 0
-3353 3356 0
3306 -3353 3357 0
-3354 3357 0
3306 -3354 3358 0
-3355 3358 0
3306 -3355 0
3307 3359 0
-3356 3359 0
3307 -3356 3360 0
-3357 3360 0
3307 -3357 3361 0
-3358 3361 0
3307 -3358 0
3308 3362 0
-3359 3362 0
3308 -3359 3363 0
-3360 3363 0
3308 -3360 3364 0
-3361 3364 0
3308 -3361 0
3309 3365 0
-3362 3365 0
3309 -3362 3366 0
-3363 3366 0
3309 -3363 3367 0
-3364 3367 0
3309 -3364 0
3310 3368 0
-3365 3368 0
3310 -3365 3369 0
-3366 3369 0
3310 -3366 3370 0
-3367 3370 0
3310 -3367 0
3311 3371 0
-3368 3371 0
3311 -3368 3372 0
-3369 3372 0
3311 -3369 3373 0
-3370 3373 0
3311 -3370 0
3312 -3373 0
-321 3377 0
-393 3378 0
-3377 3378 0
-393 -3377 0
-465 3379 0
-3378 3379 0
-465 -3378 0
-3305 -3379 0
321 393 465 3305 0
-322 3381 0
-394 3382 0
-3381 3382 0
-394 -3381 0
-466 3383 0
-3382 3383 0
-466 -3382 0
-3306 -3383 0
322 394 466 3306 0
-323 3385 0
-395 3386 0
-3385 3386 0
-395 -3385 0
-467 3387 0
-3386 3387 0
-467 -3386 0
-3307 -3387 0
323 395 467 3307 0
-324 3389 0
-396 3390 0
-3389 3390 0
-396 -3389 0
-468 3391 0
-3390 3391 0
-468 -3390 0
-3308 -3391 0
324 396 468 3308 0
-325 3393 0
-397 3394 0
-3393 3394 0
-397 -3393 0
-469 3395 0
-3394 3395 0
-469 -3394 0
-3309 -3395 0
325 397 469 3309 0
-326 3397 0
-398 3398 0
-3397 3398 0
-398 -3397 0
-470 3399 0
-3398 3399 0
-470 -3398 0
-3310 -3399 0
326 398 470 3310 0
-327 3401 0
-399 3402 0
-3401 3402 0
-399 -3401 0
-471 3403 0
-3402 3403 0
-471 -3402 0
-3311 -3403 0
327 399 471 3311 0
-328 3405 0
-400 3406 0
-3405 3406 0
-400 -3405 0
-472 3407 0
-3406 3407 0
-472 -3406 0
-3312 -3407 0
328 400 472 3312 0
-3409 3417 0
-3418 0
-3419 0
-3420 0
-3421 0
-3422 0
-3410 3423 0
-3417 3423 0
-3410 -3417 3424 0
-3418 3424 0
-3410 -3418 3425 0
-3419 3425 0
-3410 -3419 3426 0
-3420 3426 0
-3410 -3420 3427 0
-3421 3427 0
-3410 -3421 3428 0
-3422 3428 0
-3410 -3422 0
-3411 3429 0
-3423 3429 0
-3411 -3423 3430 0
-3424 3430 0
-3411 -3424 3431 0
-3425 3431 0
-3411 -3425 3432 0
-3426 3432 0
-3411 -3426 3433 0
-3427 3433 0
-3411 -3427 3434 0
-3428 3434 0
-3411 -3428 0
-3412 3435 0
-3429 3435 0
-3412 -3429 3436 0
-3430 3436 0
-3412 -3430 3437 0
-3431 3437 0
-3412 -3431 3438 0
-3432 3438 0
-3412 -3432 3439 0
-3433 3439 0
-3412 -3433 3440 0
-3434 3440 0
-3412 -3434 0
-3413 3441 0
-3435 3441 0
-3413 -3435 3442 0
-3436 3442 0
-3413 -3436 3443 0
-3437 3443 0
-3413 -3437 3444 0
-3438 3444 0
-3413 -3438 3445 0
-3439 3445 0
-3413 -3439 3446 0
-3440 3446 0
-3413 -3440 0
-3414 3447 0
-3441 3447 0
-3414 -3441 3448 0
-3442 3448 0
-3414 -3442 3449 0
-3443 3449 0
-3414 -3443 3450 0
-3444 3450 0
-3414 -3444 3451 0
-3445 3451 0
-3414 -3445 3452 0
-3446 3452 0
-3414 -3446 0
-3415 3453 0
-3447 3453 0
-3415 -3447 3454 0
-3448 3454 0
-3415 -3448 3455 0
-3449 3455 0
-3415 -3449 3456 0
-3450 3456 0
-3415 -3450 3457 0
-3451 3457 0
-3415 -3451 3458 0
-3452 3458 0
-3415 -3452 0
-3416 -3458 0
3409 3465 0
-3466 0
3410 3467 0
-3465 3467 0
3410 -3465 3468 0
-3466 3468 0
3410 -3466 0
3411 3469 0
-3467 3469 0
3411 -3467 3470 0
-3468 3470 0
3411 -3468 0
3412 3471 0
-3469 3471 0
3412 -3469 3472 0
-3470 3472 0
3412 -3470 0
3413 3473 0
-3471 3473 0
3413 -3471 3474 0
-3472 3474 0
3413 -3472 0
3414 3475 0
-3473 3475 0
3414 -3473 3476 0
-3474 3476 0
3414 -3474 0
3415 3477 0
-3475 3477 0
3415 -3475 3478 0
-3476 3478 0
3415 -3476 0
3416 -3478 0
-385 3481 0
-457 3482 0
-3481 3482 0
-457 -3481 0
-3409 -3482 0
385 457 3409 0
-386 3484 0
-458 3485 0
-3484 3485 0
-458 -3484 0
-3410 -3485 0
386 458 3410 0
-387 3487 0
-459 3488 0
-3487 3488 0
-459 -3487 0
-3411 -3488 0
387 459 3411 0
-388 3490 0
-460 3491 0
-3490 3491 0
-460 -3490 0
-3412 -3491 0
388 460 3412 0
-389 3493 0
-461 3494 0
-3493 3494 0
-461 -3493 0
-3413 -3494 0
389 461 3413 0
-390 3496 0
-462 3497 0
-3496 3497 0
-462 -3496 0
-3414 -3497 0
390 462 3414 0
-391 3499 0
-463 3500 0
-3499 3500 0
-463 -3499 0
-3415 -3500 0
391 463 3415 0
-392 3502 0
-464 3503 0
-3502 3503 0
-464 -3502 0
-3416 -3503 0
392 464 3416 0
-3505 3513 0
-3514 0
-3515 0
-3516 0
-3517 0
-3518 0
-3506 3519 0
-3513 3519 0
-3506 -3513 3520 0
-3514 3520 0
-3506 -3514 3521 0
-3515 3521 0
-3506 -3515 3522 0
-3516 3522 0
-3506 -3516 3523 0
-3517 3523 0
-3506 -3517 3524 0
-3518 3524 0
-3506 -3518 0
-3507 3525 0
-3519 3525 0
-3507 -3519 3526 0
-3520 3526 0
-3507 -3520 3527 0
-3521 3527 0
-3507 -3521 3528 0
-3522 3528 0
-3507 -3522 3529 0
-3523 3529 0
-3507 -3523 3530 0
-3524 3530 0
-3507 -3524 0
-3508 3531 0
-3525 3531 0
-3508 -3525 3532 0
-3526 3532 0
-3508 -3526 3533 0
-3527 3533 0
-3508 -3527 3534 0
-3528 3534 0
-3508 -3528 3535 0
-3529 3535 0
-3508 -3529 3536 0
-3530 3536 0
-3508 -3530 0
-3509 3537 0
-3531 3537 0
-3509 -3531 3538 0
-3532 3538 0
-3509 -3532 3539 0
-3533 3539 0
-3509 -3533 3540 0
-3534 3540 0
-3509 -3534 3541 0
-3535 3541 0
-3509 -3535 3542 0
-3536 3542 0
-3509 -3536 0
-3510 3543 0
-3537 3543 0
-3510 -3537 3544 0
-3538 3544 0
-3510 -3538 3545 0
-3539 3545 0
-3510 -3539 3546 0
-3540 3546 0
-3510 -3540 3547 0
-3541 3547 0
-3510 -3541 3548 0
-3542 3548 0
-3510 -3542 0
-3511 3549 0
-3543 3549 0
-3511 -3543 3550 0
-3544 3550 0
-3511 -3544 3551 0
-3545 3551 0
-3511 -3545 3552 0
-3546 3552 0
-3511 -3546 3553 0
-3547 3553 0
-3511 -3547 3554 0
-3548 3554 0
-3511 -3548 0
-3512 -3554 0
3505 3561 0
-3562 0
3506 3563 0
-3561 3563 0
3506 -3561 3564 0
-3562 3564 0
3506 -3562 0
3507 3565 0
-3563 3565 0
3507 -3563 3566 0
-3564 3566 0
3507 -3564 0
3508 3567 0
-3565 3567 0
3508 -3565 3568 0
-3566 3568 0
3508 -3566 0
3509 3569 0
-3567 3569 0
3509 -3567 3570 0
-3568 3570 0
3509 -3568 0
3510 3571 0
-3569 3571 0
3510 -3569 3572 0
-3570 3572 0
3510 -3570 0
3511 3573 0
-3571 3573 0
3511 -3571 3574 0
-3572 3574 0
3511 -3572 0
3512 -3574 0
-9 3577 0
-65 3578 0
-3577 3578 0
-65 -3577 0
-3505 -3578 0
9 65 3505 0
-10 3580 0
-66 3581 0
-3580 3581 0
-66 -3580 0
-3506 -3581 0
10 66 3506 0
-11 3583 0
-67 3584 0
-3583 3584 0
-67 -3583 0
-3507 -3584 0
11 67 3507 0
-12 3586 0
-68 3587 0
-3586 3587 0
-68 -3586 0
-3508 -3587 0
12 68 3508 0
-13 3589 0
-69 3590 0
-3589 3590 0
-69 -3589 0
-3509 -3590 0
13 69 3509 0
-14 3592 0
-70 3593 0
-3592 3593 0
-70 -3592 0
-3510 -3593 0
14 70 3510 0
-15 3595 0
-71 3596 0
-3595 3596 0
-71 -3595 0
-3511 -3596 0
15 71 3511 0
-16 3598 0
-72 3599 0
-3598 3599 0
-72 -3598 0
-3512 -3599 0
16 72 3512 0
-3601 3609 0
-3610 0
-3611 0
-3612 0
-3613 0
-3602 3614 0
-3609 3614 0
-3602 -3609 3615 0
-3610 3615 0
-3602 -3610 3616 0
-3611 3616 0
-3602 -3611 3617 0
-3612 3617 0
-3602 -3612 3618 0
-3613 3618 0
-3602 -3613 0
-3603 3619 0
-3614 3619 0
-3603 -3614 3620 0
-3615 3620 0
-3603 -3615 3621 0
-3616 3621 0
-3603 -3616 3622 0
-3617 3622 0
-3603 -3617 3623 0
-3618 3623 0
-3603 -3618 0
-3604 3624 0
-3619 3624 0
-3604 -3619 3625 0
-3620 3625 0
-3604 -3620 3626 0
-3621 3626 0
-3604 -3621 3627 0
-3622 3627 0
-3604 -3622 3628 0
-3623 3628 0
-3604 -3623 0
-3605 3629 0
-3624 3629 0
-3605 -3624 3630 0
-3625 3630 0
-3605 -3625 3631 0
-3626 3631 0
-3605 -3626 3632 0
-3627 3632 0
-3605 -3627 3633 0
-3628 3633 0
-3605 -3628 0
-3606 3634 0
-3629 3634 0
-3606 -3629 3635 0
-3630 3635 0
-3606 -3630 3636 0
-3631 3636 0
-3606 -3631 3637 0
-3632 3637 0
-3606 -3632 3638 0
-3633 3638 0
-3606 -3633 0
-3607 3639 0
-3634 3639 0
-3607 -3634 3640 0
-3635 3640 0
-3607 -3635 3641 0
-3636 3641 0
-3607 -3636 3642 0
-3637 3642 0
-3607 -3637 3643 0
-3638 3643 0
-3607 -3638 0
-3608 -3643 0
3601 3649 0
-3650 0
-3651 0
3602 3652 0
-3649 3652 0
3602 -3649 3653 0
-3650 3653 0
3602 -3650 3654 0
-3651 3654 0
3602 -3651 0
3603 3655 0
-3652 3655 0
3603 -3652 3656 0
-3653 3656 0
3603 -3653 3657 0
-3654 3657 0
3603 -3654 0
3604 3658 0
-3655 3658 0
3604 -3655 3659 0
-3656 3659 0
3604 -3656 3660 0
-3657 3660 0
3604 -3657 0
3605 3661 0
-3658 3661 0
3605 -3658 3662 0
-3659 3662 0
3605 -3659 3663 0
-3660 3663 0
3605 -3660 0
3606 3664 0
-3661 3664 0
3606 -3661 3665 0
-3662 3665 0
3606 -3662 3666 0
-3663 3666 0
3606 -3663 0
3607 3667 0
-3664 3667 0
3607 -3664 3668 0
-3665 3668 0
3607 -3665 3669 0
-3666 3669 0
3607 -3666 0
3608 -3669 0
-17 3673 0
-73 3674 0
-3673 3674 0
-73 -3673 0
-129 3675 0
-3674 3675 0
-129 -3674 0
-3601 -3675 0
17 73 129 3601 0
-18 3677 0
-74 3678 0
-3677 3678 0
-74 -3677 0
-130 3679 0
-3678 3679 0
-130 -3678 0
-3602 -3679 0
18 74 130 3602 0
-19 3681 0
-75 3682 0
-3681 3682 0
-75 -3681 0
-131 3683 0
-3682 3683 0
-131 -3682 0
-3603 -3683 0
19 75 131 3603 0
-20 3685 0
-76 3686 0
-3685 3686 0
-76 -3685 0
-132 3687 0
-3686 3687 0
-132 -3686 0
-3604 -3687 0
20 76 132 3604 0
-21 3689 0
-77 3690 0
-3689 3690 0
-77 -3689 0
-133 3691 0
-3690 3691 0
-133 -3690 0
-3605 -3691 0
21 77 133 3605 0
-22 3693 0
-78 3694 0
-3693 3694 0
-78 -3693 0
-134 3695 0
-3694 3695 0
-134 -3694 0
-3606 -3695 0
22 78 134 3606 0
-23 3697 0
-79 3698 0
-3697 3698 0
-79 -3697 0
-135 3699 0
-3698 3699 0
-135 -3698 0
-3607 -3699 0
23 79 135 3607 0
-24 3701 0
-80 3702 0
-3701 3702 0
-80 -3701 0
-136 3703 0
-3702 3703 0
-136 -3702 0
-3608 -3703 0
24 80 136 3608 0
-3705 3713 0
-3714 0
-3715 0
-3716 0
-3706 3717 0
-3713 3717 0
-3706 -3713 3718 0
-3714 3718 0
-3706 -3714 3719 0
-3715 3719 0
-3706 -3715 3720 0
-3716 3720 0
-3706 -3716 0
-3707 3721 0
-3717 3721 0
-3707 -3717 3722 0
-3718 3722 0
-3707 -3718 3723 0
-3719 3723 0
-3707 -3719 3724 0
-3720 3724 0
-3707 -3720 0
-3708 3725 0
-3721 3725 0
-3708 -3721 3726 0
-3722 3726 0
-3708 -3722 3727 0
-3723 3727 0
-3708 -3723 3728 0
-3724 3728 0
-3708 -3724 0
-3709 3729 0
-3725 3729 0
-3709 -3725 3730 0
-3726 3730 0
-3709 -3726 3731 0
-3727 3731 0
-3709 -3727 3732 0
-3728 3732 0
-3709 -3728 0
-3710 3733 0
-3729 3733 0
-3710 -3729 3734 0
-3730 3734 0
-3710 -3730 3735 0
-3731 3735 0
-3710 -3731 3736 0
-3732 3736 0
-3710 -3732 0
-3711 3737 0
-3733 3737 0
-3711 -3733 3738 0
-3734 3738 0
-3711 -3734 3739 0
-3735 3739 0
-3711 -3735 3740 0
-3736 3740 0
-3711 -3736 0
-3712 -3740 0
3705 3745 0
-3746 0
-3747 0
-3748 0
3706 3749 0
-3745 3749 0
3706 -3745 3750 0
-3746 3750 0
3706 -3746 3751 0
-3747 3751 0
3706 -3747 3752 0
-3748 3752 0
3706 -3748 0
3707 3753 0
-3749 3753 0
3707 -3749 3754 0
-3750 3754 0
3707 -3750 3755 0
-3751 3755 0
3707 -3751 3756 0
-3752 3756 0
3707 -3752 0
3708 3757 0
-3753 3757 0
3708 -3753 3758 0
-3754 3758 0
3708 -3754 3759 0
-3755 3759 0
3708 -3755 3760 0
-3756 3760 0
3708 -3756 0
3709 3761 0
-3757 3761 0
3709 -3757 3762 0
-3758 3762 0
3709 -3758 3763 0
-3759 3763 0
3709 -3759 3764 0
-3760 3764 0
3709 -3760 0
3710 3765 0
-3761 3765 0
3710 -3761 3766 0
-3762 3766 0
3710 -3762 3767 0
-3763 3767 0
3710 -3763 3768 0
-3764 3768 0
3710 -3764 0
3711 3769 0
-3765 3769 0
3711 -3765 3770 0
-3766 3770 0
3711 -3766 3771 0
-3767 3771 0
3711 -3767 3772 0
-3768 3772 0
3711 -3768 0
3712 -3772 0
-25 3777 0
-81 3778 0
-3777 3778 0
-81 -3777 0
-137 3779 0
-3778 3779 0
-137 -3778 0
-193 3780 0
-3779 3780 0
-193 -3779 0
-3705 -3780 0
25 81 137 193 3705 0
-26 3782 0
-82 3783 0
-3782 3783 0
-82 -3782 0
-138 3784 0
-3783 3784 0
-138 -3783 0
-194 3785 0
-3784 3785 0
-194 -3784 0
-3706 -3785 0
26 82 138 194 3706 0
-27 3787 0
-83 3788 0
-3787 3788 0
-83 -3787 0
-139 3789 0
-3788 3789 0
-139 -3788 0
-195 3790 0
-3789 3790 0
-195 -3789 0
-3707 -3790 0
27 83 139 195 3707 0
-28 3792 0
-84 3793 0
-3792 3793 0
-84 -3792 0
-140 3794 0
-3793 3794 0
-140 -3793 0
-196 3795 0
-3794 3795 0
-196 -3794 0
-3708 -3795 0
28 84 140 196 3708 0
-29 3797 0
-85 3798 0
-3797 3798 0
-85 -3797 0
-141 3799 0
-3798 3799 0
-141 -3798 0
-197 3800 0
-3799 3800 0
-197 -3799 0
-3709 -3800 0
29 85 141 197 3709 0
-30 3802 0
-86 3803 0
-3802 3803 0
-86 -3802 0
-142 3804 0
-3803 3804 0
-142 -3803 0
-198 3805 0
-3804 3805 0
-198 -3804 0
-3710 -3805 0
30 86 142 198 3710 0
-31 3807 0
-87 3808 0
-3807 3808 0
-87 -3807 0
-143 3809 0
-3808 3809 0
-143 -3808 0
-199 3810 0
-3809 3810 0
-199 -3809 0
-3711 -3810 0
31 87 143 199 3711 0
-32 3812 0
-88 3813 0
-3812 3813 0
-88 -3812 0
-144 3814 0
-3813 3814 0
-144 -3813 0
-200 3815 0
-3814 3815 0
-200 -3814 0
-3712 -3815 0
32 88 144 200 3712 0
-3817 3825 0
-3826 0
-3827 0
-3818 3828 0
-3825 3828 0
-3818 -3825 3829 0
-3826 3829 0
-3818 -3826 3830 0
-3827 3830 0
-3818 -3827 0
-3819 3831 0
-3828 3831 0
-3819 -3828 3832 0
-3829 3832 0
-3819 -3829 3833 0
-3830 3833 0
-3819 -3830 0
-3820 3834 0
-3831 3834 0
-3820 -3831 3835 0
-3832 3835 0
-3820 -3832 3836 0
-3833 3836 0
-3820 -3833 0
-3821 3837 0
-3834 3837 0
-3821 -3834 3838 0
-3835 3838 0
-3821 -3835 3839 0
-3836 3839 0
-3821 -3836 0
-3822 3840 0
-3837 3840 0
-3822 -3837 3841 0
-3838 3841 0
-3822 -3838 3842 0
-3839 3842 0
-3822 -3839 0
-3823 3843 0
-3840 3843 0
-3823 -3840 3844 0
-3841 3844 0
-3823 -3841 3845 0
-3842 3845 0
-3823 -3842 0
-3824 -3845 0
3817 3849 0
-3850 0
-3851 0
-3852 0
-3853 0
3818 3854 0
-3849 3854 0
3818 -3849 3855 0
-3850 3855 0
3818 -3850 3856 0
-3851 3856 0
3818 -3851 3857 0
-3852 3857 0
3818 -3852 3858 0
-3853 3858 0
3818 -3853 0
3819 3859 0
-3854 3859 0
3819 -3854 3860 0
-3855 3860 0
3819 -3855 3861 0
-3856 3861 0
3819 -3856 3862 0
-3857 3862 0
3819 -3857 3863 0
-3858 3863 0
3819 -3858 0
3820 3864 0
-3859 3864 0
3820 -3859 3865 0
-3860 3865 0
3820 -3860 3866 0
-3861 3866 0
3820 -3861 3867 0
-3862 3867 0
3820 -3862 3868 0
-3863 3868 0
3820 -3863 0
3821 3869 0
-3864 3869 0
3821 -3864 3870 0
-3865 3870 0
3821 -3865 3871 0
-3866 3871 0
3821 -3866 3872 0
-3867 3872 0
3821 -3867 3873 0
-3868 3873 0
3821 -3868 0
3822 3874 0
-3869 3874 0
3822 -3869 3875 0
-3870 3875 0
3822 -3870 3876 0
-3871 3876 0
3822 -3871 3877 0
-3872 3877 0
3822 -3872 3878 0
-3873 3878 0
3822 -3873 0
3823 3879 0
-3874 3879 0
3823 -3874 3880 0
-3875 3880 0
3823 -3875 3881 0
-3876 3881 0
3823 -3876 3882 0
-3877 3882 0
3823 -3877 3883 0
-3878 3883 0
3823 -3878 0
3824 -3883 0
-33 3889 0
-89 3890 0
-3889 3890 0
-89 -3889 0
-145 3891 0
-3890 3891 0
-145 -3890 0
-201 3892 0
-3891 3892 0
-201 -3891 0
-257 3893 0
-3892 3893 0
-257 -3892 0
-3817 -3893 0
33 89 145 201 257 3817 0
-34 3895 0
-90 3896 0
-3895 3896 0
-90 -3895 0
-146 3897 0
-3896 3897 0
-146 -3896 0
-202 3898 0
-3897 3898 0
-202 -3897 0
-258 3899 0
-3898 3899 0
-258 -3898 0
-3818 -3899 0
34 90 146 202 258 3818 0
-35 3901 0
-91 3902 0
-3901 3902 0
-91 -3901 0
-147 3903 0
-3902 3903 0
-147 -3902 0
-203 3904 0
-3903 3904 0
-203 -3903 0
-259 3905 0
-3904 3905 0
-259 -3904 0
-3819 -3905 0
35 91 147 203 259 3819 0
-36 3907 0
-92 3908 0
-3907 3908 0
-92 -3907 0
-148 3909 0
-3908 3909 0
-148 -3908 0
-204 3910 0
-3909 3910 0
-204 -3909 0
-260 3911 0
-3910 3911 0
-260 -3910 0
-3820 -3911 0
36 92 148 204 260 3820 0
-37 3913 0
-93 3914 0
-3913 3914 0
-93 -3913 0
-149 3915 0
-3914 3915 0
-149 -3914 0
-205 3916 0
-3915 3916 0
-205 -3915 0
-261 3917 0
-3916 3917 0
-261 -3916 0
-3821 -3917 0
37 93 149 205 261 3821 0
-38 3919 0
-94 3920 0
-3919 3920 0
-94 -3919 0
-150 3921 0
-3920 3921 0
-150 -3920 0
-206 3922 0
-3921 3922 0
-206 -3921 0
-262 3923 0
-3922 3923 0
-262 -3922 0
-3822 -3923 0
38 94 150 206 262 3822 0
-39 3925 0
-95 3926 0
-3925 3926 0
-95 -3925 0
-151 3927 0
-3926 3927 0
-151 -3926 0
-207 3928 0
-3927 3928 0
-207 -3927 0
-263 3929 0
-3928 3929 0
-263 -3928 0
-3823 -3929 0
39 95 151 207 263 3823 0
-40 3931 0
-96 3932 0
-3931 3932 0
-96 -3931 0
-152 3933 0
-3932 3933 0
-152 -3932 0
-208 3934 0
-3933 3934 0
-208 -3933 0
-264 3935 0
-3934 3935 0
-264 -3934 0
-3824 -3935 0
40 96 152 208 264 3824 0
-3937 3945 0
-3946 0
-3938 3947 0
-3945 3947 0
-3938 -3945 3948 0
-3946 3948 0
-3938 -3946 0
-3939 3949 0
-3947 3949 0
-3939 -3947 3950 0
-3948 3950 0
-3939 -3948 0
-3940 3951 0
-3949 3951 0
-3940 -3949 3952 0
-3950 3952 0
-3940 -3950 0
-3941 3953 0
-3951 3953 0
-3941 -3951 3954 0
-3952 3954 0
-3941 -3952 0
-3942 3955 0
-3953 3955 0
-3942 -3953 3956 0
-3954 3956 0
-3942 -3954 0
-3943 3957 0
-3955 3957 0
-3943 -3955 3958 0
-3956 3958 0
-3943 -3956 0
-3944 -3958 0
3937 3961 0
-3962 0
-3963 0
-3964 0
-3965 0
-3966 0
3938 3967 0
-3961 3967 0
3938 -3961 3968 0
-3962 3968 0
3938 -3962 3969 0
-3963 3969 0
3938 -3963 3970 0
-3964 3970 0
3938 -3964 3971 0
-3965 3971 0
3938 -3965 3972 0
-3966 3972 0
3938 -3966 0
3939 3973 0
-3967 3973 0
3939 -3967 3974 0
-3968 3974 0
3939 -3968 3975 0
-3969 3975 0
3939 -3969 3976 0
-3970 3976 0
3939 -3970 3977 0
-3971 3977 0
3939 -3971 3978 0
-3972 3978 0
3939 -3972 0
3940 3979 0
-3973 3979 0
3940 -3973 3980 0
-3974 3980 0
3940 -3974 3981 0
-3975 3981 0
3940 -3975 3982 0
-3976 3982 0
3940 -3976 3983 0
-3977 3983 0
3940 -3977 3984 0
-3978 3984 0
3940 -3978 0
3941 3985 0
-3979 3985 0
3941 -3979 3986 0
-3980 3986 0
3941 -3980 3987 0
-3981 3987 0
3941 -3981 3988 0
-3982 3988 0
3941 -3982 3989 0
-3983 3989 0
3941 -3983 3990 0
-3984 3990 0
3941 -3984 0
3942 3991 0
-3985 3991 0
3942 -3985 3992 0
-3986 3992 0
3942 -3986 3993 0
-3987 3993 0
3942 -3987 3994 0
-3988 3994 0
3942 -3988 3995 0
-3989 3995 0
3942 -3989 3996 0
-3990 3996 0
3942 -3990 0
3943 3997 0
-3991 3997 0
3943 -3991 3998 0
-3992 3998 0
3943 -3992 3999 0
-3993 3999 0
3943 -3993 4000 0
-3994 4000 0
3943 -3994 4001 0
-3995 4001 0
3943 -3995 4002 0
-3996 4002 0
3943 -3996 0
3944 -4002 0
-41 4009 0
-97 4010 0
-4009 4010 0
-97 -4009 0
-153 4011 0
-4010 4011 0
-153 -4010 0
-209 4012 0
-4011 4012 0
-209 -4011 0
-265 4013 0
-4012 4013 0
-265 -4012 0
-321 4014 0
-4013 4014 0
-321 -4013 0
-3937 -4014 0
41 97 153 209 265 321 3937 0
-42 4016 0
-98 4017 0
-4016 4017 0
-98 -4016 0
-154 4018 0
-4017 4018 0
-154 -4017 0
-210 4019 0
-4018 4019 0
-210 -4018 0
-266 4020 0
-4019 4020 0
-266 -4019 0
-322 4021 0
-4020 4021 0
-322 -4020 0
-3938 -4021 0
42 98 154 210 266 322 3938 0
-43 4023 0
-99 4024 0
-4023 4024 0
-99 -4023 0
-155 4025 0
-4024 4025 0
-155 -4024 0
-211 4026 0
-4025 4026 0
-211 -4025 0
-267 4027 0
-4026 4027 0
-267 -4026 0
-323 4028 0
-4027 4028 0
-323 -4027 0
-3939 -4028 0
43 99 155 211 267 323 3939 0
-44 4030 0
-100 4031 0
-4030 4031 0
-100 -4030 0
-156 4032 0
-4031 4032 0
-156 -4031 0
-212 4033 0
-4032 4033 0
-212 -4032 0
-268 4034 0
-4033 4034 0
-268 -4033 0
-324 4035 0
-4034 4035 0
-324 -4034 0
-3940 -4035 0
44 100 156 212 268 324 3940 0
-45 4037 0
-101 4038 0
-4037 4038 0
-101 -4037 0
-157 4039 0
-4038 4039 0
-157 -4038 0
-213 4040 0
-4039 4040 0
-213 -4039 0
-269 4041 0
-4040 4041 0
-269 -4040 0
-325 4042 0
-4041 4042 0
-325 -4041 0
-3941 -4042 0
45 101 157 213 269 325 3941 0
-46 4044 0
-102 4045 0
-4044 4045 0
-102 -4044 0
-158 4046 0
-4045 4046 0
-158 -4045 0
-214 4047 0
-4046 4047 0
-214 -4046 0
-270 4048 0
-4047 4048 0
-270 -4047 0
-326 4049 0
-4048 4049 0
-326 -4048 0
-3942 -4049 0
46 102 158 214 270 326 3942 0
-47 4051 0
-103 4052 0
-4051 4052 0
-103 -4051 0
-159 4053 0
-4052 4053 0
-159 -4052 0
-215 4054 0
-4053 4054 0
-215 -4053 0
-271 4055 0
-4054 4055 0
-271 -4054 0
-327 4056 0
-4055 4056 0
-327 -4055 0
-3943 -4056 0
47 103 159 215 271 327 3943 0
-48 4058 0
-104 4059 0
-4058 4059 0
-104 -4058 0
-160 4060 0
-4059 4060 0
-160 -4059 0
-216 4061 0
-4060 4061 0
-216 -4060 0
-272 4062 0
-4061 4062 0
-272 -4061 0
-328 4063 0
-4062 4063 0
-328 -4062 0
-3944 -4063 0
48 104 160 216 272 328 3944 0
-4065 4073 0
-4066 4074 0
-4073 4074 0
-4066 -4073 0
-4067 4075 0
-4074 4075 0
-4067 -4074 0
-4068 4076 0
-4075 4076 0
-4068 -4075 0
-4069 4077 0
-4076 4077 0
-4069 -4076 0
-4070 4078 0
-4077 4078 0
-4070 -4077 0
-4071 4079 0
-4078 4079 0
-4071 -4078 0
-4072 -4079 0
4065 4081 0
-4082 0
-4083 0
-4084 0
-4085 0
-4086 0
-4087 0
4066 4088 0
-4081 4088 0
4066 -4081 4089 0
-4082 4089 0
4066 -4082 4090 0
-4083 4090 0
4066 -4083 4091 0
-4084 4091 0
4066 -4084 4092 0
-4085 4092 0
4066 -4085 4093 0
-4086 4093 0
4066 -4086 4094 0
-4087 4094 0
4066 -4087 0
4067 4095 0
-4088 4095 0
4067 -4088 4096 0
-4089 4096 0
4067 -4089 4097 0
-4090 4097 0
4067 -4090 4098 0
-4091 4098 0
4067 -4091 4099 0
-4092 4099 0
4067 -4092 4100 0
-4093 4100 0
4067 -4093 4101 0
-4094 4101 0
4067 -4094 0
4068 4102 0
-4095 4102 0
4068 -4095 4103 0
-4096 4103 0
4068 -4096 4104 0
-4097 4104 0
4068 -4097 4105 0
-4098 4105 0
4068 -4098 4106 0
-4099 4106 0
4068 -4099 4107 0
-4100 4107 0
4068 -4100 4108 0
-4101 4108 0
4068 -4101 0
4069 4109 0
-4102 4109 0
4069 -4102 4110 0
-4103 4110 0
4069 -4103 4111 0
-4104 4111 0
4069 -4104 4112 0
-4105 4112 0
4069 -4105 4113 0
-4106 4113 0
4069 -4106 4114 0
-4107 4114 0
4069 -4107 4115 0
-4108 4115 0
4069 -4108 0
4070 4116 0
-4109 4116 0
4070 -4109 4117 0
-4110 4117 0
4070 -4110 4118 0
-4111 4118 0
4070 -4111 4119 0
-4112 4119 0
4070 -4112 4120 0
-4113 4120 0
4070 -4113 4121 0
-4114 4121 0
4070 -4114 4122 0
-4115 4122 0
4070 -4115 0
4071 4123 0
-4116 4123 0
4071 -4116 4124 0
-4117 4124 0
4071 -4117 4125 0
-4118 4125 0
4071 -4118 4126 0
-4119 4126 0
4071 -4119 4127 0
-4120 4127 0
4071 -4120 4128 0
-4121 4128 0
4071 -4121 4129 0
-4122 4129 0
4071 -4122 0
4072 -4129 0
-49 4137 0
-105 4138 0
-4137 4138 0
-105 -4137 0
-161 4139 0
-4138 4139 0
-161 -4138 0
-217 4140 0
-4139 4140 0
-217 -4139 0
-273 4141 0
-4140 4141 0
-273 -4140 0
-329 4142 0
-4141 4142 0
-329 -4141 0
-385 4143 0
-4142 4143 0
-385 -4142 0
-4065 -4143 0
49 105 161 217 273 329 385 4065 0
-50 4145 0
-106 4146 0
-4145 4146 0
-106 -4145 0
-162 4147 0
-4146 4147 0
-162 -4146 0
-218 4148 0
-4147 4148 0
-218 -4147 0
-274 4149 0
-4148 4149 0
-274 -4148 0
-330 4150 0
-4149 4150 0
-330 -4149 0
-386 4151 0
-4150 4151 0
-386 -4150 0
-4066 -4151 0
50 106 162 218 274 330 386 4066 0
-51 4153 0
-107 4154 0
-4153 4154 0
-107 -4153 0
-163 4155 0
-4154 4155 0
-163 -4154 0
-219 4156 0
-4155 4156 0
-219 -4155 0
-275 4157 0
-4156 4157 0
-275 -4156 0
-331 4158 0
-4157 4158 0
-331 -4157 0
-387 4159 0
-4158 4159 0
-387 -4158 0
-4067 -4159 0
51 107 163 219 275 331 387 4067 0
-52 4161 0
-108 4162 0
-4161 4162 0
-108 -4161 0
-164 4163 0
-4162 4163 0
-164 -4162 0
-220 4164 0
-4163 4164 0
-220 -4163 0
-276 4165 0
-4164 4165 0
-276 -4164 0
-332 4166 0
-4165 4166 0
-332 -4165 0
-388 4167 0
-4166 4167 0
-388 -4166 0
-4068 -4167 0
52 108 164 220 276 332 388 4068 0
-53 4169 0
-109 4170 0
-4169 4170 0
-109 -4169 0
-165 4171 0
-4170 4171 0
-165 -4170 0
-221 4172 0
-4171 4172 0
-221 -4171 0
-277 4173 0
-4172 4173 0
-277 -4172 0
-333 4174 0
-4173 4174 0
-333 -4173 0
-389 4175 0
-4174 4175 0
-389 -4174 0
-4069 -4175 0
53 109 165 221 277 333 389 4069 0
-54 4177 0
-110 4178 0
-4177 4178 0
-110 -4177 0
-166 4179 0
-4178 4179 0
-166 -4178 0
-222 4180 0
-4179 4180 0
-222 -4179 0
-278 4181 0
-4180 4181 0
-278 -4180 0
-334 4182 0
-4181 4182 0
-334 -4181 0
-390 4183 0
-4182 4183 0
-390 -4182 0
-4070 -4183 0
54 110 166 222 278 334 390 4070 0
-55 4185 0
-111 4186 0
-4185 4186 0
-111 -4185 0
-167 4187 0
-4186 4187 0
-167 -4186 0
-223 4188 0
-4187 4188 0
-223 -4187 0
-279 4189 0
-4188 4189 0
-279 -4188 0
-335 4190 0
-4189 4190 0
-335 -4189 0
-391 4191 0
-4190 4191 0
-391 -4190 0
-4071 -4191 0
55 111 167 223 279 335 391 4071 0
-56 4193 0
-112 4194 0
-4193 4194 0
-112 -4193 0
-168 4195 0
-4194 4195 0
-168 -4194 0
-224 4196 0
-4195 4196 0
-224 -4195 0
-280 4197 0
-4196 4197 0
-280 -4196 0
-336 4198 0
-4197 4198 0
-336 -4197 0
-392 4199 0
-4198 4199 0
-392 -4198 0
-4072 -4199 0
56 112 168 224 280 336 392 4072 0
-57 4201 0
-113 4202 0
-4201 4202 0
-113 -4201 0
-169 4203 0
-4202 4203 0
-169 -4202 0
-225 4204 0
-4203 4204 0
-225 -4203 0
-281 4205 0
-4204 4205 0
-281 -4204 0
-337 4206 0
-4205 4206 0
-337 -4205 0
-393 4207 0
-4206 4207 0
-393 -4206 0
-449 -4207 0
57 113 169 225 281 337 393 449 0
-58 4209 0
-114 4210 0
-4209 4210 0
-114 -4209 0
-170 4211 0
-4210 4211 0
-170 -4210 0
-226 4212 0
-4211 4212 0
-226 -4211 0
-282 4213 0
-4212 4213 0
-282 -4212 0
-338 4214 0
-4213 4214 0
-338 -4213 0
-394 4215 0
-4214 4215 0
-394 -4214 0
-450 -4215 0
58 114 170 226 282 338 394 450 0
-59 4217 0
-115 4218 0
-4217 4218 0
-115 -4217 0
-171 4219 0
-4218 4219 0
-171 -4218 0
-227 4220 0
-4219 4220 0
-227 -4219 0
-283 4221 0
-4220 4221 0
-283 -4220 0
-339 4222 0
-4221 4222 0
-339 -4221 0
-395 4223 0
-4222 4223 0
-395 -4222 0
-451 -4223 0
59 115 171 227 283 339 395 451 0
-60 4225 0
-116 4226 0
-4225 4226 0
-116 -4225 0
-172 4227 0
-4226 4227 0
-172 -4226 0
-228 4228 0
-4227 4228 0
-228 -4227 0
-284 4229 0
-4228 4229 0
-284 -4228 0
-340 4230 0
-4229 4230 0
-340 -4229 0
-396 4231 0
-4230 4231 0
-396 -4230 0
-452 -4231 0
60 116 172 228 284 340 396 452 0
-61 4233 0
-117 4234 0
-4233 4234 0
-117 -4233 0
-173 4235 0
-4234 4235 0
-173 -4234 0
-229 4236 0
-4235 4236 0
-229 -4235 0
-285 4237 0
-4236 4237 0
-285 -4236 0
-341 4238 0
-4237 4238 0
-341 -4237 0
-397 4239 0
-4238 4239 0
-397 -4238 0
-453 -4239 0
61 117 173 229 285 341 397 453 0
-62 4241 0
-118 4242 0
-4241 4242 0
-118 -4241 0
-174 4243 0
-4242 4243 0
-174 -4242 0
-230 4244 0
-4243 4244 0
-230 -4243 0
-286 4245 0
-4244 4245 0
-286 -4244 0
-342 4246 0
-4245 4246 0
-342 -4245 0
-398 4247 0
-4246 4247 0
-398 -4246 0
-454 -4247 0
62 118 174 230 286 342 398 454 0
-63 4249 0
-119 4250 0
-4249 4250 0
-119 -4249 0
-175 4251 0
-4250 4251 0
-175 -4250 0
-231 4252 0
-4251 4252 0
-231 -4251 0
-287 4253 0
-4252 4253 0
-287 -4252 0
-343 4254 0
-4253 4254 0
-343 -4253 0
-399 4255 0
-4254 4255 0
-399 -4254 0
-455 -4255 0
63 119 175 231 287 343 399 455 0
-64 4257 0
-120 4258 0
-4257 4258 0
-120 -4257 0
-176 4259 0
-4258 4259 0
-176 -4258 0
-232 4260 0
-4259 4260 0
-232 -4259 0
-288 4261 0
-4260 4261 0
-288 -4260 0
-344 4262 0
-4261 4262 0
-344 -4261 0
-400 4263 0
-4262 4263 0
-400 -4262 0
-456 -4263 0
64 120 176 232 288 344 400 456 0
-4265 4273 0
-4266 4274 0
-4273 4274 0
-4266 -4273 0
-4267 4275 0
-4274 4275 0
-4267 -4274 0
-4268 4276 0
-4275 4276 0
-4268 -4275 0
-4269 4277 0
-4276 4277 0
-4269 -4276 0
-4270 4278 0
-4277 4278 0
-4270 -4277 0
-4271 4279 0
-4278 4279 0
-4271 -4278 0
-4272 -4279 0
4265 4281 0
-4282 0
-4283 0
-4284 0
-4285 0
-4286 0
-4287 0
4266 4288 0
-4281 4288 0
4266 -4281 4289 0
-4282 4289 0
4266 -4282 4290 0
-4283 4290 0
4266 -4283 4291 0
-4284 4291 0
4266 -4284 4292 0
-4285 4292 0
4266 -4285 4293 0
-4286 4293 0
4266 -4286 4294 0
-4287 4294 0
4266 -4287 0
4267 4295 0
-4288 4295 0
4267 -4288 4296 0
-4289 4296 0
4267 -4289 4297 0
-4290 4297 0
4267 -4290 4298 0
-4291 4298 0
4267 -4291 4299 0
-4292 4299 0
4267 -4292 4300 0
-4293 4300 0
4267 -4293 4301 0
-4294 4301 0
4267 -4294 0
4268 4302 0
-4295 4302 0
4268 -4295 4303 0
-4296 4303 0
4268 -4296 4304 0
-4297 4304 0
4268 -4297 4305 0
-4298 4305 0
4268 -4298 4306 0
-4299 4306 0
4268 -4299 4307 0
-4300 4307 0
4268 -4300 4308 0
-4301 4308 0
4268 -4301 0
4269 4309 0
-4302 4309 0
4269 -4302 4310 0
-4303 4310 0
4269 -4303 4311 0
-4304 4311 0
4269 -4304 4312 0
-4305 4312 0
4269 -4305 4313 0
-4306 4313 0
4269 -4306 4314 0
-4307 4314 0
4269 -4307 4315 0
-4308 4315 0
4269 -4308 0
4270 4316 0
-4309 4316 0
4270 -4309 4317 0
-4310 4317 0
4270 -4310 4318 0
-4311 4318 0
4270 -4311 4319 0
-4312 4319 0
4270 -4312 4320 0
-4313 4320 0
4270 -4313 4321 0
-4314 4321 0
4270 -4314 4322 0
-4315 4322 0
4270 -4315 0
4271 4323 0
-4316 4323 0
4271 -4316 4324 0
-4317 4324 0
4271 -4317 4325 0
-4318 4325 0
4271 -4318 4326 0
-4319 4326 0
4271 -4319 4327 0
-4320 4327 0
4271 -4320 4328 0
-4321 4328 0
4271 -4321 4329 0
-4322 4329 0
4271 -4322 0
4272 -4329 0
-121 4337 0
-177 4338 0
-4337 4338 0
-177 -4337 0
-233 4339 0
-4338 4339 0
-233 -4338 0
-289 4340 0
-4339 4340 0
-289 -4339 0
-345 4341 0
-4340 4341 0
-345 -4340 0
-401 4342 0
-4341 4342 0
-401 -4341 0
-457 4343 0
-4342 4343 0
-457 -4342 0
-4265 -4343 0
121 177 233 289 345 401 457 4265 0
-122 4345 0
-178 4346 0
-4345 4346 0
-178 -4345 0
-234 4347 0
-4346 4347 0
-234 -4346 0
-290 4348 0
-4347 4348 0
-290 -4347 0
-346 4349 0
-4348 4349 0
-346 -4348 0
-402 4350 0
-4349 4350 0
-402 -4349 0
-458 4351 0
-4350 4351 0
-458 -4350 0
-4266 -4351 0
122 178 234 290 346 402 458 4266 0
-123 4353 0
-179 4354 0
-4353 4354 0
-179 -4353 0
-235 4355 0
-4354 4355 0
-235 -4354 0
-291 4356 0
-4355 4356 0
-291 -4355 0
-347 4357 0
-4356 4357 0
-347 -4356 0
-403 4358 0
-4357 4358 0
-403 -4357 0
-459 4359 0
-4358 4359 0
-459 -4358 0
-4267 -4359 0
123 179 235 291 347 403 459 4267 0
-124 4361 0
-180 4362 0
-4361 4362 0
-180 -4361 0
-236 4363 0
-4362 4363 0
-236 -4362 0
-292 4364 0
-4363 4364 0
-292 -4363 0
-348 4365 0
-4364 4365 0
-348 -4364 0
-404 4366 0
-4365 4366 0
-404 -4365 0
-460 4367 0
-4366 4367 0
-460 -4366 0
-4268 -4367 0
124 180 236 292 348 404 460 4268 0
-125 4369 0
-181 4370 0
-4369 4370 0
-181 -4369 0
-237 4371 0
-4370 4371 0
-237 -4370 0
-293 4372 0
-4371 4372 0
-293 -4371 0
-349 4373 0
-4372 4373 0
-349 -4372 0
-405 4374 0
-4373 4374 0
-405 -4373 0
-461 4375 0
-4374 4375 0
-461 -4374 0
-4269 -4375 0
125 181 237 293 349 405 461 4269 0
-126 4377 0
-182 4378 0
-4377 4378 0
-182 -4377 0
-238 4379 0
-4378 4379 0
-238 -4378 0
-294 4380 0
-4379 4380 0
-294 -4379 0
-350 4381 0
-4380 4381 0
-350 -4380 0
-406 4382 0
-4381 4382 0
-406 -4381 0
-462 4383 0
-4382 4383 0
-462 -4382 0
-4270 -4383 0
126 182 238 294 350 406 462 4270 0
-127 4385 0
-183 4386 0
-4385 4386 0
-183 -4385 0
-239 4387 0
-4386 4387 0
-239 -4386 0
-295 4388 0
-4387 4388 0
-295 -4387 0
-351 4389 0
-4388 4389 0
-351 -4388 0
-407 4390 0
-4389 4390 0
-407 -4389 0
-463 4391 0
-4390 4391 0
-463 -4390 0
-4271 -4391 0
127 183 239 295 351 407 463 4271 0
-128 4393 0
-184 4394 0
-4393 4394 0
-184 -4393 0
-240 4395 0
-4394 4395 0
-240 -4394 0
-296 4396 0
-4395 4396 0
-296 -4395 0
-352 4397 0
-4396 4397 0
-352 -4396 0
-408 4398 0
-4397 4398 0
-408 -4397 0
-464 4399 0
-4398 4399 0
-464 -4398 0
-4272 -4399 0
128 184 240 296 352 408 464 4272 0
-4401 4409 0
-4410 0
-4402 4411 0
-4409 4411 0
-4402 -4409 4412 0
-4410 4412 0
-4402 -4410 0
-4403 4413 0
-4411 4413 0
-4403 -4411 4414 0
-4412 4414 0
-4403 -4412 0
-4404 4415 0
-4413 4415 0
-4404 -4413 4416 0
-4414 4416 0
-4404 -4414 0
-4405 4417 0
-4415 4417 0
-4405 -4415 4418 0
-4416 4418 0
-4405 -4416 0
-4406 4419 0
-4417 4419 0
-4406 -4417 4420 0
-4418 4420 0
-4406 -4418 0
-4407 4421 0
-4419 4421 0
-4407 -4419 4422 0
-4420 4422 0
-4407 -4420 0
-4408 -4422 0
4401 4425 0
-4426 0
-4427 0
-4428 0
-4429 0
-4430 0
4402 4431 0
-4425 4431 0
4402 -4425 4432 0
-4426 4432 0
4402 -4426 4433 0
-4427 4433 0
4402 -4427 4434 0
-4428 4434 0
4402 -4428 4435 0
-4429 4435 0
4402 -4429 4436 0
-4430 4436 0
4402 -4430 0
4403 4437 0
-4431 4437 0
4403 -4431 4438 0
-4432 4438 0
4403 -4432 4439 0
-4433 4439 0
4403 -4433 4440 0
-4434 4440 0
4403 -4434 4441 0
-4435 4441 0
4403 -4435 4442 0
-4436 4442 0
4403 -4436 0
4404 4443 0
-4437 4443 0
4404 -4437 4444 0
-4438 4444 0
4404 -4438 4445 0
-4439 4445 0
4404 -4439 4446 0
-4440 4446 0
4404 -4440 4447 0
-4441 4447 0
4404 -4441 4448 0
-4442 4448 0
4404 -4442 0
4405 4449 0
-4443 4449 0
4405 -4443 4450 0
-4444 4450 0
4405 -4444 4451 0
-4445 4451 0
4405 -4445 4452 0
-4446 4452 0
4405 -4446 4453 0
-4447 4453 0
4405 -4447 4454 0
-4448 4454 0
4405 -4448 0
4406 4455 0
-4449 4455 0
4406 -4449 4456 0
-4450 4456 0
4406 -4450 4457 0
-4451 4457 0
4406 -4451 4458 0
-4452 4458 0
4406 -4452 4459 0
-4453 4459 0
4406 -4453 4460 0
-4454 4460 0
4406 -4454 0
4407 4461 0
-4455 4461 0
4407 -4455 4462 0
-4456 4462 0
4407 -4456 4463 0
-4457 4463 0
4407 -4457 4464 0
-4458 4464 0
4407 -4458 4465 0
-4459 4465 0
4407 -4459 4466 0
-4460 4466 0
4407 -4460 0
4408 -4466 0
-185 4473 0
-241 4474 0
-4473 4474 0
-241 -4473 0
-297 4475 0
-4474 4475 0
-297 -4474 0
-353 4476 0
-4475 4476 0
-353 -4475 0
-409 4477 0
-4476 4477 0
-409 -4476 0
-465 4478 0
-4477 4478 0
-465 -4477 0
-4401 -4478 0
185 241 297 353 409 465 4401 0
-186 4480 0
-242 4481 0
-4480 4481 0
-242 -4480 0
-298 4482 0
-4481 4482 0
-298 -4481 0
-354 4483 0
-4482 4483 0
-354 -4482 0
-410 4484 0
-4483 4484 0
-410 -4483 0
-466 4485 0
-4484 4485 0
-466 -4484 0
-4402 -4485 0
186 242 298 354 410 466 4402 0
-187 4487 0
-243 4488 0
-4487 4488 0
-243 -4487 0
-299 4489 0
-4488 4489 0
-299 -4488 0
-355 4490 0
-4489 4490 0
-355 -4489 0
-411 4491 0
-4490 4491 0
-411 -4490 0
-467 4492 0
-4491 4492 0
-467 -4491 0
-4403 -4492 0
187 243 299 355 411 467 4403 0
-188 4494 0
-244 4495 0
-4494 4495 0
-244 -4494 0
-300 4496 0
-4495 4496 0
-300 -4495 0
-356 4497 0
-4496 4497 0
-356 -4496 0
-412 4498 0
-4497 4498 0
-412 -4497 0
-468 4499 0
-4498 4499 0
-468 -4498 0
-4404 -4499 0
188 244 300 356 412 468 4404 0
-189 4501 0
-245 4502 0
-4501 4502 0
-245 -4501 0
-301 4503 0
-4502 4503 0
-301 -4502 0
-357 4504 0
-4503 4504 0
-357 -4503 0
-413 4505 0
-4504 4505 0
-413 -4504 0
-469 4506 0
-4505 4506 0
-469 -4505 0
-4405 -4506 0
189 245 301 357 413 469 4405 0
-190 4508 0
-246 4509 0
-4508 4509 0
-246 -4508 0
-302 4510 0
-4509 4510 0
-302 -4509 0
-358 4511 0
-4510 4511 0
-358 -4510 0
-414 4512 0
-4511 4512 0
-414 -4511 0
-470 4513 0
-4512 4513 0
-470 -4512 0
-4406 -4513 0
190 246 302 358 414 470 4406 0
-191 4515 0
-247 4516 0
-4515 4516 0
-247 -4515 0
-303 4517 0
-4516 4517 0
-303 -4516 0
-359 4518 0
-4517 4518 0
-359 -4517 0
-415 4519 0
-4518 4519 0
-415 -4518 0
-471 4520 0
-4519 4520 0
-471 -4519 0
-4407 -4520 0
191 247 303 359 415 471 4407 0
-192 4522 0
-248 4523 0
-4522 4523 0
-248 -4522 0
-304 4524 0
-4523 4524 0
-304 -4523 0
-360 4525 0
-4524 4525 0
-360 -4524 0
-416 4526 0
-4525 4526 0
-416 -4525 0
-472 4527 0
-4526 4527 0
-472 -4526 0
-4408 -4527 0
192 248 304 360 416 472 4408 0
-4529 4537 0
-4538 0
-4539 0
-4530 4540 0
-4537 4540 0
-4530 -4537 4541 0
-4538 4541 0
-4530 -4538 4542 0
-4539 4542 0
-4530 -4539 0
-4531 4543 0
-4540 4543 0
-4531 -4540 4544 0
-4541 4544 0
-4531 -4541 4545 0
-4542 4545 0
-4531 -4542 0
-4532 4546 0
-4543 4546 0
-4532 -4543 4547 0
-4544 4547 0
-4532 -4544 4548 0
-4545 4548 0
-4532 -4545 0
-4533 4549 0
-4546 4549 0
-4533 -4546 4550 0
-4547 4550 0
-4533 -4547 4551 0
-4548 4551 0
-4533 -4548 0
-4534 4552 0
-4549 4552 0
-4534 -4549 4553 0
-4550 4553 0
-4534 -4550 4554 0
-4551 4554 0
-4534 -4551 0
-4535 4555 0
-4552 4555 0
-4535 -4552 4556 0
-4553 4556 0
-4535 -4553 4557 0
-4554 4557 0
-4535 -4554 0
-4536 -4557 0
4529 4561 0
-4562 0
-4563 0
-4564 0
-4565 0
4530 4566 0
-4561 4566 0
4530 -4561 4567 0
-4562 4567 0
4530 -4562 4568 0
-4563 4568 0
4530 -4563 4569 0
-4564 4569 0
4530 -4564 4570 0
-4565 4570 0
4530 -4565 0
4531 4571 0
-4566 4571 0
4531 -4566 4572 0
-4567 4572 0
4531 -4567 4573 0
-4568 4573 0
4531 -4568 4574 0
-4569 4574 0
4531 -4569 4575 0
-4570 4575 0
4531 -4570 0
4532 4576 0
-4571 4576 0
4532 -4571 4577 0
-4572 4577 0
4532 -4572 4578 0
-4573 4578 0
4532 -4573 4579 0
-4574 4579 0
4532 -4574 4580 0
-4575 4580 0
4532 -4575 0
4533 4581 0
-4576 4581 0
4533 -4576 4582 0
-4577 4582 0
4533 -4577 4583 0
-4578 4583 0
4533 -4578 4584 0
-4579 4584 0
4533 -4579 4585 0
-4580 4585 0
4533 -4580 0
4534 4586 0
-4581 4586 0
4534 -4581 4587 0
-4582 4587 0
4534 -4582 4588 0
-4583 4588 0
4534 -4583 4589 0
-4584 4589 0
4534 -4584 4590 0
-4585 4590 0
4534 -4585 0
4535 4591 0
-4586 4591 0
4535 -4586 4592 0
-4587 4592 0
4535 -4587 4593 0
-4588 4593 0
4535 -4588 4594 0
-4589 4594 0
4535 -4589 4595 0
-4590 4595 0
4535 -4590 0
4536 -4595 0
-249 4601 0
-305 4602 0
-4601 4602 0
-305 -4601 0
-361 4603 0
-4602 4603 0
-361 -4602 0
-417 4604 0
-4603 4604 0
-417 -4603 0
-473 4605 0
-4604 4605 0
-473 -4604 0
-4529 -4605 0
249 305 361 417 473 4529 0
-250 4607 0
-306 4608 0
-4607 4608 0
-306 -4607 0
-362 4609 0
-4608 4609 0
-362 -4608 0
-418 4610 0
-4609 4610 0
-418 -4609 0
-474 4611 0
-4610 4611 0
-474 -4610 0
-4530 -4611 0
250 306 362 418 474 4530 0
-251 4613 0
-307 4614 0
-4613 4614 0
-307 -4613 0
-363 4615 0
-4614 4615 0
-363 -4614 0
-419 4616 0
-4615 4616 0
-419 -4615 0
-475 4617 0
-4616 4617 0
-475 -4616 0
-4531 -4617 0
251 307 363 419 475 4531 0
-252 4619 0
-308 4620 0
-4619 4620 0
-308 -4619 0
-364 4621 0
-4620 4621 0
-364 -4620 0
-420 4622 0
-4621 4622 0
-420 -4621 0
-476 4623 0
-4622 4623 0
-476 -4622 0
-4532 -4623 0
252 308 364 420 476 4532 0
-253 4625 0
-309 4626 0
-4625 4626 0
-309 -4625 0
-365 4627 0
-4626 4627 0
-365 -4626 0
-421 4628 0
-4627 4628 0
-421 -4627 0
-477 4629 0
-4628 4629 0
-477 -4628 0
-4533 -4629 0
253 309 365 421 477 4533 0
-254 4631 0
-310 4632 0
-4631 4632 0
-310 -4631 0
-366 4633 0
-4632 4633 0
-366 -4632 0
-422 4634 0
-4633 4634 0
-422 -4633 0
-478 4635 0
-4634 4635 0
-478 -4634 0
-4534 -4635 0
254 310 366 422 478 4534 0
-255 4637 0
-311 4638 0
-4637 4638 0
-311 -4637 0
-367 4639 0
-4638 4639 0
-367 -4638 0
-423 4640 0
-4639 4640 0
-423 -4639 0
-479 4641 0
-4640 4641 0
-479 -4640 0
-4535 -4641 0
255 311 367 423 479 4535 0
-256 4643 0
-312 4644 0
-4643 4644 0
-312 -4643 0
-368 4645 0
-4644 4645 0
-368 -4644 0
-424 4646 0
-4645 4646 0
-424 -4645 0
-480 4647 0
-4646 4647 0
-480 -4646 0
-4536 -4647 0
256 312 368 424 480 4536 0
-4649 4657 0
-4658 0
-4659 0
-4660 0
-4650 4661 0
-4657 4661 0
-4650 -4657 4662 0
-4658 4662 0
-4650 -4658 4663 0
-4659 4663 0
-4650 -4659 4664 0
-4660 4664 0
-4650 -4660 0
-4651 4665 0
-4661 4665 0
-4651 -4661 4666 0
-4662 4666 0
-4651 -4662 4667 0
-4663 4667 0
-4651 -4663 4668 0
-4664 4668 0
-4651 -4664 0
-4652 4669 0
-4665 4669 0
-4652 -4665 4670 0
-4666 4670 0
-4652 -4666 4671 0
-4667 4671 0
-4652 -4667 4672 0
-4668 4672 0
-4652 -4668 0
-4653 4673 0
-4669 4673 0
-4653 -4669 4674 0
-4670 4674 0
-4653 -4670 4675 0
-4671 4675 0
-4653 -4671 4676 0
-4672 4676 0
-4653 -4672 0
-4654 4677 0
-4673 4677 0
-4654 -4673 4678 0
-4674 4678 0
-4654 -4674 4679 0
-4675 4679 0
-4654 -4675 4680 0
-4676 4680 0
-4654 -4676 0
-4655 4681 0
-4677 4681 0
-4655 -4677 4682 0
-4678 4682 0
-4655 -4678 4683 0
-4679 4683 0
-4655 -4679 4684 0
-4680 4684 0
-4655 -4680 0
-4656 -4684 0
4649 4689 0
-4690 0
-4691 0
-4692 0
4650 4693 0
-4689 4693 0
4650 -4689 4694 0
-4690 4694 0
4650 -4690 4695 0
-4691 4695 0
4650 -4691 4696 0
-4692 4696 0
4650 -4692 0
4651 4697 0
-4693 4697 0
4651 -4693 4698 0
-4694 4698 0
4651 -4694 4699 0
-4695 4699 0
4651 -4695 4700 0
-4696 4700 0
4651 -4696 0
4652 4701 0
-4697 4701 0
4652 -4697 4702 0
-4698 4702 0
4652 -4698 4703 0
-4699 4703 0
4652 -4699 4704 0
-4700 4704 0
4652 -4700 0
4653 4705 0
-4701 4705 0
4653 -4701 4706 0
-4702 4706 0
4653 -4702 4707 0
-4703 4707 0
4653 -4703 4708 0
-4704 4708 0
4653 -4704 0
4654 4709 0
-4705 4709 0
4654 -4705 4710 0
-4706 4710 0
4654 -4706 4711 0
-4707 4711 0
4654 -4707 4712 0
-4708 4712 0
4654 -4708 0
4655 4713 0
-4709 4713 0
4655 -4709 4714 0
-4710 4714 0
4655 -4710 4715 0
-4711 4715 0
4655 -4711 4716 0
-4712 4716 0
4655 -4712 0
4656 -4716 0
-313 4721 0
-369 4722 0
-4721 4722 0
-369 -4721 0
-425 4723 0
-4722 4723 0
-425 -4722 0
-481 4724 0
-4723 4724 0
-481 -4723 0
-4649 -4724 0
313 369 425 481 4649 0
-314 4726 0
-370 4727 0
-4726 4727 0
-370 -4726 0
-426 4728 0
-4727 4728 0
-426 -4727 0
-482 4729 0
-4728 4729 0
-482 -4728 0
-4650 -4729 0
314 370 426 482 4650 0
-315 4731 0
-371 4732 0
-4731 4732 0
-371 -4731 0
-427 4733 0
-4732 4733 0
-427 -4732 0
-483 4734 0
-4733 4734 0
-483 -4733 0
-4651 -4734 0
315 371 427 483 4651 0
-316 4736 0
-372 4737 0
-4736 4737 0
-372 -4736 0
-428 4738 0
-4737 4738 0
-428 -4737 0
-484 4739 0
-4738 4739 0
-484 -4738 0
-4652 -4739 0
316 372 428 484 4652 0
-317 4741 0
-373 4742 0
-4741 4742 0
-373 -4741 0
-429 4743 0
-4742 4743 0
-429 -4742 0
-485 4744 0
-4743 4744 0
-485 -4743 0
-4653 -4744 0
317 373 429 485 4653 0
-318 4746 0
-374 4747 0
-4746 4747 0
-374 -4746 0
-430 4748 0
-4747 4748 0
-430 -4747 0
-486 4749 0
-4748 4749 0
-486 -4748 0
-4654 -4749 0
318 374 430 486 4654 0
-319 4751 0
-375 4752 0
-4751 4752 0
-375 -4751 0
-431 4753 0
-4752 4753 0
-431 -4752 0
-487 4754 0
-4753 4754 0
-487 -4753 0
-4655 -4754 0
319 375 431 487 4655 0
-320 4756 0
-376 4757 0
-4756 4757 0
-376 -4756 0
-432 4758 0
-4757 4758 0
-432 -4757 0
-488 4759 0
-4758 4759 0
-488 -4758 0
-4656 -4759 0
320 376 432 488 4656 0
-4761 4769 0
-4770 0
-4771 0
-4772 0
-4773 0
-4762 4774 0
-4769 4774 0
-4762 -4769 4775 0
-4770 4775 0
-4762 -4770 4776 0
-4771 4776 0
-4762 -4771 4777 0
-4772 4777 0
-4762 -4772 4778 0
-4773 4778 0
-4762 -4773 0
-4763 4779 0
-4774 4779 0
-4763 -4774 4780 0
-4775 4780 0
-4763 -4775 4781 0
-4776 4781 0
-4763 -4776 4782 0
-4777 4782 0
-4763 -4777 4783 0
-4778 4783 0
-4763 -4778 0
-4764 4784 0
-4779 4784 0
-4764 -4779 4785 0
-4780 4785 0
-4764 -4780 4786 0
-4781 4786 0
-4764 -4781 4787 0
-4782 4787 0
-4764 -4782 4788 0
-4783 4788 0
-4764 -4783 0
-4765 4789 0
-4784 4789 0
-4765 -4784 4790 0
-4785 4790 0
-4765 -4785 4791 0
-4786 4791 0
-4765 -4786 4792 0
-4787 4792 0
-4765 -4787 4793 0
-4788 4793 0
-4765 -4788 0
-4766 4794 0
-4789 4794 0
-4766 -4789 4795 0
-4790 4795 0
-4766 -4790 4796 0
-4791 4796 0
-4766 -4791 4797 0
-4792 4797 0
-4766 -4792 4798 0
-4793 4798 0
-4766 -4793 0
-4767 4799 0
-4794 4799 0
-4767 -4794 4800 0
-4795 4800 0
-4767 -4795 4801 0
-4796 4801 0
-4767 -4796 4802 0
-4797 4802 0
-4767 -4797 4803 0
-4798 4803 0
-4767 -4798 0
-4768 -4803 0
4761 4809 0
-4810 0
-4811 0
4762 4812 0
-4809 4812 0
4762 -4809 4813 0
-4810 4813 0
4762 -4810 4814 0
-4811 4814 0
4762 -4811 0
4763 4815 0
-4812 4815 0
4763 -4812 4816 0
-4813 4816 0
4763 -4813 4817 0
-4814 4817 0
4763 -4814 0
4764 4818 0
-4815 4818 0
4764 -4815 4819 0
-4816 4819 0
4764 -4816 4820 0
-4817 4820 0
4764 -4817 0
4765 4821 0
-4818 4821 0
4765 -4818 4822 0
-4819 4822 0
4765 -4819 4823 0
-4820 4823 0
4765 -4820 0
4766 4824 0
-4821 4824 0
4766 -4821 4825 0
-4822 4825 0
4766 -4822 4826 0
-4823 4826 0
4766 -4823 0
4767 4827 0
-4824 4827 0
4767 -4824 4828 0
-4825 4828 0
4767 -4825 4829 0
-4826 4829 0
4767 -4826 0
4768 -4829 0
-377 4833 0
-433 4834 0
-4833 4834 0
-433 -4833 0
-489 4835 0
-4834 4835 0
-489 -4834 0
-4761 -4835 0
377 433 489 4761 0
-378 4837 0
-434 4838 0
-4837 4838 0
-434 -4837 0
-490 4839 0
-4838 4839 0
-490 -4838 0
-4762 -4839 0
378 434 490 4762 0
-379 4841 0
-435 4842 0
-4841 4842 0
-435 -4841 0
-491 4843 0
-4842 4843 0
-491 -4842 0
-4763 -4843 0
379 435 491 4763 0
-380 4845 0
-436 4846 0
-4845 4846 0
-436 -4845 0
-492 4847 0
-4846 4847 0
-492 -4846 0
-4764 -4847 0
380 436 492 4764 0
-381 4849 0
-437 4850 0
-4849 4850 0
-437 -4849 0
-493 4851 0
-4850 4851 0
-493 -4850 0
-4765 -4851 0
381 437 493 4765 0
-382 4853 0
-438 4854 0
-4853 4854 0
-438 -4853 0
-494 4855 0
-4854 4855 0
-494 -4854 0
-4766 -4855 0
382 438 494 4766 0
-383 4857 0
-439 4858 0
-4857 4858 0
-439 -4857 0
-495 4859 0
-4858 4859 0
-495 -4858 0
-4767 -4859 0
383 439 495 4767 0
-384 4861 0
-440 4862 0
-4861 4862 0
-440 -4861 0
-496 4863 0
-4862 4863 0
-496 -4862 0
-4768 -4863 0
384 440 496 4768 0
-4865 4873 0
-4874 0
-4875 0
-4876 0
-4877 0
-4878 0
-4866 4879 0
-4873 4879 0
-4866 -4873 4880 0
-4874 4880 0
-4866 -4874 4881 0
-4875 4881 0
-4866 -4875 4882 0
-4876 4882 0
-4866 -4876 4883 0
-4877 4883 0
-4866 -4877 4884 0
-4878 4884 0
-4866 -4878 0
-4867 4885 0
-4879 4885 0
-4867 -4879 4886 0
-4880 4886 0
-4867 -4880 4887 0
-4881 4887 0
-4867 -4881 4888 0
-4882 4888 0
-4867 -4882 4889 0
-4883 4889 0
-4867 -4883 4890 0
-4884 4890 0
-4867 -4884 0
-4868 4891 0
-4885 4891 0
-4868 -4885 4892 0
-4886 4892 0
-4868 -4886 4893 0
-4887 4893 0
-4868 -4887 4894 0
-4888 4894 0
-4868 -4888 4895 0
-4889 4895 0
-4868 -4889 4896 0
-4890 4896 0
-4868 -4890 0
-4869 4897 0
-4891 4897 0
-4869 -4891 4898 0
-4892 4898 0
-4869 -4892 4899 0
-4893 4899 0
-4869 -4893 4900 0
-4894 4900 0
-4869 -4894 4901 0
-4895 4901 0
-4869 -4895 4902 0
-4896 4902 0
-4869 -4896 0
-4870 4903 0
-4897 4903 0
-4870 -4897 4904 0
-4898 4904 0
-4870 -4898 4905 0
-4899 4905 0
-4870 -4899 4906 0
-4900 4906 0
-4870 -4900 4907 0
-4901 4907 0
-4870 -4901 4908 0
-4902 4908 0
-4870 -4902 0
-4871 4909 0
-4903 4909 0
-4871 -4903 4910 0
-4904 4910 0
-4871 -4904 4911 0
-4905 4911 0
-4871 -4905 4912 0
-4906 4912 0
-4871 -4906 4913 0
-4907 4913 0
-4871 -4907 4914 0
-4908 4914 0
-4871 -4908 0
-4872 -4914 0
4865 4921 0
-4922 0
4866 4923 0
-4921 4923 0
4866 -4921 4924 0
-4922 4924 0
4866 -4922 0
4867 4925 0
-4923 4925 0
4867 -4923 4926 0
-4924 4926 0
4867 -4924 0
4868 4927 0
-4925 4927 0
4868 -4925 4928 0
-4926 4928 0
4868 -4926 0
4869 4929 0
-4927 4929 0
4869 -4927 4930 0
-4928 4930 0
4869 -4928 0
4870 4931 0
-4929 4931 0
4870 -4929 4932 0
-4930 4932 0
4870 -4930 0
4871 4933 0
-4931 4933 0
4871 -4931 4934 0
-4932 4934 0
4871 -4932 0
4872 -4934 0
-441 4937 0
-497 4938 0
-4937 4938 0
-497 -4937 0
-4865 -4938 0
441 497 4865 0
-442 4940 0
-498 4941 0
-4940 4941 0
-498 -4940 0
-4866 -4941 0
442 498 4866 0
-443 4943 0
-499 4944 0
-4943 4944 0
-499 -4943 0
-4867 -4944 0
443 499 4867 0
-444 4946 0
-500 4947 0
-4946 4947 0
-500 -4946 0
-4868 -4947 0
444 500 4868 0
-445 4949 0
-501 4950 0
-4949 4950 0
-501 -4949 0
-4869 -4950 0
445 501 4869 0
-446 4952 0
-502 4953 0
-4952 4953 0
-502 -4952 0
-4870 -4953 0
446 502 4870 0
-447 4955 0
-503 4956 0
-4955 4956 0
-503 -4955 0
-4871 -4956 0
447 503 4871 0
-448 4958 0
-504 4959 0
-4958 4959 0
-504 -4958 0
-4872 -4959 0
448 504 4872 0
