p cnf 3290 6358
-1 344 0
-2 345 0
-344 345 0
-2 -344 0
-3 346 0
-345 346 0
-3 -345 0
-4 347 0
-346 347 0
-4 -346 0
-5 348 0
-347 348 0
-5 -347 0
-6 349 0
-348 349 0
-6 -348 0
-7 -349 0
1 2 3 4 5 6 7 0
-8 351 0
-9 352 0
-351 352 0
-9 -351 0
-10 353 0
-352 353 0
-10 -352 0
-11 354 0
-353 354 0
-11 -353 0
-12 355 0
-354 355 0
-12 -354 0
-13 356 0
-355 356 0
-13 -355 0
-14 -356 0
8 9 10 11 12 13 14 0
-15 358 0
-16 359 0
-358 359 0
-16 -358 0
-17 360 0
-359 360 0
-17 -359 0
-18 361 0
-360 361 0
-18 -360 0
-19 362 0
-361 362 0
-19 -361 0
-20 363 0
-362 363 0
-20 -362 0
-21 -363 0
15 16 17 18 19 20 21 0
-22 365 0
-23 366 0
-365 366 0
-23 -365 0
-24 367 0
-366 367 0
-24 -366 0
-25 368 0
-367 368 0
-25 -367 0
-26 369 0
-368 369 0
-26 -368 0
-27 370 0
-369 370 0
-27 -369 0
-28 -370 0
22 23 24 25 26 27 28 0
-29 372 0
-30 373 0
-372 373 0
-30 -372 0
-31 374 0
-373 374 0
-31 -373 0
-32 375 0
-374 375 0
-32 -374 0
-33 376 0
-375 376 0
-33 -375 0
-34 377 0
-376 377 0
-34 -376 0
-35 -377 0
29 30 31 32 33 34 35 0
-36 379 0
-37 380 0
-379 380 0
-37 -379 0
-38 381 0
-380 381 0
-38 -380 0
-39 382 0
-381 382 0
-39 -381 0
-40 383 0
-382 383 0
-40 -382 0
-41 384 0
-383 384 0
-41 -383 0
-42 -384 0
36 37 38 39 40 41 42 0
-43 386 0
-44 387 0
-386 387 0
-44 -386 0
-45 388 0
-387 388 0
-45 -387 0
-46 389 0
-388 389 0
-46 -388 0
-47 390 0
-389 390 0
-47 -389 0
-48 391 0
-390 391 0
-48 -390 0
-49 -391 0
43 44 45 46 47 48 49 0
-50 393 0
-51 394 0
-393 394 0
-51 -393 0
-52 395 0
-394 395 0
-52 -394 0
-53 396 0
-395 396 0
-53 -395 0
-54 397 0
-396 397 0
-54 -396 0
-55 398 0
-397 398 0
-55 -397 0
-56 -398 0
50 51 52 53 54 55 56 0
-57 400 0
-58 401 0
-400 401 0
-58 -400 0
-59 402 0
-401 402 0
-59 -401 0
-60 403 0
-402 403 0
-60 -402 0
-61 404 0
-403 404 0
-61 -403 0
-62 405 0
-404 405 0
-62 -404 0
-63 -405 0
57 58 59 60 61 62 63 0
-64 407 0
-65 408 0
-407 408 0
-65 -407 0
-66 409 0
-408 409 0
-66 -408 0
-67 410 0
-409 410 0
-67 -409 0
-68 411 0
-410 411 0
-68 -410 0
-69 412 0
-411 412 0
-69 -411 0
-70 -412 0
64 65 66 67 68 69 70 0
-71 414 0
-72 415 0
-414 415 0
-72 -414 0
-73 416 0
-415 416 0
-73 -415 0
-74 417 0
-416 417 0
-74 -416 0
-75 418 0
-417 418 0
-75 -417 0
-76 419 0
-418 419 0
-76 -418 0
-77 -419 0
71 72 73 74 75 76 77 0
-78 421 0
-79 422 0
-421 422 0
-79 -421 0
-80 423 0
-422 423 0
-80 -422 0
-81 424 0
-423 424 0
-81 -423 0
-82 425 0
-424 425 0
-82 -424 0
-83 426 0
-425 426 0
-83 -425 0
-84 -426 0
78 79 80 81 82 83 84 0
-85 428 0
-86 429 0
-428 429 0
-86 -428 0
-87 430 0
-429 430 0
-87 -429 0
-88 431 0
-430 431 0
-88 -430 0
-89 432 0
-431 432 0
-89 -431 0
-90 433 0
-432 433 0
-90 -432 0
-91 -433 0
85 86 87 88 89 90 91 0
-92 435 0
-93 436 0
-435 436 0
-93 -435 0
-94 437 0
-436 437 0
-94 -436 0
-95 438 0
-437 438 0
-95 -437 0
-96 439 0
-438 439 0
-96 -438 0
-97 440 0
-439 440 0
-97 -439 0
-98 -440 0
92 93 94 95 96 97 98 0
-99 442 0
-100 443 0
-442 443 0
-100 -442 0
-101 444 0
-443 444 0
-101 -443 0
-102 445 0
-444 445 0
-102 -444 0
-103 446 0
-445 446 0
-103 -445 0
-104 447 0
-446 447 0
-104 -446 0
-105 -447 0
99 100 101 102 103 104 105 0
-106 449 0
-107 450 0
-449 450 0
-107 -449 0
-108 451 0
-450 451 0
-108 -450 0
-109 452 0
-451 452 0
-109 -451 0
-110 453 0
-452 453 0
-110 -452 0
-111 454 0
-453 454 0
-111 -453 0
-112 -454 0
106 107 108 109 110 111 112 0
-113 456 0
-114 457 0
-456 457 0
-114 -456 0
-115 458 0
-457 458 0
-115 -457 0
-116 459 0
-458 459 0
-116 -458 0
-117 460 0
-459 460 0
-117 -459 0
-118 461 0
-460 461 0
-118 -460 0
-119 -461 0
113 114 115 116 117 118 119 0
-120 463 0
-121 464 0
-463 464 0
-121 -463 0
-122 465 0
-464 465 0
-122 -464 0
-123 466 0
-465 466 0
-123 -465 0
-124 467 0
-466 467 0
-124 -466 0
-125 468 0
-467 468 0
-125 -467 0
-126 -468 0
120 121 122 123 124 125 126 0
-127 470 0
-128 471 0
-470 471 0
-128 -470 0
-129 472 0
-471 472 0
-129 -471 0
-130 473 0
-472 473 0
-130 -472 0
-131 474 0
-473 474 0
-131 -473 0
-132 475 0
-474 475 0
-132 -474 0
-133 -475 0
127 128 129 130 131 132 133 0
-134 477 0
-135 478 0
-477 478 0
-135 -477 0
-136 479 0
-478 479 0
-136 -478 0
-137 480 0
-479 480 0
-137 -479 0
-138 481 0
-480 481 0
-138 -480 0
-139 482 0
-481 482 0
-139 -481 0
-140 -482 0
134 135 136 137 138 139 140 0
-141 484 0
-142 485 0
-484 485 0
-142 -484 0
-143 486 0
-485 486 0
-143 -485 0
-144 487 0
-486 487 0
-144 -486 0
-145 488 0
-487 488 0
-145 -487 0
-146 489 0
-488 489 0
-146 -488 0
-147 -489 0
141 142 143 144 145 146 147 0
-148 491 0
-149 492 0
-491 492 0
-149 -491 0
-150 493 0
-492 493 0
-150 -492 0
-151 494 0
-493 494 0
-151 -493 0
-152 495 0
-494 495 0
-152 -494 0
-153 496 0
-495 496 0
-153 -495 0
-154 -496 0
148 149 150 151 152 153 154 0
-155 498 0
-156 499 0
-498 499 0
-156 -498 0
-157 500 0
-499 500 0
-157 -499 0
-158 501 0
-500 501 0
-158 -500 0
-159 502 0
-501 502 0
-159 -501 0
-160 503 0
-502 503 0
-160 -502 0
-161 -503 0
155 156 157 158 159 160 161 0
-162 505 0
-163 506 0
-505 506 0
-163 -505 0
-164 507 0
-506 507 0
-164 -506 0
-165 508 0
-507 508 0
-165 -507 0
-166 509 0
-508 509 0
-166 -508 0
-167 510 0
-509 510 0
-167 -509 0
-168 -510 0
162 163 164 165 166 167 168 0
-169 512 0
-170 513 0
-512 513 0
-170 -512 0
-171 514 0
-513 514 0
-171 -513 0
-172 515 0
-514 515 0
-172 -514 0
-173 516 0
-515 516 0
-173 -515 0
-174 517 0
-516 517 0
-174 -516 0
-175 -517 0
169 170 171 172 173 174 175 0
-176 519 0
-177 520 0
-519 520 0
-177 -519 0
-178 521 0
-520 521 0
-178 -520 0
-179 522 0
-521 522 0
-179 -521 0
-180 523 0
-522 523 0
-180 -522 0
-181 524 0
-523 524 0
-181 -523 0
-182 -524 0
176 177 178 179 180 181 182 0
-183 526 0
-184 527 0
-526 527 0
-184 -526 0
-185 528 0
-527 528 0
-185 -527 0
-186 529 0
-528 529 0
-186 -528 0
-187 530 0
-529 530 0
-187 -529 0
-188 531 0
-530 531 0
-188 -530 0
-189 -531 0
183 184 185 186 187 188 189 0
-190 533 0
-191 534 0
-533 534 0
-191 -533 0
-192 535 0
-534 535 0
-192 -534 0
-193 536 0
-535 536 0
-193 -535 0
-194 537 0
-536 537 0
-194 -536 0
-195 538 0
-537 538 0
-195 -537 0
-196 -538 0
190 191 192 193 194 195 196 0
-197 540 0
-198 541 0
-540 541 0
-198 -540 0
-199 542 0
-541 542 0
-199 -541 0
-200 543 0
-542 543 0
-200 -542 0
-201 544 0
-543 544 0
-201 -543 0
-202 545 0
-544 545 0
-202 -544 0
-203 -545 0
197 198 199 200 201 202 203 0
-204 547 0
-205 548 0
-547 548 0
-205 -547 0
-206 549 0
-548 549 0
-206 -548 0
-207 550 0
-549 550 0
-207 -549 0
-208 551 0
-550 551 0
-208 -550 0
-209 552 0
-551 552 0
-209 -551 0
-210 -552 0
204 205 206 207 208 209 210 0
-211 554 0
-212 555 0
-554 555 0
-212 -554 0
-213 556 0
-555 556 0
-213 -555 0
-214 557 0
-556 557 0
-214 -556 0
-215 558 0
-557 558 0
-215 -557 0
-216 559 0
-558 559 0
-216 -558 0
-217 -559 0
211 212 213 214 215 216 217 0
-218 561 0
-219 562 0
-561 562 0
-219 -561 0
-220 563 0
-562 563 0
-220 -562 0
-221 564 0
-563 564 0
-221 -563 0
-222 565 0
-564 565 0
-222 -564 0
-223 566 0
-565 566 0
-223 -565 0
-224 -566 0
218 219 220 221 222 223 224 0
-225 568 0
-226 569 0
-568 569 0
-226 -568 0
-227 570 0
-569 570 0
-227 -569 0
-228 571 0
-570 571 0
-228 -570 0
-229 572 0
-571 572 0
-229 -571 0
-230 573 0
-572 573 0
-230 -572 0
-231 -573 0
225 226 227 228 229 230 231 0
-232 575 0
-233 576 0
-575 576 0
-233 -575 0
-234 577 0
-576 577 0
-234 -576 0
-235 578 0
-577 578 0
-235 -577 0
-236 579 0
-578 579 0
-236 -578 0
-237 580 0
-579 580 0
-237 -579 0
-238 -580 0
232 233 234 235 236 237 238 0
-239 582 0
-240 583 0
-582 583 0
-240 -582 0
-241 584 0
-583 584 0
-241 -583 0
-242 585 0
-584 585 0
-242 -584 0
-243 586 0
-585 586 0
-243 -585 0
-244 587 0
-586 587 0
-244 -586 0
-245 -587 0
239 240 241 242 243 244 245 0
-246 589 0
-247 590 0
-589 590 0
-247 -589 0
-248 591 0
-590 591 0
-248 -590 0
-249 592 0
-591 592 0
-249 -591 0
-250 593 0
-592 593 0
-250 -592 0
-251 594 0
-593 594 0
-251 -593 0
-252 -594 0
246 247 248 249 250 251 252 0
-253 596 0
-254 597 0
-596 597 0
-254 -596 0
-255 598 0
-597 598 0
-255 -597 0
-256 599 0
-598 599 0
-256 -598 0
-257 600 0
-599 600 0
-257 -599 0
-258 601 0
-600 601 0
-258 -600 0
-259 -601 0
253 254 255 256 257 258 259 0
-260 603 0
-261 604 0
-603 604 0
-261 -603 0
-262 605 0
-604 605 0
-262 -604 0
-263 606 0
-605 606 0
-263 -605 0
-264 607 0
-606 607 0
-264 -606 0
-265 608 0
-607 608 0
-265 -607 0
-266 -608 0
260 261 262 263 264 265 266 0
-267 610 0
-268 611 0
-610 611 0
-268 -610 0
-269 612 0
-611 612 0
-269 -611 0
-270 613 0
-612 613 0
-270 -612 0
-271 614 0
-613 614 0
-271 -613 0
-272 615 0
-614 615 0
-272 -614 0
-273 -615 0
267 268 269 270 271 272 273 0
-274 617 0
-275 618 0
-617 618 0
-275 -617 0
-276 619 0
-618 619 0
-276 -618 0
-277 620 0
-619 620 0
-277 -619 0
-278 621 0
-620 621 0
-278 -620 0
-279 622 0
-621 622 0
-279 -621 0
-280 -622 0
274 275 276 277 278 279 280 0
-281 624 0
-282 625 0
-624 625 0
-282 -624 0
-283 626 0
-625 626 0
-283 -625 0
-284 627 0
-626 627 0
-284 -626 0
-285 628 0
-627 628 0
-285 -627 0
-286 629 0
-628 629 0
-286 -628 0
-287 -629 0
281 282 283 284 285 286 287 0
-288 631 0
-289 632 0
-631 632 0
-289 -631 0
-290 633 0
-632 633 0
-290 -632 0
-291 634 0
-633 634 0
-291 -633 0
-292 635 0
-634 635 0
-292 -634 0
-293 636 0
-635 636 0
-293 -635 0
-294 -636 0
288 289 290 291 292 293 294 0
-295 638 0
-296 639 0
-638 639 0
-296 -638 0
-297 640 0
-639 640 0
-297 -639 0
-298 641 0
-640 641 0
-298 -640 0
-299 642 0
-641 642 0
-299 -641 0
-300 643 0
-642 643 0
-300 -642 0
-301 -643 0
295 296 297 298 299 300 301 0
-302 645 0
-303 646 0
-645 646 0
-303 -645 0
-304 647 0
-646 647 0
-304 -646 0
-305 648 0
-647 648 0
-305 -647 0
-306 649 0
-648 649 0
-306 -648 0
-307 650 0
-649 650 0
-307 -649 0
-308 -650 0
302 303 304 305 306 307 308 0
-309 652 0
-310 653 0
-652 653 0
-310 -652 0
-311 654 0
-653 654 0
-311 -653 0
-312 655 0
-654 655 0
-312 -654 0
-313 656 0
-655 656 0
-313 -655 0
-314 657 0
-656 657 0
-314 -656 0
-315 -657 0
309 310 311 312 313 314 315 0
-316 659 0
-317 660 0
-659 660 0
-317 -659 0
-318 661 0
-660 661 0
-318 -660 0
-319 662 0
-661 662 0
-319 -661 0
-320 663 0
-662 663 0
-320 -662 0
-321 664 0
-663 664 0
-321 -663 0
-322 -664 0
316 317 318 319 320 321 322 0
-323 666 0
-324 667 0
-666 667 0
-324 -666 0
-325 668 0
-667 668 0
-325 -667 0
-326 669 0
-668 669 0
-326 -668 0
-327 670 0
-669 670 0
-327 -669 0
-328 671 0
-670 671 0
-328 -670 0
-329 -671 0
323 324 325 326 327 328 329 0
-330 673 0
-331 674 0
-673 674 0
-331 -673 0
-332 675 0
-674 675 0
-332 -674 0
-333 676 0
-675 676 0
-333 -675 0
-334 677 0
-676 677 0
-334 -676 0
-335 678 0
-677 678 0
-335 -677 0
-336 -678 0
330 331 332 333 334 335 336 0
-337 680 0
-338 681 0
-680 681 0
-338 -680 0
-339 682 0
-681 682 0
-339 -681 0
-340 683 0
-682 683 0
-340 -682 0
-341 684 0
-683 684 0
-341 -683 0
-342 685 0
-684 685 0
-342 -684 0
-343 -685 0
337 338 339 340 341 342 343 0
-1 687 0
-8 688 0
-687 688 0
-8 -687 0
-15 689 0
-688 689 0
-15 -688 0
-22 690 0
-689 690 0
-22 -689 0
-29 691 0
-690 691 0
-29 -690 0
-36 692 0
-691 692 0
-36 -691 0
-43 -692 0
1 8 15 22 29 36 43 0
-2 694 0
-9 695 0
-694 695 0
-9 -694 0
-16 696 0
-695 696 0
-16 -695 0
-23 697 0
-696 697 0
-23 -696 0
-30 698 0
-697 698 0
-30 -697 0
-37 699 0
-698 699 0
-37 -698 0
-44 -699 0
2 9 16 23 30 37 44 0
-3 701 0
-10 702 0
-701 702 0
-10 -701 0
-17 703 0
-702 703 0
-17 -702 0
-24 704 0
-703 704 0
-24 -703 0
-31 705 0
-704 705 0
-31 -704 0
-38 706 0
-705 706 0
-38 -705 0
-45 -706 0
3 10 17 24 31 38 45 0
-4 708 0
-11 709 0
-708 709 0
-11 -708 0
-18 710 0
-709 710 0
-18 -709 0
-25 711 0
-710 711 0
-25 -710 0
-32 712 0
-711 712 0
-32 -711 0
-39 713 0
-712 713 0
-39 -712 0
-46 -713 0
4 11 18 25 32 39 46 0
-5 715 0
-12 716 0
-715 716 0
-12 -715 0
-19 717 0
-716 717 0
-19 -716 0
-26 718 0
-717 718 0
-26 -717 0
-33 719 0
-718 719 0
-33 -718 0
-40 720 0
-719 720 0
-40 -719 0
-47 -720 0
5 12 19 26 33 40 47 0
-6 722 0
-13 723 0
-722 723 0
-13 -722 0
-20 724 0
-723 724 0
-20 -723 0
-27 725 0
-724 725 0
-27 -724 0
-34 726 0
-725 726 0
-34 -725 0
-41 727 0
-726 727 0
-41 -726 0
-48 -727 0
6 13 20 27 34 41 48 0
-7 729 0
-14 730 0
-729 730 0
-14 -729 0
-21 731 0
-730 731 0
-21 -730 0
-28 732 0
-731 732 0
-28 -731 0
-35 733 0
-732 733 0
-35 -732 0
-42 734 0
-733 734 0
-42 -733 0
-49 -734 0
7 14 21 28 35 42 49 0
-50 736 0
-57 737 0
-736 737 0
-57 -736 0
-64 738 0
-737 738 0
-64 -737 0
-71 739 0
-738 739 0
-71 -738 0
-78 740 0
-739 740 0
-78 -739 0
-85 741 0
-740 741 0
-85 -740 0
-92 -741 0
50 57 64 71 78 85 92 0
-51 743 0
-58 744 0
-743 744 0
-58 -743 0
-65 745 0
-744 745 0
-65 -744 0
-72 746 0
-745 746 0
-72 -745 0
-79 747 0
-746 747 0
-79 -746 0
-86 748 0
-747 748 0
-86 -747 0
-93 -748 0
51 58 65 72 79 86 93 0
-52 750 0
-59 751 0
-750 751 0
-59 -750 0
-66 752 0
-751 752 0
-66 -751 0
-73 753 0
-752 753 0
-73 -752 0
-80 754 0
-753 754 0
-80 -753 0
-87 755 0
-754 755 0
-87 -754 0
-94 -755 0
52 59 66 73 80 87 94 0
-53 757 0
-60 758 0
-757 758 0
-60 -757 0
-67 759 0
-758 759 0
-67 -758 0
-74 760 0
-759 760 0
-74 -759 0
-81 761 0
-760 761 0
-81 -760 0
-88 762 0
-761 762 0
-88 -761 0
-95 -762 0
53 60 67 74 81 88 95 0
-54 764 0
-61 765 0
-764 765 0
-61 -764 0
-68 766 0
-765 766 0
-68 -765 0
-75 767 0
-766 767 0
-75 -766 0
-82 768 0
-767 768 0
-82 -767 0
-89 769 0
-768 769 0
-89 -768 0
-96 -769 0
54 61 68 75 82 89 96 0
-55 771 0
-62 772 0
-771 772 0
-62 -771 0
-69 773 0
-772 773 0
-69 -772 0
-76 774 0
-773 774 0
-76 -773 0
-83 775 0
-774 775 0
-83 -774 0
-90 776 0
-775 776 0
-90 -775 0
-97 -776 0
55 62 69 76 83 90 97 0
-56 778 0
-63 779 0
-778 779 0
-63 -778 0
-70 780 0
-779 780 0
-70 -779 0
-77 781 0
-780 781 0
-77 -780 0
-84 782 0
-781 782 0
-84 -781 0
-91 783 0
-782 783 0
-91 -782 0
-98 -783 0
56 63 70 77 84 91 98 0
-99 785 0
-106 786 0
-785 786 0
-106 -785 0
-113 787 0
-786 787 0
-113 -786 0
-120 788 0
-787 788 0
-120 -787 0
-127 789 0
-788 789 0
-127 -788 0
-134 790 0
-789 790 0
-134 -789 0
-141 -790 0
99 106 113 120 127 134 141 0
-100 792 0
-107 793 0
-792 793 0
-107 -792 0
-114 794 0
-793 794 0
-114 -793 0
-121 795 0
-794 795 0
-121 -794 0
-128 796 0
-795 796 0
-128 -795 0
-135 797 0
-796 797 0
-135 -796 0
-142 -797 0
100 107 114 121 128 135 142 0
-101 799 0
-108 800 0
-799 800 0
-108 -799 0
-115 801 0
-800 801 0
-115 -800 0
-122 802 0
-801 802 0
-122 -801 0
-129 803 0
-802 803 0
-129 -802 0
-136 804 0
-803 804 0
-136 -803 0
-143 -804 0
101 108 115 122 129 136 143 0
-102 806 0
-109 807 0
-806 807 0
-109 -806 0
-116 808 0
-807 808 0
-116 -807 0
-123 809 0
-808 809 0
-123 -808 0
-130 810 0
-809 810 0
-130 -809 0
-137 811 0
-810 811 0
-137 -810 0
-144 -811 0
102 109 116 123 130 137 144 0
-103 813 0
-110 814 0
-813 814 0
-110 -813 0
-117 815 0
-814 815 0
-117 -814 0
-124 816 0
-815 816 0
-124 -815 0
-131 817 0
-816 817 0
-131 -816 0
-138 818 0
-817 818 0
-138 -817 0
-145 -818 0
103 110 117 124 131 138 145 0
-104 820 0
-111 821 0
-820 821 0
-111 -820 0
-118 822 0
-821 822 0
-118 -821 0
-125 823 0
-822 823 0
-125 -822 0
-132 824 0
-823 824 0
-132 -823 0
-139 825 0
-824 825 0
-139 -824 0
-146 -825 0
104 111 118 125 132 139 146 0
-105 827 0
-112 828 0
-827 828 0
-112 -827 0
-119 829 0
-828 829 0
-119 -828 0
-126 830 0
-829 830 0
-126 -829 0
-133 831 0
-830 831 0
-133 -830 0
-140 832 0
-831 832 0
-140 -831 0
-147 -832 0
105 112 119 126 133 140 147 0
-148 834 0
-155 835 0
-834 835 0
-155 -834 0
-162 836 0
-835 836 0
-162 -835 0
-169 837 0
-836 837 0
-169 -836 0
-176 838 0
-837 838 0
-176 -837 0
-183 839 0
-838 839 0
-183 -838 0
-190 -839 0
148 155 162 169 176 183 190 0
-149 841 0
-156 842 0
-841 842 0
-156 -841 0
-163 843 0
-842 843 0
-163 -842 0
-170 844 0
-843 844 0
-170 -843 0
-177 845 0
-844 845 0
-177 -844 0
-184 846 0
-845 846 0
-184 -845 0
-191 -846 0
149 156 163 170 177 184 191 0
-150 848 0
-157 849 0
-848 849 0
-157 -848 0
-164 850 0
-849 850 0
-164 -849 0
-171 851 0
-850 851 0
-171 -850 0
-178 852 0
-851 852 0
-178 -851 0
-185 853 0
-852 853 0
-185 -852 0
-192 -853 0
150 157 164 171 178 185 192 0
-151 855 0
-158 856 0
-855 856 0
-158 -855 0
-165 857 0
-856 857 0
-165 -856 0
-172 858 0
-857 858 0
-172 -857 0
-179 859 0
-858 859 0
-179 -858 0
-186 860 0
-859 860 0
-186 -859 0
-193 -860 0
151 158 165 172 179 186 193 0
-152 862 0
-159 863 0
-862 863 0
-159 -862 0
-166 864 0
-863 864 0
-166 -863 0
-173 865 0
-864 865 0
-173 -864 0
-180 866 0
-865 866 0
-180 -865 0
-187 867 0
-866 867 0
-187 -866 0
-194 -867 0
152 159 166 173 180 187 194 0
-153 869 0
-160 870 0
-869 870 0
-160 -869 0
-167 871 0
-870 871 0
-167 -870 0
-174 872 0
-871 872 0
-174 -871 0
-181 873 0
-872 873 0
-181 -872 0
-188 874 0
-873 874 0
-188 -873 0
-195 -874 0
153 160 167 174 181 188 195 0
-154 876 0
-161 877 0
-876 877 0
-161 -876 0
-168 878 0
-877 878 0
-168 -877 0
-175 879 0
-878 879 0
-175 -878 0
-182 880 0
-879 880 0
-182 -879 0
-189 881 0
-880 881 0
-189 -880 0
-196 -881 0
154 161 168 175 182 189 196 0
-197 883 0
-204 884 0
-883 884 0
-204 -883 0
-211 885 0
-884 885 0
-211 -884 0
-218 886 0
-885 886 0
-218 -885 0
-225 887 0
-886 887 0
-225 -886 0
-232 888 0
-887 888 0
-232 -887 0
-239 -888 0
197 204 211 218 225 232 239 0
-198 890 0
-205 891 0
-890 891 0
-205 -890 0
-212 892 0
-891 892 0
-212 -891 0
-219 893 0
-892 893 0
-219 -892 0
-226 894 0
-893 894 0
-226 -893 0
-233 895 0
-894 895 0
-233 -894 0
-240 -895 0
198 205 212 219 226 233 240 0
-199 897 0
-206 898 0
-897 898 0
-206 -897 0
-213 899 0
-898 899 0
-213 -898 0
-220 900 0
-899 900 0
-220 -899 0
-227 901 0
-900 901 0
-227 -900 0
-234 902 0
-901 902 0
-234 -901 0
-241 -902 0
199 206 213 220 227 234 241 0
-200 904 0
-207 905 0
-904 905 0
-207 -904 0
-214 906 0
-905 906 0
-214 -905 0
-221 907 0
-906 907 0
-221 -906 0
-228 908 0
-907 908 0
-228 -907 0
-235 909 0
-908 909 0
-235 -908 0
-242 -909 0
200 207 214 221 228 235 242 0
-201 911 0
-208 912 0
-911 912 0
-208 -911 0
-215 913 0
-912 913 0
-215 -912 0
-222 914 0
-913 914 0
-222 -913 0
-229 915 0
-914 915 0
-229 -914 0
-236 916 0
-915 916 0
-236 -915 0
-243 -916 0
201 208 215 222 229 236 243 0
-202 918 0
-209 919 0
-918 919 0
-209 -918 0
-216 920 0
-919 920 0
-216 -919 0
-223 921 0
-920 921 0
-223 -920 0
-230 922 0
-921 922 0
-230 -921 0
-237 923 0
-922 923 0
-237 -922 0
-244 -923 0
202 209 216 223 230 237 244 0
-203 925 0
-210 926 0
-925 926 0
-210 -925 0
-217 927 0
-926 927 0
-217 -926 0
-224 928 0
-927 928 0
-224 -927 0
-231 929 0
-928 929 0
-231 -928 0
-238 930 0
-929 930 0
-238 -929 0
-245 -930 0
203 210 217 224 231 238 245 0
-246 932 0
-253 933 0
-932 933 0
-253 -932 0
-260 934 0
-933 934 0
-260 -933 0
-267 935 0
-934 935 0
-267 -934 0
-274 936 0
-935 936 0
-274 -935 0
-281 937 0
-936 937 0
-281 -936 0
-288 -937 0
246 253 260 267 274 281 288 0
-247 939 0
-254 940 0
-939 940 0
-254 -939 0
-261 941 0
-940 941 0
-261 -940 0
-268 942 0
-941 942 0
-268 -941 0
-275 943 0
-942 943 0
-275 -942 0
-282 944 0
-943 944 0
-282 -943 0
-289 -944 0
247 254 261 268 275 282 289 0
-248 946 0
-255 947 0
-946 947 0
-255 -946 0
-262 948 0
-947 948 0
-262 -947 0
-269 949 0
-948 949 0
-269 -948 0
-276 950 0
-949 950 0
-276 -949 0
-283 951 0
-950 951 0
-283 -950 0
-290 -951 0
248 255 262 269 276 283 290 0
-249 953 0
-256 954 0
-953 954 0
-256 -953 0
-263 955 0
-954 955 0
-263 -954 0
-270 956 0
-955 956 0
-270 -955 0
-277 957 0
-956 957 0
-277 -956 0
-284 958 0
-957 958 0
-284 -957 0
-291 -958 0
249 256 263 270 277 284 291 0
-250 960 0
-257 961 0
-960 961 0
-257 -960 0
-264 962 0
-961 962 0
-264 -961 0
-271 963 0
-962 963 0
-271 -962 0
-278 964 0
-963 964 0
-278 -963 0
-285 965 0
-964 965 0
-285 -964 0
-292 -965 0
250 257 264 271 278 285 292 0
-251 967 0
-258 968 0
-967 968 0
-258 -967 0
-265 969 0
-968 969 0
-265 -968 0
-272 970 0
-969 970 0
-272 -969 0
-279 971 0
-970 971 0
-279 -970 0
-286 972 0
-971 972 0
-286 -971 0
-293 -972 0
251 258 265 272 279 286 293 0
-252 974 0
-259 975 0
-974 975 0
-259 -974 0
-266 976 0
-975 976 0
-266 -975 0
-273 977 0
-976 977 0
-273 -976 0
-280 978 0
-977 978 0
-280 -977 0
-287 979 0
-978 979 0
-287 -978 0
-294 -979 0
252 259 266 273 280 287 294 0
-295 981 0
-302 982 0
-981 982 0
-302 -981 0
-309 983 0
-982 983 0
-309 -982 0
-316 984 0
-983 984 0
-316 -983 0
-323 985 0
-984 985 0
-323 -984 0
-330 986 0
-985 986 0
-330 -985 0
-337 -986 0
295 302 309 316 323 330 337 0
-296 988 0
-303 989 0
-988 989 0
-303 -988 0
-310 990 0
-989 990 0
-310 -989 0
-317 991 0
-990 991 0
-317 -990 0
-324 992 0
-991 992 0
-324 -991 0
-331 993 0
-992 993 0
-331 -992 0
-338 -993 0
296 303 310 317 324 331 338 0
-297 995 0
-304 996 0
-995 996 0
-304 -995 0
-311 997 0
-996 997 0
-311 -996 0
-318 998 0
-997 998 0
-318 -997 0
-325 999 0
-998 999 0
-325 -998 0
-332 1000 0
-999 1000 0
-332 -999 0
-339 -1000 0
297 304 311 318 325 332 339 0
-298 1002 0
-305 1003 0
-1002 1003 0
-305 -1002 0
-312 1004 0
-1003 1004 0
-312 -1003 0
-319 1005 0
-1004 1005 0
-319 -1004 0
-326 1006 0
-1005 1006 0
-326 -1005 0
-333 1007 0
-1006 1007 0
-333 -1006 0
-340 -1007 0
298 305 312 319 326 333 340 0
-299 1009 0
-306 1010 0
-1009 1010 0
-306 -1009 0
-313 1011 0
-1010 1011 0
-313 -1010 0
-320 1012 0
-1011 1012 0
-320 -1011 0
-327 1013 0
-1012 1013 0
-327 -1012 0
-334 1014 0
-1013 1014 0
-334 -1013 0
-341 -1014 0
299 306 313 320 327 334 341 0
-300 1016 0
-307 1017 0
-1016 1017 0
-307 -1016 0
-314 1018 0
-1017 1018 0
-314 -1017 0
-321 1019 0
-1018 1019 0
-321 -1018 0
-328 1020 0
-1019 1020 0
-328 -1019 0
-335 1021 0
-1020 1021 0
-335 -1020 0
-342 -1021 0
300 307 314 321 328 335 342 0
-301 1023 0
-308 1024 0
-1023 1024 0
-308 -1023 0
-315 1025 0
-1024 1025 0
-315 -1024 0
-322 1026 0
-1025 1026 0
-322 -1025 0
-329 1027 0
-1026 1027 0
-329 -1026 0
-336 1028 0
-1027 1028 0
-336 -1027 0
-343 -1028 0
301 308 315 322 329 336 343 0
-1 1030 0
-50 1031 0
-1030 1031 0
-50 -1030 0
-99 1032 0
-1031 1032 0
-99 -1031 0
-148 1033 0
-1032 1033 0
-148 -1032 0
-197 1034 0
-1033 1034 0
-197 -1033 0
-246 1035 0
-1034 1035 0
-246 -1034 0
-295 -1035 0
1 50 99 148 197 246 295 0
-2 1037 0
-51 1038 0
-1037 1038 0
-51 -1037 0
-100 1039 0
-1038 1039 0
-100 -1038 0
-149 1040 0
-1039 1040 0
-149 -1039 0
-198 1041 0
-1040 1041 0
-198 -1040 0
-247 1042 0
-1041 1042 0
-247 -1041 0
-296 -1042 0
2 51 100 149 198 247 296 0
-3 1044 0
-52 1045 0
-1044 1045 0
-52 -1044 0
-101 1046 0
-1045 1046 0
-101 -1045 0
-150 1047 0
-1046 1047 0
-150 -1046 0
-199 1048 0
-1047 1048 0
-199 -1047 0
-248 1049 0
-1048 1049 0
-248 -1048 0
-297 -1049 0
3 52 101 150 199 248 297 0
-4 1051 0
-53 1052 0
-1051 1052 0
-53 -1051 0
-102 1053 0
-1052 1053 0
-102 -1052 0
-151 1054 0
-1053 1054 0
-151 -1053 0
-200 1055 0
-1054 1055 0
-200 -1054 0
-249 1056 0
-1055 1056 0
-249 -1055 0
-298 -1056 0
4 53 102 151 200 249 298 0
-5 1058 0
-54 1059 0
-1058 1059 0
-54 -1058 0
-103 1060 0
-1059 1060 0
-103 -1059 0
-152 1061 0
-1060 1061 0
-152 -1060 0
-201 1062 0
-1061 1062 0
-201 -1061 0
-250 1063 0
-1062 1063 0
-250 -1062 0
-299 -1063 0
5 54 103 152 201 250 299 0
-6 1065 0
-55 1066 0
-1065 1066 0
-55 -1065 0
-104 1067 0
-1066 1067 0
-104 -1066 0
-153 1068 0
-1067 1068 0
-153 -1067 0
-202 1069 0
-1068 1069 0
-202 -1068 0
-251 1070 0
-1069 1070 0
-251 -1069 0
-300 -1070 0
6 55 104 153 202 251 300 0
-7 1072 0
-56 1073 0
-1072 1073 0
-56 -1072 0
-105 1074 0
-1073 1074 0
-105 -1073 0
-154 1075 0
-1074 1075 0
-154 -1074 0
-203 1076 0
-1075 1076 0
-203 -1075 0
-252 1077 0
-1076 1077 0
-252 -1076 0
-301 -1077 0
7 56 105 154 203 252 301 0
-8 1079 0
-57 1080 0
-1079 1080 0
-57 -1079 0
-106 1081 0
-1080 1081 0
-106 -1080 0
-155 1082 0
-1081 1082 0
-155 -1081 0
-204 1083 0
-1082 1083 0
-204 -1082 0
-253 1084 0
-1083 1084 0
-253 -1083 0
-302 -1084 0
8 57 106 155 204 253 302 0
-9 1086 0
-58 1087 0
-1086 1087 0
-58 -1086 0
-107 1088 0
-1087 1088 0
-107 -1087 0
-156 1089 0
-1088 1089 0
-156 -1088 0
-205 1090 0
-1089 1090 0
-205 -1089 0
-254 1091 0
-1090 1091 0
-254 -1090 0
-303 -1091 0
9 58 107 156 205 254 303 0
-10 1093 0
-59 1094 0
-1093 1094 0
-59 -1093 0
-108 1095 0
-1094 1095 0
-108 -1094 0
-157 1096 0
-1095 1096 0
-157 -1095 0
-206 1097 0
-1096 1097 0
-206 -1096 0
-255 1098 0
-1097 1098 0
-255 -1097 0
-304 -1098 0
10 59 108 157 206 255 304 0
-11 1100 0
-60 1101 0
-1100 1101 0
-60 -1100 0
-109 1102 0
-1101 1102 0
-109 -1101 0
-158 1103 0
-1102 1103 0
-158 -1102 0
-207 1104 0
-1103 1104 0
-207 -1103 0
-256 1105 0
-1104 1105 0
-256 -1104 0
-305 -1105 0
11 60 109 158 207 256 305 0
-12 1107 0
-61 1108 0
-1107 1108 0
-61 -1107 0
-110 1109 0
-1108 1109 0
-110 -1108 0
-159 1110 0
-1109 1110 0
-159 -1109 0
-208 1111 0
-1110 1111 0
-208 -1110 0
-257 1112 0
-1111 1112 0
-257 -1111 0
-306 -1112 0
12 61 110 159 208 257 306 0
-13 1114 0
-62 1115 0
-1114 1115 0
-62 -1114 0
-111 1116 0
-1115 1116 0
-111 -1115 0
-160 1117 0
-1116 1117 0
-160 -1116 0
-209 1118 0
-1117 1118 0
-209 -1117 0
-258 1119 0
-1118 1119 0
-258 -1118 0
-307 -1119 0
13 62 111 160 209 258 307 0
-14 1121 0
-63 1122 0
-1121 1122 0
-63 -1121 0
-112 1123 0
-1122 1123 0
-112 -1122 0
-161 1124 0
-1123 1124 0
-161 -1123 0
-210 1125 0
-1124 1125 0
-210 -1124 0
-259 1126 0
-1125 1126 0
-259 -1125 0
-308 -1126 0
14 63 112 161 210 259 308 0
-15 1128 0
-64 1129 0
-1128 1129 0
-64 -1128 0
-113 1130 0
-1129 1130 0
-113 -1129 0
-162 1131 0
-1130 1131 0
-162 -1130 0
-211 1132 0
-1131 1132 0
-211 -1131 0
-260 1133 0
-1132 1133 0
-260 -1132 0
-309 -1133 0
15 64 113 162 211 260 309 0
-16 1135 0
-65 1136 0
-1135 1136 0
-65 -1135 0
-114 1137 0
-1136 1137 0
-114 -1136 0
-163 1138 0
-1137 1138 0
-163 -1137 0
-212 1139 0
-1138 1139 0
-212 -1138 0
-261 1140 0
-1139 1140 0
-261 -1139 0
-310 -1140 0
16 65 114 163 212 261 310 0
-17 1142 0
-66 1143 0
-1142 1143 0
-66 -1142 0
-115 1144 0
-1143 1144 0
-115 -1143 0
-164 1145 0
-1144 1145 0
-164 -1144 0
-213 1146 0
-1145 1146 0
-213 -1145 0
-262 1147 0
-1146 1147 0
-262 -1146 0
-311 -1147 0
17 66 115 164 213 262 311 0
-18 1149 0
-67 1150 0
-1149 1150 0
-67 -1149 0
-116 1151 0
-1150 1151 0
-116 -1150 0
-165 1152 0
-1151 1152 0
-165 -1151 0
-214 1153 0
-1152 1153 0
-214 -1152 0
-263 1154 0
-1153 1154 0
-263 -1153 0
-312 -1154 0
18 67 116 165 214 263 312 0
-19 1156 0
-68 1157 0
-1156 1157 0
-68 -1156 0
-117 1158 0
-1157 1158 0
-117 -1157 0
-166 1159 0
-1158 1159 0
-166 -1158 0
-215 1160 0
-1159 1160 0
-215 -1159 0
-264 1161 0
-1160 1161 0
-264 -1160 0
-313 -1161 0
19 68 117 166 215 264 313 0
-20 1163 0
-69 1164 0
-1163 1164 0
-69 -1163 0
-118 1165 0
-1164 1165 0
-118 -1164 0
-167 1166 0
-1165 1166 0
-167 -1165 0
-216 1167 0
-1166 1167 0
-216 -1166 0
-265 1168 0
-1167 1168 0
-265 -1167 0
-314 -1168 0
20 69 118 167 216 265 314 0
-21 1170 0
-70 1171 0
-1170 1171 0
-70 -1170 0
-119 1172 0
-1171 1172 0
-119 -1171 0
-168 1173 0
-1172 1173 0
-168 -1172 0
-217 1174 0
-1173 1174 0
-217 -1173 0
-266 1175 0
-1174 1175 0
-266 -1174 0
-315 -1175 0
21 70 119 168 217 266 315 0
-22 1177 0
-71 1178 0
-1177 1178 0
-71 -1177 0
-120 1179 0
-1178 1179 0
-120 -1178 0
-169 1180 0
-1179 1180 0
-169 -1179 0
-218 1181 0
-1180 1181 0
-218 -1180 0
-267 1182 0
-1181 1182 0
-267 -1181 0
-316 -1182 0
22 71 120 169 218 267 316 0
-23 1184 0
-72 1185 0
-1184 1185 0
-72 -1184 0
-121 1186 0
-1185 1186 0
-121 -1185 0
-170 1187 0
-1186 1187 0
-170 -1186 0
-219 1188 0
-1187 1188 0
-219 -1187 0
-268 1189 0
-1188 1189 0
-268 -1188 0
-317 -1189 0
23 72 121 170 219 268 317 0
-24 1191 0
-73 1192 0
-1191 1192 0
-73 -1191 0
-122 1193 0
-1192 1193 0
-122 -1192 0
-171 1194 0
-1193 1194 0
-171 -1193 0
-220 1195 0
-1194 1195 0
-220 -1194 0
-269 1196 0
-1195 1196 0
-269 -1195 0
-318 -1196 0
24 73 122 171 220 269 318 0
-25 1198 0
-74 1199 0
-1198 1199 0
-74 -1198 0
-123 1200 0
-1199 1200 0
-123 -1199 0
-172 1201 0
-1200 1201 0
-172 -1200 0
-221 1202 0
-1201 1202 0
-221 -1201 0
-270 1203 0
-1202 1203 0
-270 -1202 0
-319 -1203 0
25 74 123 172 221 270 319 0
-26 1205 0
-75 1206 0
-1205 1206 0
-75 -1205 0
-124 1207 0
-1206 1207 0
-124 -1206 0
-173 1208 0
-1207 1208 0
-173 -1207 0
-222 1209 0
-1208 1209 0
-222 -1208 0
-271 1210 0
-1209 1210 0
-271 -1209 0
-320 -1210 0
26 75 124 173 222 271 320 0
-27 1212 0
-76 1213 0
-1212 1213 0
-76 -1212 0
-125 1214 0
-1213 1214 0
-125 -1213 0
-174 1215 0
-1214 1215 0
-174 -1214 0
-223 1216 0
-1215 1216 0
-223 -1215 0
-272 1217 0
-1216 1217 0
-272 -1216 0
-321 -1217 0
27 76 125 174 223 272 321 0
-28 1219 0
-77 1220 0
-1219 1220 0
-77 -1219 0
-126 1221 0
-1220 1221 0
-126 -1220 0
-175 1222 0
-1221 1222 0
-175 -1221 0
-224 1223 0
-1222 1223 0
-224 -1222 0
-273 1224 0
-1223 1224 0
-273 -1223 0
-322 -1224 0
28 77 126 175 224 273 322 0
-29 1226 0
-78 1227 0
-1226 1227 0
-78 -1226 0
-127 1228 0
-1227 1228 0
-127 -1227 0
-176 1229 0
-1228 1229 0
-176 -1228 0
-225 1230 0
-1229 1230 0
-225 -1229 0
-274 1231 0
-1230 1231 0
-274 -1230 0
-323 -1231 0
29 78 127 176 225 274 323 0
-30 1233 0
-79 1234 0
-1233 1234 0
-79 -1233 0
-128 1235 0
-1234 1235 0
-128 -1234 0
-177 1236 0
-1235 1236 0
-177 -1235 0
-226 1237 0
-1236 1237 0
-226 -1236 0
-275 1238 0
-1237 1238 0
-275 -1237 0
-324 -1238 0
30 79 128 177 226 275 324 0
-31 1240 0
-80 1241 0
-1240 1241 0
-80 -1240 0
-129 1242 0
-1241 1242 0
-129 -1241 0
-178 1243 0
-1242 1243 0
-178 -1242 0
-227 1244 0
-1243 1244 0
-227 -1243 0
-276 1245 0
-1244 1245 0
-276 -1244 0
-325 -1245 0
31 80 129 178 227 276 325 0
-32 1247 0
-81 1248 0
-1247 1248 0
-81 -1247 0
-130 1249 0
-1248 1249 0
-130 -1248 0
-179 1250 0
-1249 1250 0
-179 -1249 0
-228 1251 0
-1250 1251 0
-228 -1250 0
-277 1252 0
-1251 1252 0
-277 -1251 0
-326 -1252 0
32 81 130 179 228 277 326 0
-33 1254 0
-82 1255 0
-1254 1255 0
-82 -1254 0
-131 1256 0
-1255 1256 0
-131 -1255 0
-180 1257 0
-1256 1257 0
-180 -1256 0
-229 1258 0
-1257 1258 0
-229 -1257 0
-278 1259 0
-1258 1259 0
-278 -1258 0
-327 -1259 0
33 82 131 180 229 278 327 0
-34 1261 0
-83 1262 0
-1261 1262 0
-83 -1261 0
-132 1263 0
-1262 1263 0
-132 -1262 0
-181 1264 0
-1263 1264 0
-181 -1263 0
-230 1265 0
-1264 1265 0
-230 -1264 0
-279 1266 0
-1265 1266 0
-279 -1265 0
-328 -1266 0
34 83 132 181 230 279 328 0
-35 1268 0
-84 1269 0
-1268 1269 0
-84 -1268 0
-133 1270 0
-1269 1270 0
-133 -1269 0
-182 1271 0
-1270 1271 0
-182 -1270 0
-231 1272 0
-1271 1272 0
-231 -1271 0
-280 1273 0
-1272 1273 0
-280 -1272 0
-329 -1273 0
35 84 133 182 231 280 329 0
-36 1275 0
-85 1276 0
-1275 1276 0
-85 -1275 0
-134 1277 0
-1276 1277 0
-134 -1276 0
-183 1278 0
-1277 1278 0
-183 -1277 0
-232 1279 0
-1278 1279 0
-232 -1278 0
-281 1280 0
-1279 1280 0
-281 -1279 0
-330 -1280 0
36 85 134 183 232 281 330 0
-37 1282 0
-86 1283 0
-1282 1283 0
-86 -1282 0
-135 1284 0
-1283 1284 0
-135 -1283 0
-184 1285 0
-1284 1285 0
-184 -1284 0
-233 1286 0
-1285 1286 0
-233 -1285 0
-282 1287 0
-1286 1287 0
-282 -1286 0
-331 -1287 0
37 86 135 184 233 282 331 0
-38 1289 0
-87 1290 0
-1289 1290 0
-87 -1289 0
-136 1291 0
-1290 1291 0
-136 -1290 0
-185 1292 0
-1291 1292 0
-185 -1291 0
-234 1293 0
-1292 1293 0
-234 -1292 0
-283 1294 0
-1293 1294 0
-283 -1293 0
-332 -1294 0
38 87 136 185 234 283 332 0
-39 1296 0
-88 1297 0
-1296 1297 0
-88 -1296 0
-137 1298 0
-1297 1298 0
-137 -1297 0
-186 1299 0
-1298 1299 0
-186 -1298 0
-235 1300 0
-1299 1300 0
-235 -1299 0
-284 1301 0
-1300 1301 0
-284 -1300 0
-333 -1301 0
39 88 137 186 235 284 333 0
-40 1303 0
-89 1304 0
-1303 1304 0
-89 -1303 0
-138 1305 0
-1304 1305 0
-138 -1304 0
-187 1306 0
-1305 1306 0
-187 -1305 0
-236 1307 0
-1306 1307 0
-236 -1306 0
-285 1308 0
-1307 1308 0
-285 -1307 0
-334 -1308 0
40 89 138 187 236 285 334 0
-41 1310 0
-90 1311 0
-1310 1311 0
-90 -1310 0
-139 1312 0
-1311 1312 0
-139 -1311 0
-188 1313 0
-1312 1313 0
-188 -1312 0
-237 1314 0
-1313 1314 0
-237 -1313 0
-286 1315 0
-1314 1315 0
-286 -1314 0
-335 -1315 0
41 90 139 188 237 286 335 0
-42 1317 0
-91 1318 0
-1317 1318 0
-91 -1317 0
-140 1319 0
-1318 1319 0
-140 -1318 0
-189 1320 0
-1319 1320 0
-189 -1319 0
-238 1321 0
-1320 1321 0
-238 -1320 0
-287 1322 0
-1321 1322 0
-287 -1321 0
-336 -1322 0
42 91 140 189 238 287 336 0
-43 1324 0
-92 1325 0
-1324 1325 0
-92 -1324 0
-141 1326 0
-1325 1326 0
-141 -1325 0
-190 1327 0
-1326 1327 0
-190 -1326 0
-239 1328 0
-1327 1328 0
-239 -1327 0
-288 1329 0
-1328 1329 0
-288 -1328 0
-337 -1329 0
43 92 141 190 239 288 337 0
-44 1331 0
-93 1332 0
-1331 1332 0
-93 -1331 0
-142 1333 0
-1332 1333 0
-142 -1332 0
-191 1334 0
-1333 1334 0
-191 -1333 0
-240 1335 0
-1334 1335 0
-240 -1334 0
-289 1336 0
-1335 1336 0
-289 -1335 0
-338 -1336 0
44 93 142 191 240 289 338 0
-45 1338 0
-94 1339 0
-1338 1339 0
-94 -1338 0
-143 1340 0
-1339 1340 0
-143 -1339 0
-192 1341 0
-1340 1341 0
-192 -1340 0
-241 1342 0
-1341 1342 0
-241 -1341 0
-290 1343 0
-1342 1343 0
-290 -1342 0
-339 -1343 0
45 94 143 192 241 290 339 0
-46 1345 0
-95 1346 0
-1345 1346 0
-95 -1345 0
-144 1347 0
-1346 1347 0
-144 -1346 0
-193 1348 0
-1347 1348 0
-193 -1347 0
-242 1349 0
-1348 1349 0
-242 -1348 0
-291 1350 0
-1349 1350 0
-291 -1349 0
-340 -1350 0
46 95 144 193 242 291 340 0
-47 1352 0
-96 1353 0
-1352 1353 0
-96 -1352 0
-145 1354 0
-1353 1354 0
-145 -1353 0
-194 1355 0
-1354 1355 0
-194 -1354 0
-243 1356 0
-1355 1356 0
-243 -1355 0
-292 1357 0
-1356 1357 0
-292 -1356 0
-341 -1357 0
47 96 145 194 243 292 341 0
-48 1359 0
-97 1360 0
-1359 1360 0
-97 -1359 0
-146 1361 0
-1360 1361 0
-146 -1360 0
-195 1362 0
-1361 1362 0
-195 -1361 0
-244 1363 0
-1362 1363 0
-244 -1362 0
-293 1364 0
-1363 1364 0
-293 -1363 0
-342 -1364 0
48 97 146 195 244 293 342 0
-49 1366 0
-98 1367 0
-1366 1367 0
-98 -1366 0
-147 1368 0
-1367 1368 0
-147 -1367 0
-196 1369 0
-1368 1369 0
-196 -1368 0
-245 1370 0
-1369 1370 0
-245 -1369 0
-294 1371 0
-1370 1371 0
-294 -1370 0
-343 -1371 0
49 98 147 196 245 294 343 0
-1373 1380 0
-1381 0
-1382 0
-1383 0
-1384 0
-1374 1385 0
-1380 1385 0
-1374 -1380 1386 0
-1381 1386 0
-1374 -1381 1387 0
-1382 1387 0
-1374 -1382 1388 0
-1383 1388 0
-1374 -1383 1389 0
-1384 1389 0
-1374 -1384 0
-1375 1390 0
-1385 1390 0
-1375 -1385 1391 0
-1386 1391 0
-1375 -1386 1392 0
-1387 1392 0
-1375 -1387 1393 0
-1388 1393 0
-1375 -1388 1394 0
-1389 1394 0
-1375 -1389 0
-1376 1395 0
-1390 1395 0
-1376 -1390 1396 0
-1391 1396 0
-1376 -1391 1397 0
-1392 1397 0
-1376 -1392 1398 0
-1393 1398 0
-1376 -1393 1399 0
-1394 1399 0
-1376 -1394 0
-1377 1400 0
-1395 1400 0
-1377 -1395 1401 0
-1396 1401 0
-1377 -1396 1402 0
-1397 1402 0
-1377 -1397 1403 0
-1398 1403 0
-1377 -1398 1404 0
-1399 1404 0
-1377 -1399 0
-1378 1405 0
-1400 1405 0
-1378 -1400 1406 0
-1401 1406 0
-1378 -1401 1407 0
-1402 1407 0
-1378 -1402 1408 0
-1403 1408 0
-1378 -1403 1409 0
-1404 1409 0
-1378 -1404 0
-1379 -1409 0
1373 1415 0
-1416 0
1374 1417 0
-1415 1417 0
1374 -1415 1418 0
-1416 1418 0
1374 -1416 0
1375 1419 0
-1417 1419 0
1375 -1417 1420 0
-1418 1420 0
1375 -1418 0
1376 1421 0
-1419 1421 0
1376 -1419 1422 0
-1420 1422 0
1376 -1420 0
1377 1423 0
-1421 1423 0
1377 -1421 1424 0
-1422 1424 0
1377 -1422 0
1378 1425 0
-1423 1425 0
1378 -1423 1426 0
-1424 1426 0
1378 -1424 0
1379 -1426 0
-36 1429 0
-92 1430 0
-1429 1430 0
-92 -1429 0
-1373 -1430 0
36 92 1373 0
-37 1432 0
-93 1433 0
-1432 1433 0
-93 -1432 0
-1374 -1433 0
37 93 1374 0
-38 1435 0
-94 1436 0
-1435 1436 0
-94 -1435 0
-1375 -1436 0
38 94 1375 0
-39 1438 0
-95 1439 0
-1438 1439 0
-95 -1438 0
-1376 -1439 0
39 95 1376 0
-40 1441 0
-96 1442 0
-1441 1442 0
-96 -1441 0
-1377 -1442 0
40 96 1377 0
-41 1444 0
-97 1445 0
-1444 1445 0
-97 -1444 0
-1378 -1445 0
41 97 1378 0
-42 1447 0
-98 1448 0
-1447 1448 0
-98 -1447 0
-1379 -1448 0
42 98 1379 0
-1450 1457 0
-1458 0
-1459 0
-1460 0
-1451 1461 0
-1457 1461 0
-1451 -1457 1462 0
-1458 1462 0
-1451 -1458 1463 0
-1459 1463 0
-1451 -1459 1464 0
-1460 1464 0
-1451 -1460 0
-1452 1465 0
-1461 1465 0
-1452 -1461 1466 0
-1462 1466 0
-1452 -1462 1467 0
-1463 1467 0
-1452 -1463 1468 0
-1464 1468 0
-1452 -1464 0
-1453 1469 0
-1465 1469 0
-1453 -1465 1470 0
-1466 1470 0
-1453 -1466 1471 0
-1467 1471 0
-1453 -1467 1472 0
-1468 1472 0
-1453 -1468 0
-1454 1473 0
-1469 1473 0
-1454 -1469 1474 0
-1470 1474 0
-1454 -1470 1475 0
-1471 1475 0
-1454 -1471 1476 0
-1472 1476 0
-1454 -1472 0
-1455 1477 0
-1473 1477 0
-1455 -1473 1478 0
-1474 1478 0
-1455 -1474 1479 0
-1475 1479 0
-1455 -1475 1480 0
-1476 1480 0
-1455 -1476 0
-1456 -1480 0
1450 1485 0
-1486 0
-1487 0
1451 1488 0
-1485 1488 0
1451 -1485 1489 0
-1486 1489 0
1451 -1486 1490 0
-1487 1490 0
1451 -1487 0
1452 1491 0
-1488 1491 0
1452 -1488 1492 0
-1489 1492 0
1452 -1489 1493 0
-1490 1493 0
1452 -1490 0
1453 1494 0
-1491 1494 0
1453 -1491 1495 0
-1492 1495 0
1453 -1492 1496 0
-1493 1496 0
1453 -1493 0
1454 1497 0
-1494 1497 0
1454 -1494 1498 0
-1495 1498 0
1454 -1495 1499 0
-1496 1499 0
1454 -1496 0
1455 1500 0
-1497 1500 0
1455 -1497 1501 0
-1498 1501 0
1455 -1498 1502 0
-1499 1502 0
1455 -1499 0
1456 -1502 0
-29 1506 0
-85 1507 0
-1506 1507 0
-85 -1506 0
-141 1508 0
-1507 1508 0
-141 -1507 0
-1450 -1508 0
29 85 141 1450 0
-30 1510 0
-86 1511 0
-1510 1511 0
-86 -1510 0
-142 1512 0
-1511 1512 0
-142 -1511 0
-1451 -1512 0
30 86 142 1451 0
-31 1514 0
-87 1515 0
-1514 1515 0
-87 -1514 0
-143 1516 0
-1515 1516 0
-143 -1515 0
-1452 -1516 0
31 87 143 1452 0
-32 1518 0
-88 1519 0
-1518 1519 0
-88 -1518 0
-144 1520 0
-1519 1520 0
-144 -1519 0
-1453 -1520 0
32 88 144 1453 0
-33 1522 0
-89 1523 0
-1522 1523 0
-89 -1522 0
-145 1524 0
-1523 1524 0
-145 -1523 0
-1454 -1524 0
33 89 145 1454 0
-34 1526 0
-90 1527 0
-1526 1527 0
-90 -1526 0
-146 1528 0
-1527 1528 0
-146 -1527 0
-1455 -1528 0
34 90 146 1455 0
-35 1530 0
-91 1531 0
-1530 1531 0
-91 -1530 0
-147 1532 0
-1531 1532 0
-147 -1531 0
-1456 -1532 0
35 91 147 1456 0
-1534 1541 0
-1542 0
-1543 0
-1535 1544 0
-1541 1544 0
-1535 -1541 1545 0
-1542 1545 0
-1535 -1542 1546 0
-1543 1546 0
-1535 -1543 0
-1536 1547 0
-1544 1547 0
-1536 -1544 1548 0
-1545 1548 0
-1536 -1545 1549 0
-1546 1549 0
-1536 -1546 0
-1537 1550 0
-1547 1550 0
-1537 -1547 1551 0
-1548 1551 0
-1537 -1548 1552 0
-1549 1552 0
-1537 -1549 0
-1538 1553 0
-1550 1553 0
-1538 -1550 1554 0
-1551 1554 0
-1538 -1551 1555 0
-1552 1555 0
-1538 -1552 0
-1539 1556 0
-1553 1556 0
-1539 -1553 1557 0
-1554 1557 0
-1539 -1554 1558 0
-1555 1558 0
-1539 -1555 0
-1540 -1558 0
1534 1562 0
-1563 0
-1564 0
-1565 0
1535 1566 0
-1562 1566 0
1535 -1562 1567 0
-1563 1567 0
1535 -1563 1568 0
-1564 1568 0
1535 -1564 1569 0
-1565 1569 0
1535 -1565 0
1536 1570 0
-1566 1570 0
1536 -1566 1571 0
-1567 1571 0
1536 -1567 1572 0
-1568 1572 0
1536 -1568 1573 0
-1569 1573 0
1536 -1569 0
1537 1574 0
-1570 1574 0
1537 -1570 1575 0
-1571 1575 0
1537 -1571 1576 0
-1572 1576 0
1537 -1572 1577 0
-1573 1577 0
1537 -1573 0
1538 1578 0
-1574 1578 0
1538 -1574 1579 0
-1575 1579 0
1538 -1575 1580 0
-1576 1580 0
1538 -1576 1581 0
-1577 1581 0
1538 -1577 0
1539 1582 0
-1578 1582 0
1539 -1578 1583 0
-1579 1583 0
1539 -1579 1584 0
-1580 1584 0
1539 -1580 1585 0
-1581 1585 0
1539 -1581 0
1540 -1585 0
-22 1590 0
-78 1591 0
-1590 1591 0
-78 -1590 0
-134 1592 0
-1591 1592 0
-134 -1591 0
-190 1593 0
-1592 1593 0
-190 -1592 0
-1534 -1593 0
22 78 134 190 1534 0
-23 1595 0
-79 1596 0
-1595 1596 0
-79 -1595 0
-135 1597 0
-1596 1597 0
-135 -1596 0
-191 1598 0
-1597 1598 0
-191 -1597 0
-1535 -1598 0
23 79 135 191 1535 0
-24 1600 0
-80 1601 0
-1600 1601 0
-80 -1600 0
-136 1602 0
-1601 1602 0
-136 -1601 0
-192 1603 0
-1602 1603 0
-192 -1602 0
-1536 -1603 0
24 80 136 192 1536 0
-25 1605 0
-81 1606 0
-1605 1606 0
-81 -1605 0
-137 1607 0
-1606 1607 0
-137 -1606 0
-193 1608 0
-1607 1608 0
-193 -1607 0
-1537 -1608 0
25 81 137 193 1537 0
-26 1610 0
-82 1611 0
-1610 1611 0
-82 -1610 0
-138 1612 0
-1611 1612 0
-138 -1611 0
-194 1613 0
-1612 1613 0
-194 -1612 0
-1538 -1613 0
26 82 138 194 1538 0
-27 1615 0
-83 1616 0
-1615 1616 0
-83 -1615 0
-139 1617 0
-1616 1617 0
-139 -1616 0
-195 1618 0
-1617 1618 0
-195 -1617 0
-1539 -1618 0
27 83 139 195 1539 0
-28 1620 0
-84 1621 0
-1620 1621 0
-84 -1620 0
-140 1622 0
-1621 1622 0
-140 -1621 0
-196 1623 0
-1622 1623 0
-196 -1622 0
-1540 -1623 0
28 84 140 196 1540 0
-1625 1632 0
-1633 0
-1626 1634 0
-1632 1634 0
-1626 -1632 1635 0
-1633 1635 0
-1626 -1633 0
-1627 1636 0
-1634 1636 0
-1627 -1634 1637 0
-1635 1637 0
-1627 -1635 0
-1628 1638 0
-1636 1638 0
-1628 -1636 1639 0
-1637 1639 0
-1628 -1637 0
-1629 1640 0
-1638 1640 0
-1629 -1638 1641 0
-1639 1641 0
-1629 -1639 0
-1630 1642 0
-1640 1642 0
-1630 -1640 1643 0
-1641 1643 0
-1630 -1641 0
-1631 -1643 0
1625 1646 0
-1647 0
-1648 0
-1649 0
-1650 0
1626 1651 0
-1646 1651 0
1626 -1646 1652 0
-1647 1652 0
1626 -1647 1653 0
-1648 1653 0
1626 -1648 1654 0
-1649 1654 0
1626 -1649 1655 0
-1650 1655 0
1626 -1650 0
1627 1656 0
-1651 1656 0
1627 -1651 1657 0
-1652 1657 0
1627 -1652 1658 0
-1653 1658 0
1627 -1653 1659 0
-1654 1659 0
1627 -1654 1660 0
-1655 1660 0
1627 -1655 0
1628 1661 0
-1656 1661 0
1628 -1656 1662 0
-1657 1662 0
1628 -1657 1663 0
-1658 1663 0
1628 -1658 1664 0
-1659 1664 0
1628 -1659 1665 0
-1660 1665 0
1628 -1660 0
1629 1666 0
-1661 1666 0
1629 -1661 1667 0
-1662 1667 0
1629 -1662 1668 0
-1663 1668 0
1629 -1663 1669 0
-1664 1669 0
1629 -1664 1670 0
-1665 1670 0
1629 -1665 0
1630 1671 0
-1666 1671 0
1630 -1666 1672 0
-1667 1672 0
1630 -1667 1673 0
-1668 1673 0
1630 -1668 1674 0
-1669 1674 0
1630 -1669 1675 0
-1670 1675 0
1630 -1670 0
1631 -1675 0
-15 1681 0
-71 1682 0
-1681 1682 0
-71 -1681 0
-127 1683 0
-1682 1683 0
-127 -1682 0
-183 1684 0
-1683 1684 0
-183 -1683 0
-239 1685 0
-1684 1685 0
-239 -1684 0
-1625 -1685 0
15 71 127 183 239 1625 0
-16 1687 0
-72 1688 0
-1687 1688 0
-72 -1687 0
-128 1689 0
-1688 1689 0
-128 -1688 0
-184 1690 0
-1689 1690 0
-184 -1689 0
-240 1691 0
-1690 1691 0
-240 -1690 0
-1626 -1691 0
16 72 128 184 240 1626 0
-17 1693 0
-73 1694 0
-1693 1694 0
-73 -1693 0
-129 1695 0
-1694 1695 0
-129 -1694 0
-185 1696 0
-1695 1696 0
-185 -1695 0
-241 1697 0
-1696 1697 0
-241 -1696 0
-1627 -1697 0
17 73 129 185 241 1627 0
-18 1699 0
-74 1700 0
-1699 1700 0
-74 -1699 0
-130 1701 0
-1700 1701 0
-130 -1700 0
-186 1702 0
-1701 1702 0
-186 -1701 0
-242 1703 0
-1702 1703 0
-242 -1702 0
-1628 -1703 0
18 74 130 186 242 1628 0
-19 1705 0
-75 1706 0
-1705 1706 0
-75 -1705 0
-131 1707 0
-1706 1707 0
-131 -1706 0
-187 1708 0
-1707 1708 0
-187 -1707 0
-243 1709 0
-1708 1709 0
-243 -1708 0
-1629 -1709 0
19 75 131 187 243 1629 0
-20 1711 0
-76 1712 0
-1711 1712 0
-76 -1711 0
-132 1713 0
-1712 1713 0
-132 -1712 0
-188 1714 0
-1713 1714 0
-188 -1713 0
-244 1715 0
-1714 1715 0
-244 -1714 0
-1630 -1715 0
20 76 132 188 244 1630 0
-21 1717 0
-77 1718 0
-1717 1718 0
-77 -1717 0
-133 1719 0
-1718 1719 0
-133 -1718 0
-189 1720 0
-1719 1720 0
-189 -1719 0
-245 1721 0
-1720 1721 0
-245 -1720 0
-1631 -1721 0
21 77 133 189 245 1631 0
-1723 1730 0
-1724 1731 0
-1730 1731 0
-1724 -1730 0
-1725 1732 0
-1731 1732 0
-1725 -1731 0
-1726 1733 0
-1732 1733 0
-1726 -1732 0
-1727 1734 0
-1733 1734 0
-1727 -1733 0
-1728 1735 0
-1734 1735 0
-1728 -1734 0
-1729 -1735 0
1723 1737 0
-1738 0
-1739 0
-1740 0
-1741 0
-1742 0
1724 1743 0
-1737 1743 0
1724 -1737 1744 0
-1738 1744 0
1724 -1738 1745 0
-1739 1745 0
1724 -1739 1746 0
-1740 1746 0
1724 -1740 1747 0
-1741 1747 0
1724 -1741 1748 0
-1742 1748 0
1724 -1742 0
1725 1749 0
-1743 1749 0
1725 -1743 1750 0
-1744 1750 0
1725 -1744 1751 0
-1745 1751 0
1725 -1745 1752 0
-1746 1752 0
1725 -1746 1753 0
-1747 1753 0
1725 -1747 1754 0
-1748 1754 0
1725 -1748 0
1726 1755 0
-1749 1755 0
1726 -1749 1756 0
-1750 1756 0
1726 -1750 1757 0
-1751 1757 0
1726 -1751 1758 0
-1752 1758 0
1726 -1752 1759 0
-1753 1759 0
1726 -1753 1760 0
-1754 1760 0
1726 -1754 0
1727 1761 0
-1755 1761 0
1727 -1755 1762 0
-1756 1762 0
1727 -1756 1763 0
-1757 1763 0
1727 -1757 1764 0
-1758 1764 0
1727 -1758 1765 0
-1759 1765 0
1727 -1759 1766 0
-1760 1766 0
1727 -1760 0
1728 1767 0
-1761 1767 0
1728 -1761 1768 0
-1762 1768 0
1728 -1762 1769 0
-1763 1769 0
1728 -1763 1770 0
-1764 1770 0
1728 -1764 1771 0
-1765 1771 0
1728 -1765 1772 0
-1766 1772 0
1728 -1766 0
1729 -1772 0
-8 1779 0
-64 1780 0
-1779 1780 0
-64 -1779 0
-120 1781 0
-1780 1781 0
-120 -1780 0
-176 1782 0
-1781 1782 0
-176 -1781 0
-232 1783 0
-1782 1783 0
-232 -1782 0
-288 1784 0
-1783 1784 0
-288 -1783 0
-1723 -1784 0
8 64 120 176 232 288 1723 0
-9 1786 0
-65 1787 0
-1786 1787 0
-65 -1786 0
-121 1788 0
-1787 1788 0
-121 -1787 0
-177 1789 0
-1788 1789 0
-177 -1788 0
-233 1790 0
-1789 1790 0
-233 -1789 0
-289 1791 0
-1790 1791 0
-289 -1790 0
-1724 -1791 0
9 65 121 177 233 289 1724 0
-10 1793 0
-66 1794 0
-1793 1794 0
-66 -1793 0
-122 1795 0
-1794 1795 0
-122 -1794 0
-178 1796 0
-1795 1796 0
-178 -1795 0
-234 1797 0
-1796 1797 0
-234 -1796 0
-290 1798 0
-1797 1798 0
-290 -1797 0
-1725 -1798 0
10 66 122 178 234 290 1725 0
-11 1800 0
-67 1801 0
-1800 1801 0
-67 -1800 0
-123 1802 0
-1801 1802 0
-123 -1801 0
-179 1803 0
-1802 1803 0
-179 -1802 0
-235 1804 0
-1803 1804 0
-235 -1803 0
-291 1805 0
-1804 1805 0
-291 -1804 0
-1726 -1805 0
11 67 123 179 235 291 1726 0
-12 1807 0
-68 1808 0
-1807 1808 0
-68 -1807 0
-124 1809 0
-1808 1809 0
-124 -1808 0
-180 1810 0
-1809 1810 0
-180 -1809 0
-236 1811 0
-1810 1811 0
-236 -1810 0
-292 1812 0
-1811 1812 0
-292 -1811 0
-1727 -1812 0
12 68 124 180 236 292 1727 0
-13 1814 0
-69 1815 0
-1814 1815 0
-69 -1814 0
-125 1816 0
-1815 1816 0
-125 -1815 0
-181 1817 0
-1816 1817 0
-181 -1816 0
-237 1818 0
-1817 1818 0
-237 -1817 0
-293 1819 0
-1818 1819 0
-293 -1818 0
-1728 -1819 0
13 69 125 181 237 293 1728 0
-14 1821 0
-70 1822 0
-1821 1822 0
-70 -1821 0
-126 1823 0
-1822 1823 0
-126 -1822 0
-182 1824 0
-1823 1824 0
-182 -1823 0
-238 1825 0
-1824 1825 0
-238 -1824 0
-294 1826 0
-1825 1826 0
-294 -1825 0
-1729 -1826 0
14 70 126 182 238 294 1729 0
-1 1828 0
-57 1829 0
-1828 1829 0
-57 -1828 0
-113 1830 0
-1829 1830 0
-113 -1829 0
-169 1831 0
-1830 1831 0
-169 -1830 0
-225 1832 0
-1831 1832 0
-225 -1831 0
-281 1833 0
-1832 1833 0
-281 -1832 0
-337 -1833 0
1 57 113 169 225 281 337 0
-2 1835 0
-58 1836 0
-1835 1836 0
-58 -1835 0
-114 1837 0
-1836 1837 0
-114 -1836 0
-170 1838 0
-1837 1838 0
-170 -1837 0
-226 1839 0
-1838 1839 0
-226 -1838 0
-282 1840 0
-1839 1840 0
-282 -1839 0
-338 -1840 0
2 58 114 170 226 282 338 0
-3 1842 0
-59 1843 0
-1842 1843 0
-59 -1842 0
-115 1844 0
-1843 1844 0
-115 -1843 0
-171 1845 0
-1844 1845 0
-171 -1844 0
-227 1846 0
-1845 1846 0
-227 -1845 0
-283 1847 0
-1846 1847 0
-283 -1846 0
-339 -1847 0
3 59 115 171 227 283 339 0
-4 1849 0
-60 1850 0
-1849 1850 0
-60 -1849 0
-116 1851 0
-1850 1851 0
-116 -1850 0
-172 1852 0
-1851 1852 0
-172 -1851 0
-228 1853 0
-1852 1853 0
-228 -1852 0
-284 1854 0
-1853 1854 0
-284 -1853 0
-340 -1854 0
4 60 116 172 228 284 340 0
-5 1856 0
-61 1857 0
-1856 1857 0
-61 -1856 0
-117 1858 0
-1857 1858 0
-117 -1857 0
-173 1859 0
-1858 1859 0
-173 -1858 0
-229 1860 0
-1859 1860 0
-229 -1859 0
-285 1861 0
-1860 1861 0
-285 -1860 0
-341 -1861 0
5 61 117 173 229 285 341 0
-6 1863 0
-62 1864 0
-1863 1864 0
-62 -1863 0
-118 1865 0
-1864 1865 0
-118 -1864 0
-174 1866 0
-1865 1866 0
-174 -1865 0
-230 1867 0
-1866 1867 0
-230 -1866 0
-286 1868 0
-1867 1868 0
-286 -1867 0
-342 -1868 0
6 62 118 174 230 286 342 0
-7 1870 0
-63 1871 0
-1870 1871 0
-63 -1870 0
-119 1872 0
-1871 1872 0
-119 -1871 0
-175 1873 0
-1872 1873 0
-175 -1872 0
-231 1874 0
-1873 1874 0
-231 -1873 0
-287 1875 0
-1874 1875 0
-287 -1874 0
-343 -1875 0
7 63 119 175 231 287 343 0
-1877 1884 0
-1878 1885 0
-1884 1885 0
-1878 -1884 0
-1879 1886 0
-1885 1886 0
-1879 -1885 0
-1880 1887 0
-1886 1887 0
-1880 -1886 0
-1881 1888 0
-1887 1888 0
-1881 -1887 0
-1882 1889 0
-1888 1889 0
-1882 -1888 0
-1883 -1889 0
1877 1891 0
-1892 0
-1893 0
-1894 0
-1895 0
-1896 0
1878 1897 0
-1891 1897 0
1878 -1891 1898 0
-1892 1898 0
1878 -1892 1899 0
-1893 1899 0
1878 -1893 1900 0
-1894 1900 0
1878 -1894 1901 0
-1895 1901 0
1878 -1895 1902 0
-1896 1902 0
1878 -1896 0
1879 1903 0
-1897 1903 0
1879 -1897 1904 0
-1898 1904 0
1879 -1898 1905 0
-1899 1905 0
1879 -1899 1906 0
-1900 1906 0
1879 -1900 1907 0
-1901 1907 0
1879 -1901 1908 0
-1902 1908 0
1879 -1902 0
1880 1909 0
-1903 1909 0
1880 -1903 1910 0
-1904 1910 0
1880 -1904 1911 0
-1905 1911 0
1880 -1905 1912 0
-1906 1912 0
1880 -1906 1913 0
-1907 1913 0
1880 -1907 1914 0
-1908 1914 0
1880 -1908 0
1881 1915 0
-1909 1915 0
1881 -1909 1916 0
-1910 1916 0
1881 -1910 1917 0
-1911 1917 0
1881 -1911 1918 0
-1912 1918 0
1881 -1912 1919 0
-1913 1919 0
1881 -1913 1920 0
-1914 1920 0
1881 -1914 0
1882 1921 0
-1915 1921 0
1882 -1915 1922 0
-1916 1922 0
1882 -1916 1923 0
-1917 1923 0
1882 -1917 1924 0
-1918 1924 0
1882 -1918 1925 0
-1919 1925 0
1882 -1919 1926 0
-1920 1926 0
1882 -1920 0
1883 -1926 0
-50 1933 0
-106 1934 0
-1933 1934 0
-106 -1933 0
-162 1935 0
-1934 1935 0
-162 -1934 0
-218 1936 0
-1935 1936 0
-218 -1935 0
-274 1937 0
-1936 1937 0
-274 -1936 0
-330 1938 0
-1937 1938 0
-330 -1937 0
-1877 -1938 0
50 106 162 218 274 330 1877 0
-51 1940 0
-107 1941 0
-1940 1941 0
-107 -1940 0
-163 1942 0
-1941 1942 0
-163 -1941 0
-219 1943 0
-1942 1943 0
-219 -1942 0
-275 1944 0
-1943 1944 0
-275 -1943 0
-331 1945 0
-1944 1945 0
-331 -1944 0
-1878 -1945 0
51 107 163 219 275 331 1878 0
-52 1947 0
-108 1948 0
-1947 1948 0
-108 -1947 0
-164 1949 0
-1948 1949 0
-164 -1948 0
-220 1950 0
-1949 1950 0
-220 -1949 0
-276 1951 0
-1950 1951 0
-276 -1950 0
-332 1952 0
-1951 1952 0
-332 -1951 0
-1879 -1952 0
52 108 164 220 276 332 1879 0
-53 1954 0
-109 1955 0
-1954 1955 0
-109 -1954 0
-165 1956 0
-1955 1956 0
-165 -1955 0
-221 1957 0
-1956 1957 0
-221 -1956 0
-277 1958 0
-1957 1958 0
-277 -1957 0
-333 1959 0
-1958 1959 0
-333 -1958 0
-1880 -1959 0
53 109 165 221 277 333 1880 0
-54 1961 0
-110 1962 0
-1961 1962 0
-110 -1961 0
-166 1963 0
-1962 1963 0
-166 -1962 0
-222 1964 0
-1963 1964 0
-222 -1963 0
-278 1965 0
-1964 1965 0
-278 -1964 0
-334 1966 0
-1965 1966 0
-334 -1965 0
-1881 -1966 0
54 110 166 222 278 334 1881 0
-55 1968 0
-111 1969 0
-1968 1969 0
-111 -1968 0
-167 1970 0
-1969 1970 0
-167 -1969 0
-223 1971 0
-1970 1971 0
-223 -1970 0
-279 1972 0
-1971 1972 0
-279 -1971 0
-335 1973 0
-1972 1973 0
-335 -1972 0
-1882 -1973 0
55 111 167 223 279 335 1882 0
-56 1975 0
-112 1976 0
-1975 1976 0
-112 -1975 0
-168 1977 0
-1976 1977 0
-168 -1976 0
-224 1978 0
-1977 1978 0
-224 -1977 0
-280 1979 0
-1978 1979 0
-280 -1978 0
-336 1980 0
-1979 1980 0
-336 -1979 0
-1883 -1980 0
56 112 168 224 280 336 1883 0
-1982 1989 0
-1990 0
-1983 1991 0
-1989 1991 0
-1983 -1989 1992 0
-1990 1992 0
-1983 -1990 0
-1984 1993 0
-1991 1993 0
-1984 -1991 1994 0
-1992 1994 0
-1984 -1992 0
-1985 1995 0
-1993 1995 0
-1985 -1993 1996 0
-1994 1996 0
-1985 -1994 0
-1986 1997 0
-1995 1997 0
-1986 -1995 1998 0
-1996 1998 0
-1986 -1996 0
-1987 1999 0
-1997 1999 0
-1987 -1997 2000 0
-1998 2000 0
-1987 -1998 0
-1988 -2000 0
1982 2003 0
-2004 0
-2005 0
-2006 0
-2007 0
1983 2008 0
-2003 2008 0
1983 -2003 2009 0
-2004 2009 0
1983 -2004 2010 0
-2005 2010 0
1983 -2005 2011 0
-2006 2011 0
1983 -2006 2012 0
-2007 2012 0
1983 -2007 0
1984 2013 0
-2008 2013 0
1984 -2008 2014 0
-2009 2014 0
1984 -2009 2015 0
-2010 2015 0
1984 -2010 2016 0
-2011 2016 0
1984 -2011 2017 0
-2012 2017 0
1984 -2012 0
1985 2018 0
-2013 2018 0
1985 -2013 2019 0
-2014 2019 0
1985 -2014 2020 0
-2015 2020 0
1985 -2015 2021 0
-2016 2021 0
1985 -2016 2022 0
-2017 2022 0
1985 -2017 0
1986 2023 0
-2018 2023 0
1986 -2018 2024 0
-2019 2024 0
1986 -2019 2025 0
-2020 2025 0
1986 -2020 2026 0
-2021 2026 0
1986 -2021 2027 0
-2022 2027 0
1986 -2022 0
1987 2028 0
-2023 2028 0
1987 -2023 2029 0
-2024 2029 0
1987 -2024 2030 0
-2025 2030 0
1987 -2025 2031 0
-2026 2031 0
1987 -2026 2032 0
-2027 2032 0
1987 -2027 0
1988 -2032 0
-99 2038 0
-155 2039 0
-2038 2039 0
-155 -2038 0
-211 2040 0
-2039 2040 0
-211 -2039 0
-267 2041 0
-2040 2041 0
-267 -2040 0
-323 2042 0
-2041 2042 0
-323 -2041 0
-1982 -2042 0
99 155 211 267 323 1982 0
-100 2044 0
-156 2045 0
-2044 2045 0
-156 -2044 0
-212 2046 0
-2045 2046 0
-212 -2045 0
-268 2047 0
-2046 2047 0
-268 -2046 0
-324 2048 0
-2047 2048 0
-324 -2047 0
-1983 -2048 0
100 156 212 268 324 1983 0
-101 2050 0
-157 2051 0
-2050 2051 0
-157 -2050 0
-213 2052 0
-2051 2052 0
-213 -2051 0
-269 2053 0
-2052 2053 0
-269 -2052 0
-325 2054 0
-2053 2054 0
-325 -2053 0
-1984 -2054 0
101 157 213 269 325 1984 0
-102 2056 0
-158 2057 0
-2056 2057 0
-158 -2056 0
-214 2058 0
-2057 2058 0
-214 -2057 0
-270 2059 0
-2058 2059 0
-270 -2058 0
-326 2060 0
-2059 2060 0
-326 -2059 0
-1985 -2060 0
102 158 214 270 326 1985 0
-103 2062 0
-159 2063 0
-2062 2063 0
-159 -2062 0
-215 2064 0
-2063 2064 0
-215 -2063 0
-271 2065 0
-2064 2065 0
-271 -2064 0
-327 2066 0
-2065 2066 0
-327 -2065 0
-1986 -2066 0
103 159 215 271 327 1986 0
-104 2068 0
-160 2069 0
-2068 2069 0
-160 -2068 0
-216 2070 0
-2069 2070 0
-216 -2069 0
-272 2071 0
-2070 2071 0
-272 -2070 0
-328 2072 0
-2071 2072 0
-328 -2071 0
-1987 -2072 0
104 160 216 272 328 1987 0
-105 2074 0
-161 2075 0
-2074 2075 0
-161 -2074 0
-217 2076 0
-2075 2076 0
-217 -2075 0
-273 2077 0
-2076 2077 0
-273 -2076 0
-329 2078 0
-2077 2078 0
-329 -2077 0
-1988 -2078 0
105 161 217 273 329 1988 0
-2080 2087 0
-2088 0
-2089 0
-2081 2090 0
-2087 2090 0
-2081 -2087 2091 0
-2088 2091 0
-2081 -2088 2092 0
-2089 2092 0
-2081 -2089 0
-2082 2093 0
-2090 2093 0
-2082 -2090 2094 0
-2091 2094 0
-2082 -2091 2095 0
-2092 2095 0
-2082 -2092 0
-2083 2096 0
-2093 2096 0
-2083 -2093 2097 0
-2094 2097 0
-2083 -2094 2098 0
-2095 2098 0
-2083 -2095 0
-2084 2099 0
-2096 2099 0
-2084 -2096 2100 0
-2097 2100 0
-2084 -2097 2101 0
-2098 2101 0
-2084 -2098 0
-2085 2102 0
-2099 2102 0
-2085 -2099 2103 0
-2100 2103 0
-2085 -2100 2104 0
-2101 2104 0
-2085 -2101 0
-2086 -2104 0
2080 2108 0
-2109 0
-2110 0
-2111 0
2081 2112 0
-2108 2112 0
2081 -2108 2113 0
-2109 2113 0
2081 -2109 2114 0
-2110 2114 0
2081 -2110 2115 0
-2111 2115 0
2081 -2111 0
2082 2116 0
-2112 2116 0
2082 -2112 2117 0
-2113 2117 0
2082 -2113 2118 0
-2114 2118 0
2082 -2114 2119 0
-2115 2119 0
2082 -2115 0
2083 2120 0
-2116 2120 0
2083 -2116 2121 0
-2117 2121 0
2083 -2117 2122 0
-2118 2122 0
2083 -2118 2123 0
-2119 2123 0
2083 -2119 0
2084 2124 0
-2120 2124 0
2084 -2120 2125 0
-2121 2125 0
2084 -2121 2126 0
-2122 2126 0
2084 -2122 2127 0
-2123 2127 0
2084 -2123 0
2085 2128 0
-2124 2128 0
2085 -2124 2129 0
-2125 2129 0
2085 -2125 2130 0
-2126 2130 0
2085 -2126 2131 0
-2127 2131 0
2085 -2127 0
2086 -2131 0
-148 2136 0
-204 2137 0
-2136 2137 0
-204 -2136 0
-260 2138 0
-2137 2138 0
-260 -2137 0
-316 2139 0
-2138 2139 0
-316 -2138 0
-2080 -2139 0
148 204 260 316 2080 0
-149 2141 0
-205 2142 0
-2141 2142 0
-205 -2141 0
-261 2143 0
-2142 2143 0
-261 -2142 0
-317 2144 0
-2143 2144 0
-317 -2143 0
-2081 -2144 0
149 205 261 317 2081 0
-150 2146 0
-206 2147 0
-2146 2147 0
-206 -2146 0
-262 2148 0
-2147 2148 0
-262 -2147 0
-318 2149 0
-2148 2149 0
-318 -2148 0
-2082 -2149 0
150 206 262 318 2082 0
-151 2151 0
-207 2152 0
-2151 2152 0
-207 -2151 0
-263 2153 0
-2152 2153 0
-263 -2152 0
-319 2154 0
-2153 2154 0
-319 -2153 0
-2083 -2154 0
151 207 263 319 2083 0
-152 2156 0
-208 2157 0
-2156 2157 0
-208 -2156 0
-264 2158 0
-2157 2158 0
-264 -2157 0
-320 2159 0
-2158 2159 0
-320 -2158 0
-2084 -2159 0
152 208 264 320 2084 0
-153 2161 0
-209 2162 0
-2161 2162 0
-209 -2161 0
-265 2163 0
-2162 2163 0
-265 -2162 0
-321 2164 0
-2163 2164 0
-321 -2163 0
-2085 -2164 0
153 209 265 321 2085 0
-154 2166 0
-210 2167 0
-2166 2167 0
-210 -2166 0
-266 2168 0
-2167 2168 0
-266 -2167 0
-322 2169 0
-2168 2169 0
-322 -2168 0
-2086 -2169 0
154 210 266 322 2086 0
-2171 2178 0
-2179 0
-2180 0
-2181 0
-2172 2182 0
-2178 2182 0
-2172 -2178 2183 0
-2179 2183 0
-2172 -2179 2184 0
-2180 2184 0
-2172 -2180 2185 0
-2181 2185 0
-2172 -2181 0
-2173 2186 0
-2182 2186 0
-2173 -2182 2187 0
-2183 2187 0
-2173 -2183 2188 0
-2184 2188 0
-2173 -2184 2189 0
-2185 2189 0
-2173 -2185 0
-2174 2190 0
-2186 2190 0
-2174 -2186 2191 0
-2187 2191 0
-2174 -2187 2192 0
-2188 2192 0
-2174 -2188 2193 0
-2189 2193 0
-2174 -2189 0
-2175 2194 0
-2190 2194 0
-2175 -2190 2195 0
-2191 2195 0
-2175 -2191 2196 0
-2192 2196 0
-2175 -2192 2197 0
-2193 2197 0
-2175 -2193 0
-2176 2198 0
-2194 2198 0
-2176 -2194 2199 0
-2195 2199 0
-2176 -2195 2200 0
-2196 2200 0
-2176 -2196 2201 0
-2197 2201 0
-2176 -2197 0
-2177 -2201 0
2171 2206 0
-2207 0
-2208 0
2172 2209 0
-2206 2209 0
2172 -2206 2210 0
-2207 2210 0
2172 -2207 2211 0
-2208 2211 0
2172 -2208 0
2173 2212 0
-2209 2212 0
2173 -2209 2213 0
-2210 2213 0
2173 -2210 2214 0
-2211 2214 0
2173 -2211 0
2174 2215 0
-2212 2215 0
2174 -2212 2216 0
-2213 2216 0
2174 -2213 2217 0
-2214 2217 0
2174 -2214 0
2175 2218 0
-2215 2218 0
2175 -2215 2219 0
-2216 2219 0
2175 -2216 2220 0
-2217 2220 0
2175 -2217 0
2176 2221 0
-2218 2221 0
2176 -2218 2222 0
-2219 2222 0
2176 -2219 2223 0
-2220 2223 0
2176 -2220 0
2177 -2223 0
-197 2227 0
-253 2228 0
-2227 2228 0
-253 -2227 0
-309 2229 0
-2228 2229 0
-309 -2228 0
-2171 -2229 0
197 253 309 2171 0
-198 2231 0
-254 2232 0
-2231 2232 0
-254 -2231 0
-310 2233 0
-2232 2233 0
-310 -2232 0
-2172 -2233 0
198 254 310 2172 0
-199 2235 0
-255 2236 0
-2235 2236 0
-255 -2235 0
-311 2237 0
-2236 2237 0
-311 -2236 0
-2173 -2237 0
199 255 311 2173 0
-200 2239 0
-256 2240 0
-2239 2240 0
-256 -2239 0
-312 2241 0
-2240 2241 0
-312 -2240 0
-2174 -2241 0
200 256 312 2174 0
-201 2243 0
-257 2244 0
-2243 2244 0
-257 -2243 0
-313 2245 0
-2244 2245 0
-313 -2244 0
-2175 -2245 0
201 257 313 2175 0
-202 2247 0
-258 2248 0
-2247 2248 0
-258 -2247 0
-314 2249 0
-2248 2249 0
-314 -2248 0
-2176 -2249 0
202 258 314 2176 0
-203 2251 0
-259 2252 0
-2251 2252 0
-259 -2251 0
-315 2253 0
-2252 2253 0
-315 -2252 0
-2177 -2253 0
203 259 315 2177 0
-2255 2262 0
-2263 0
-2264 0
-2265 0
-2266 0
-2256 2267 0
-2262 2267 0
-2256 -2262 2268 0
-2263 2268 0
-2256 -2263 2269 0
-2264 2269 0
-2256 -2264 2270 0
-2265 2270 0
-2256 -2265 2271 0
-2266 2271 0
-2256 -2266 0
-2257 2272 0
-2267 2272 0
-2257 -2267 2273 0
-2268 2273 0
-2257 -2268 2274 0
-2269 2274 0
-2257 -2269 2275 0
-2270 2275 0
-2257 -2270 2276 0
-2271 2276 0
-2257 -2271 0
-2258 2277 0
-2272 2277 0
-2258 -2272 2278 0
-2273 2278 0
-2258 -2273 2279 0
-2274 2279 0
-2258 -2274 2280 0
-2275 2280 0
-2258 -2275 2281 0
-2276 2281 0
-2258 -2276 0
-2259 2282 0
-2277 2282 0
-2259 -2277 2283 0
-2278 2283 0
-2259 -2278 2284 0
-2279 2284 0
-2259 -2279 2285 0
-2280 2285 0
-2259 -2280 2286 0
-2281 2286 0
-2259 -2281 0
-2260 2287 0
-2282 2287 0
-2260 -2282 2288 0
-2283 2288 0
-2260 -2283 2289 0
-2284 2289 0
-2260 -2284 2290 0
-2285 2290 0
-2260 -2285 2291 0
-2286 2291 0
-2260 -2286 0
-2261 -2291 0
2255 2297 0
-2298 0
2256 2299 0
-2297 2299 0
2256 -2297 2300 0
-2298 2300 0
2256 -2298 0
2257 2301 0
-2299 2301 0
2257 -2299 2302 0
-2300 2302 0
2257 -2300 0
2258 2303 0
-2301 2303 0
2258 -2301 2304 0
-2302 2304 0
2258 -2302 0
2259 2305 0
-2303 2305 0
2259 -2303 2306 0
-2304 2306 0
2259 -2304 0
2260 2307 0
-2305 2307 0
2260 -2305 2308 0
-2306 2308 0
2260 -2306 0
2261 -2308 0
-246 2311 0
-302 2312 0
-2311 2312 0
-302 -2311 0
-2255 -2312 0
246 302 2255 0
-247 2314 0
-303 2315 0
-2314 2315 0
-303 -2314 0
-2256 -2315 0
247 303 2256 0
-248 2317 0
-304 2318 0
-2317 2318 0
-304 -2317 0
-2257 -2318 0
248 304 2257 0
-249 2320 0
-305 2321 0
-2320 2321 0
-305 -2320 0
-2258 -2321 0
249 305 2258 0
-250 2323 0
-306 2324 0
-2323 2324 0
-306 -2323 0
-2259 -2324 0
250 306 2259 0
-251 2326 0
-307 2327 0
-2326 2327 0
-307 -2326 0
-2260 -2327 0
251 307 2260 0
-252 2329 0
-308 2330 0
-2329 2330 0
-308 -2329 0
-2261 -2330 0
252 308 2261 0
-2332 2339 0
-2340 0
-2341 0
-2342 0
-2343 0
-2333 2344 0
-2339 2344 0
-2333 -2339 2345 0
-2340 2345 0
-2333 -2340 2346 0
-2341 2346 0
-2333 -2341 2347 0
-2342 2347 0
-2333 -2342 2348 0
-2343 2348 0
-2333 -2343 0
-2334 2349 0
-2344 2349 0
-2334 -2344 2350 0
-2345 2350 0
-2334 -2345 2351 0
-2346 2351 0
-2334 -2346 2352 0
-2347 2352 0
-2334 -2347 2353 0
-2348 2353 0
-2334 -2348 0
-2335 2354 0
-2349 2354 0
-2335 -2349 2355 0
-2350 2355 0
-2335 -2350 2356 0
-2351 2356 0
-2335 -2351 2357 0
-2352 2357 0
-2335 -2352 2358 0
-2353 2358 0
-2335 -2353 0
-2336 2359 0
-2354 2359 0
-2336 -2354 2360 0
-2355 2360 0
-2336 -2355 2361 0
-2356 2361 0
-2336 -2356 2362 0
-2357 2362 0
-2336 -2357 2363 0
-2358 2363 0
-2336 -2358 0
-2337 2364 0
-2359 2364 0
-2337 -2359 2365 0
-2360 2365 0
-2337 -2360 2366 0
-2361 2366 0
-2337 -2361 2367 0
-2362 2367 0
-2337 -2362 2368 0
-2363 2368 0
-2337 -2363 0
-2338 -2368 0
2332 2374 0
-2375 0
2333 2376 0
-2374 2376 0
2333 -2374 2377 0
-2375 2377 0
2333 -2375 0
2334 2378 0
-2376 2378 0
2334 -2376 2379 0
-2377 2379 0
2334 -2377 0
2335 2380 0
-2378 2380 0
2335 -2378 2381 0
-2379 2381 0
2335 -2379 0
2336 2382 0
-2380 2382 0
2336 -2380 2383 0
-2381 2383 0
2336 -2381 0
2337 2384 0
-2382 2384 0
2337 -2382 2385 0
-2383 2385 0
2337 -2383 0
2338 -2385 0
-8 2388 0
-50 2389 0
-2388 2389 0
-50 -2388 0
-2332 -2389 0
8 50 2332 0
-9 2391 0
-51 2392 0
-2391 2392 0
-51 -2391 0
-2333 -2392 0
9 51 2333 0
-10 2394 0
-52 2395 0
-2394 2395 0
-52 -2394 0
-2334 -2395 0
10 52 2334 0
-11 2397 0
-53 2398 0
-2397 2398 0
-53 -2397 0
-2335 -2398 0
11 53 2335 0
-12 2400 0
-54 2401 0
-2400 2401 0
-54 -2400 0
-2336 -2401 0
12 54 2336 0
-13 2403 0
-55 2404 0
-2403 2404 0
-55 -2403 0
-2337 -2404 0
13 55 2337 0
-14 2406 0
-56 2407 0
-2406 2407 0
-56 -2406 0
-2338 -2407 0
14 56 2338 0
-2409 2416 0
-2417 0
-2418 0
-2419 0
-2410 2420 0
-2416 2420 0
-2410 -2416 2421 0
-2417 2421 0
-2410 -2417 2422 0
-2418 2422 0
-2410 -2418 2423 0
-2419 2423 0
-2410 -2419 0
-2411 2424 0
-2420 2424 0
-2411 -2420 2425 0
-2421 2425 0
-2411 -2421 2426 0
-2422 2426 0
-2411 -2422 2427 0
-2423 2427 0
-2411 -2423 0
-2412 2428 0
-2424 2428 0
-2412 -2424 2429 0
-2425 2429 0
-2412 -2425 2430 0
-2426 2430 0
-2412 -2426 2431 0
-2427 2431 0
-2412 -2427 0
-2413 2432 0
-2428 2432 0
-2413 -2428 2433 0
-2429 2433 0
-2413 -2429 2434 0
-2430 2434 0
-2413 -2430 2435 0
-2431 2435 0
-2413 -2431 0
-2414 2436 0
-2432 2436 0
-2414 -2432 2437 0
-2433 2437 0
-2414 -2433 2438 0
-2434 2438 0
-2414 -2434 2439 0
-2435 2439 0
-2414 -2435 0
-2415 -2439 0
2409 2444 0
-2445 0
-2446 0
2410 2447 0
-2444 2447 0
2410 -2444 2448 0
-2445 2448 0
2410 -2445 2449 0
-2446 2449 0
2410 -2446 0
2411 2450 0
-2447 2450 0
2411 -2447 2451 0
-2448 2451 0
2411 -2448 2452 0
-2449 2452 0
2411 -2449 0
2412 2453 0
-2450 2453 0
2412 -2450 2454 0
-2451 2454 0
2412 -2451 2455 0
-2452 2455 0
2412 -2452 0
2413 2456 0
-2453 2456 0
2413 -2453 2457 0
-2454 2457 0
2413 -2454 2458 0
-2455 2458 0
2413 -2455 0
2414 2459 0
-2456 2459 0
2414 -2456 2460 0
-2457 2460 0
2414 -2457 2461 0
-2458 2461 0
2414 -2458 0
2415 -2461 0
-15 2465 0
-57 2466 0
-2465 2466 0
-57 -2465 0
-99 2467 0
-2466 2467 0
-99 -2466 0
-2409 -2467 0
15 57 99 2409 0
-16 2469 0
-58 2470 0
-2469 2470 0
-58 -2469 0
-100 2471 0
-2470 2471 0
-100 -2470 0
-2410 -2471 0
16 58 100 2410 0
-17 2473 0
-59 2474 0
-2473 2474 0
-59 -2473 0
-101 2475 0
-2474 2475 0
-101 -2474 0
-2411 -2475 0
17 59 101 2411 0
-18 2477 0
-60 2478 0
-2477 2478 0
-60 -2477 0
-102 2479 0
-2478 2479 0
-102 -2478 0
-2412 -2479 0
18 60 102 2412 0
-19 2481 0
-61 2482 0
-2481 2482 0
-61 -2481 0
-103 2483 0
-2482 2483 0
-103 -2482 0
-2413 -2483 0
19 61 103 2413 0
-20 2485 0
-62 2486 0
-2485 2486 0
-62 -2485 0
-104 2487 0
-2486 2487 0
-104 -2486 0
-2414 -2487 0
20 62 104 2414 0
-21 2489 0
-63 2490 0
-2489 2490 0
-63 -2489 0
-105 2491 0
-2490 2491 0
-105 -2490 0
-2415 -2491 0
21 63 105 2415 0
-2493 2500 0
-2501 0
-2502 0
-2494 2503 0
-2500 2503 0
-2494 -2500 2504 0
-2501 2504 0
-2494 -2501 2505 0
-2502 2505 0
-2494 -2502 0
-2495 2506 0
-2503 2506 0
-2495 -2503 2507 0
-2504 2507 0
-2495 -2504 2508 0
-2505 2508 0
-2495 -2505 0
-2496 2509 0
-2506 2509 0
-2496 -2506 2510 0
-2507 2510 0
-2496 -2507 2511 0
-2508 2511 0
-2496 -2508 0
-2497 2512 0
-2509 2512 0
-2497 -2509 2513 0
-2510 2513 0
-2497 -2510 2514 0
-2511 2514 0
-2497 -2511 0
-2498 2515 0
-2512 2515 0
-2498 -2512 2516 0
-2513 2516 0
-2498 -2513 2517 0
-2514 2517 0
-2498 -2514 0
-2499 -2517 0
2493 2521 0
-2522 0
-2523 0
-2524 0
2494 2525 0
-2521 2525 0
2494 -2521 2526 0
-2522 2526 0
2494 -2522 2527 0
-2523 2527 0
2494 -2523 2528 0
-2524 2528 0
2494 -2524 0
2495 2529 0
-2525 2529 0
2495 -2525 2530 0
-2526 2530 0
2495 -2526 2531 0
-2527 2531 0
2495 -2527 2532 0
-2528 2532 0
2495 -2528 0
2496 2533 0
-2529 2533 0
2496 -2529 2534 0
-2530 2534 0
2496 -2530 2535 0
-2531 2535 0
2496 -2531 2536 0
-2532 2536 0
2496 -2532 0
2497 2537 0
-2533 2537 0
2497 -2533 2538 0
-2534 2538 0
2497 -2534 2539 0
-2535 2539 0
2497 -2535 2540 0
-2536 2540 0
2497 -2536 0
2498 2541 0
-2537 2541 0
2498 -2537 2542 0
-2538 2542 0
2498 -2538 2543 0
-2539 2543 0
2498 -2539 2544 0
-2540 2544 0
2498 -2540 0
2499 -2544 0
-22 2549 0
-64 2550 0
-2549 2550 0
-64 -2549 0
-106 2551 0
-2550 2551 0
-106 -2550 0
-148 2552 0
-2551 2552 0
-148 -2551 0
-2493 -2552 0
22 64 106 148 2493 0
-23 2554 0
-65 2555 0
-2554 2555 0
-65 -2554 0
-107 2556 0
-2555 2556 0
-107 -2555 0
-149 2557 0
-2556 2557 0
-149 -2556 0
-2494 -2557 0
23 65 107 149 2494 0
-24 2559 0
-66 2560 0
-2559 2560 0
-66 -2559 0
-108 2561 0
-2560 2561 0
-108 -2560 0
-150 2562 0
-2561 2562 0
-150 -2561 0
-2495 -2562 0
24 66 108 150 2495 0
-25 2564 0
-67 2565 0
-2564 2565 0
-67 -2564 0
-109 2566 0
-2565 2566 0
-109 -2565 0
-151 2567 0
-2566 2567 0
-151 -2566 0
-2496 -2567 0
25 67 109 151 2496 0
-26 2569 0
-68 2570 0
-2569 2570 0
-68 -2569 0
-110 2571 0
-2570 2571 0
-110 -2570 0
-152 2572 0
-2571 2572 0
-152 -2571 0
-2497 -2572 0
26 68 110 152 2497 0
-27 2574 0
-69 2575 0
-2574 2575 0
-69 -2574 0
-111 2576 0
-2575 2576 0
-111 -2575 0
-153 2577 0
-2576 2577 0
-153 -2576 0
-2498 -2577 0
27 69 111 153 2498 0
-28 2579 0
-70 2580 0
-2579 2580 0
-70 -2579 0
-112 2581 0
-2580 2581 0
-112 -2580 0
-154 2582 0
-2581 2582 0
-154 -2581 0
-2499 -2582 0
28 70 112 154 2499 0
-2584 2591 0
-2592 0
-2585 2593 0
-2591 2593 0
-2585 -2591 2594 0
-2592 2594 0
-2585 -2592 0
-2586 2595 0
-2593 2595 0
-2586 -2593 2596 0
-2594 2596 0
-2586 -2594 0
-2587 2597 0
-2595 2597 0
-2587 -2595 2598 0
-2596 2598 0
-2587 -2596 0
-2588 2599 0
-2597 2599 0
-2588 -2597 2600 0
-2598 2600 0
-2588 -2598 0
-2589 2601 0
-2599 2601 0
-2589 -2599 2602 0
-2600 2602 0
-2589 -2600 0
-2590 -2602 0
2584 2605 0
-2606 0
-2607 0
-2608 0
-2609 0
2585 2610 0
-2605 2610 0
2585 -2605 2611 0
-2606 2611 0
2585 -2606 2612 0
-2607 2612 0
2585 -2607 2613 0
-2608 2613 0
2585 -2608 2614 0
-2609 2614 0
2585 -2609 0
2586 2615 0
-2610 2615 0
2586 -2610 2616 0
-2611 2616 0
2586 -2611 2617 0
-2612 2617 0
2586 -2612 2618 0
-2613 2618 0
2586 -2613 2619 0
-2614 2619 0
2586 -2614 0
2587 2620 0
-2615 2620 0
2587 -2615 2621 0
-2616 2621 0
2587 -2616 2622 0
-2617 2622 0
2587 -2617 2623 0
-2618 2623 0
2587 -2618 2624 0
-2619 2624 0
2587 -2619 0
2588 2625 0
-2620 2625 0
2588 -2620 2626 0
-2621 2626 0
2588 -2621 2627 0
-2622 2627 0
2588 -2622 2628 0
-2623 2628 0
2588 -2623 2629 0
-2624 2629 0
2588 -2624 0
2589 2630 0
-2625 2630 0
2589 -2625 2631 0
-2626 2631 0
2589 -2626 2632 0
-2627 2632 0
2589 -2627 2633 0
-2628 2633 0
2589 -2628 2634 0
-2629 2634 0
2589 -2629 0
2590 -2634 0
-29 2640 0
-71 2641 0
-2640 2641 0
-71 -2640 0
-113 2642 0
-2641 2642 0
-113 -2641 0
-155 2643 0
-2642 2643 0
-155 -2642 0
-197 2644 0
-2643 2644 0
-197 -2643 0
-2584 -2644 0
29 71 113 155 197 2584 0
-30 2646 0
-72 2647 0
-2646 2647 0
-72 -2646 0
-114 2648 0
-2647 2648 0
-114 -2647 0
-156 2649 0
-2648 2649 0
-156 -2648 0
-198 2650 0
-2649 2650 0
-198 -2649 0
-2585 -2650 0
30 72 114 156 198 2585 0
-31 2652 0
-73 2653 0
-2652 2653 0
-73 -2652 0
-115 2654 0
-2653 2654 0
-115 -2653 0
-157 2655 0
-2654 2655 0
-157 -2654 0
-199 2656 0
-2655 2656 0
-199 -2655 0
-2586 -2656 0
31 73 115 157 199 2586 0
-32 2658 0
-74 2659 0
-2658 2659 0
-74 -2658 0
-116 2660 0
-2659 2660 0
-116 -2659 0
-158 2661 0
-2660 2661 0
-158 -2660 0
-200 2662 0
-2661 2662 0
-200 -2661 0
-2587 -2662 0
32 74 116 158 200 2587 0
-33 2664 0
-75 2665 0
-2664 2665 0
-75 -2664 0
-117 2666 0
-2665 2666 0
-117 -2665 0
-159 2667 0
-2666 2667 0
-159 -2666 0
-201 2668 0
-2667 2668 0
-201 -2667 0
-2588 -2668 0
33 75 117 159 201 2588 0
-34 2670 0
-76 2671 0
-2670 2671 0
-76 -2670 0
-118 2672 0
-2671 2672 0
-118 -2671 0
-160 2673 0
-2672 2673 0
-160 -2672 0
-202 2674 0
-2673 2674 0
-202 -2673 0
-2589 -2674 0
34 76 118 160 202 2589 0
-35 2676 0
-77 2677 0
-2676 2677 0
-77 -2676 0
-119 2678 0
-2677 2678 0
-119 -2677 0
-161 2679 0
-2678 2679 0
-161 -2678 0
-203 2680 0
-2679 2680 0
-203 -2679 0
-2590 -2680 0
35 77 119 161 203 2590 0
-2682 2689 0
-2683 2690 0
-2689 2690 0
-2683 -2689 0
-2684 2691 0
-2690 2691 0
-2684 -2690 0
-2685 2692 0
-2691 2692 0
-2685 -2691 0
-2686 2693 0
-2692 2693 0
-2686 -2692 0
-2687 2694 0
-2693 2694 0
-2687 -2693 0
-2688 -2694 0
2682 2696 0
-2697 0
-2698 0
-2699 0
-2700 0
-2701 0
2683 2702 0
-2696 2702 0
2683 -2696 2703 0
-2697 2703 0
2683 -2697 2704 0
-2698 2704 0
2683 -2698 2705 0
-2699 2705 0
2683 -2699 2706 0
-2700 2706 0
2683 -2700 2707 0
-2701 2707 0
2683 -2701 0
2684 2708 0
-2702 2708 0
2684 -2702 2709 0
-2703 2709 0
2684 -2703 2710 0
-2704 2710 0
2684 -2704 2711 0
-2705 2711 0
2684 -2705 2712 0
-2706 2712 0
2684 -2706 2713 0
-2707 2713 0
2684 -2707 0
2685 2714 0
-2708 2714 0
2685 -2708 2715 0
-2709 2715 0
2685 -2709 2716 0
-2710 2716 0
2685 -2710 2717 0
-2711 2717 0
2685 -2711 2718 0
-2712 2718 0
2685 -2712 2719 0
-2713 2719 0
2685 -2713 0
2686 2720 0
-2714 2720 0
2686 -2714 2721 0
-2715 2721 0
2686 -2715 2722 0
-2716 2722 0
2686 -2716 2723 0
-2717 2723 0
2686 -2717 2724 0
-2718 2724 0
2686 -2718 2725 0
-2719 2725 0
2686 -2719 0
2687 2726 0
-2720 2726 0
2687 -2720 2727 0
-2721 2727 0
2687 -2721 2728 0
-2722 2728 0
2687 -2722 2729 0
-2723 2729 0
2687 -2723 2730 0
-2724 2730 0
2687 -2724 2731 0
-2725 2731 0
2687 -2725 0
2688 -2731 0
-36 2738 0
-78 2739 0
-2738 2739 0
-78 -2738 0
-120 2740 0
-2739 2740 0
-120 -2739 0
-162 2741 0
-2740 2741 0
-162 -2740 0
-204 2742 0
-2741 2742 0
-204 -2741 0
-246 2743 0
-2742 2743 0
-246 -2742 0
-2682 -2743 0
36 78 120 162 204 246 2682 0
-37 2745 0
-79 2746 0
-2745 2746 0
-79 -2745 0
-121 2747 0
-2746 2747 0
-121 -2746 0
-163 2748 0
-2747 2748 0
-163 -2747 0
-205 2749 0
-2748 2749 0
-205 -2748 0
-247 2750 0
-2749 2750 0
-247 -2749 0
-2683 -2750 0
37 79 121 163 205 247 2683 0
-38 2752 0
-80 2753 0
-2752 2753 0
-80 -2752 0
-122 2754 0
-2753 2754 0
-122 -2753 0
-164 2755 0
-2754 2755 0
-164 -2754 0
-206 2756 0
-2755 2756 0
-206 -2755 0
-248 2757 0
-2756 2757 0
-248 -2756 0
-2684 -2757 0
38 80 122 164 206 248 2684 0
-39 2759 0
-81 2760 0
-2759 2760 0
-81 -2759 0
-123 2761 0
-2760 2761 0
-123 -2760 0
-165 2762 0
-2761 2762 0
-165 -2761 0
-207 2763 0
-2762 2763 0
-207 -2762 0
-249 2764 0
-2763 2764 0
-249 -2763 0
-2685 -2764 0
39 81 123 165 207 249 2685 0
-40 2766 0
-82 2767 0
-2766 2767 0
-82 -2766 0
-124 2768 0
-2767 2768 0
-124 -2767 0
-166 2769 0
-2768 2769 0
-166 -2768 0
-208 2770 0
-2769 2770 0
-208 -2769 0
-250 2771 0
-2770 2771 0
-250 -2770 0
-2686 -2771 0
40 82 124 166 208 250 2686 0
-41 2773 0
-83 2774 0
-2773 2774 0
-83 -2773 0
-125 2775 0
-2774 2775 0
-125 -2774 0
-167 2776 0
-2775 2776 0
-167 -2775 0
-209 2777 0
-2776 2777 0
-209 -2776 0
-251 2778 0
-2777 2778 0
-251 -2777 0
-2687 -2778 0
41 83 125 167 209 251 2687 0
-42 2780 0
-84 2781 0
-2780 2781 0
-84 -2780 0
-126 2782 0
-2781 2782 0
-126 -2781 0
-168 2783 0
-2782 2783 0
-168 -2782 0
-210 2784 0
-2783 2784 0
-210 -2783 0
-252 2785 0
-2784 2785 0
-252 -2784 0
-2688 -2785 0
42 84 126 168 210 252 2688 0
-43 2787 0
-85 2788 0
-2787 2788 0
-85 -2787 0
-127 2789 0
-2788 2789 0
-127 -2788 0
-169 2790 0
-2789 2790 0
-169 -2789 0
-211 2791 0
-2790 2791 0
-211 -2790 0
-253 2792 0
-2791 2792 0
-253 -2791 0
-295 -2792 0
43 85 127 169 211 253 295 0
-44 2794 0
-86 2795 0
-2794 2795 0
-86 -2794 0
-128 2796 0
-2795 2796 0
-128 -2795 0
-170 2797 0
-2796 2797 0
-170 -2796 0
-212 2798 0
-2797 2798 0
-212 -2797 0
-254 2799 0
-2798 2799 0
-254 -2798 0
-296 -2799 0
44 86 128 170 212 254 296 0
-45 2801 0
-87 2802 0
-2801 2802 0
-87 -2801 0
-129 2803 0
-2802 2803 0
-129 -2802 0
-171 2804 0
-2803 2804 0
-171 -2803 0
-213 2805 0
-2804 2805 0
-213 -2804 0
-255 2806 0
-2805 2806 0
-255 -2805 0
-297 -2806 0
45 87 129 171 213 255 297 0
-46 2808 0
-88 2809 0
-2808 2809 0
-88 -2808 0
-130 2810 0
-2809 2810 0
-130 -2809 0
-172 2811 0
-2810 2811 0
-172 -2810 0
-214 2812 0
-2811 2812 0
-214 -2811 0
-256 2813 0
-2812 2813 0
-256 -2812 0
-298 -2813 0
46 88 130 172 214 256 298 0
-47 2815 0
-89 2816 0
-2815 2816 0
-89 -2815 0
-131 2817 0
-2816 2817 0
-131 -2816 0
-173 2818 0
-2817 2818 0
-173 -2817 0
-215 2819 0
-2818 2819 0
-215 -2818 0
-257 2820 0
-2819 2820 0
-257 -2819 0
-299 -2820 0
47 89 131 173 215 257 299 0
-48 2822 0
-90 2823 0
-2822 2823 0
-90 -2822 0
-132 2824 0
-2823 2824 0
-132 -2823 0
-174 2825 0
-2824 2825 0
-174 -2824 0
-216 2826 0
-2825 2826 0
-216 -2825 0
-258 2827 0
-2826 2827 0
-258 -2826 0
-300 -2827 0
48 90 132 174 216 258 300 0
-49 2829 0
-91 2830 0
-2829 2830 0
-91 -2829 0
-133 2831 0
-2830 2831 0
-133 -2830 0
-175 2832 0
-2831 2832 0
-175 -2831 0
-217 2833 0
-2832 2833 0
-217 -2832 0
-259 2834 0
-2833 2834 0
-259 -2833 0
-301 -2834 0
49 91 133 175 217 259 301 0
-2836 2843 0
-2837 2844 0
-2843 2844 0
-2837 -2843 0
-2838 2845 0
-2844 2845 0
-2838 -2844 0
-2839 2846 0
-2845 2846 0
-2839 -2845 0
-2840 2847 0
-2846 2847 0
-2840 -2846 0
-2841 2848 0
-2847 2848 0
-2841 -2847 0
-2842 -2848 0
2836 2850 0
-2851 0
-2852 0
-2853 0
-2854 0
-2855 0
2837 2856 0
-2850 2856 0
2837 -2850 2857 0
-2851 2857 0
2837 -2851 2858 0
-2852 2858 0
2837 -2852 2859 0
-2853 2859 0
2837 -2853 2860 0
-2854 2860 0
2837 -2854 2861 0
-2855 2861 0
2837 -2855 0
2838 2862 0
-2856 2862 0
2838 -2856 2863 0
-2857 2863 0
2838 -2857 2864 0
-2858 2864 0
2838 -2858 2865 0
-2859 2865 0
2838 -2859 2866 0
-2860 2866 0
2838 -2860 2867 0
-2861 2867 0
2838 -2861 0
2839 2868 0
-2862 2868 0
2839 -2862 2869 0
-2863 2869 0
2839 -2863 2870 0
-2864 2870 0
2839 -2864 2871 0
-2865 2871 0
2839 -2865 2872 0
-2866 2872 0
2839 -2866 2873 0
-2867 2873 0
2839 -2867 0
2840 2874 0
-2868 2874 0
2840 -2868 2875 0
-2869 2875 0
2840 -2869 2876 0
-2870 2876 0
2840 -2870 2877 0
-2871 2877 0
2840 -2871 2878 0
-2872 2878 0
2840 -2872 2879 0
-2873 2879 0
2840 -2873 0
2841 2880 0
-2874 2880 0
2841 -2874 2881 0
-2875 2881 0
2841 -2875 2882 0
-2876 2882 0
2841 -2876 2883 0
-2877 2883 0
2841 -2877 2884 0
-2878 2884 0
2841 -2878 2885 0
-2879 2885 0
2841 -2879 0
2842 -2885 0
-92 2892 0
-134 2893 0
-2892 2893 0
-134 -2892 0
-176 2894 0
-2893 2894 0
-176 -2893 0
-218 2895 0
-2894 2895 0
-218 -2894 0
-260 2896 0
-2895 2896 0
-260 -2895 0
-302 2897 0
-2896 2897 0
-302 -2896 0
-2836 -2897 0
92 134 176 218 260 302 2836 0
-93 2899 0
-135 2900 0
-2899 2900 0
-135 -2899 0
-177 2901 0
-2900 2901 0
-177 -2900 0
-219 2902 0
-2901 2902 0
-219 -2901 0
-261 2903 0
-2902 2903 0
-261 -2902 0
-303 2904 0
-2903 2904 0
-303 -2903 0
-2837 -2904 0
93 135 177 219 261 303 2837 0
-94 2906 0
-136 2907 0
-2906 2907 0
-136 -2906 0
-178 2908 0
-2907 2908 0
-178 -2907 0
-220 2909 0
-2908 2909 0
-220 -2908 0
-262 2910 0
-2909 2910 0
-262 -2909 0
-304 2911 0
-2910 2911 0
-304 -2910 0
-2838 -2911 0
94 136 178 220 262 304 2838 0
-95 2913 0
-137 2914 0
-2913 2914 0
-137 -2913 0
-179 2915 0
-2914 2915 0
-179 -2914 0
-221 2916 0
-2915 2916 0
-221 -2915 0
-263 2917 0
-2916 2917 0
-263 -2916 0
-305 2918 0
-2917 2918 0
-305 -2917 0
-2839 -2918 0
95 137 179 221 263 305 2839 0
-96 2920 0
-138 2921 0
-2920 2921 0
-138 -2920 0
-180 2922 0
-2921 2922 0
-180 -2921 0
-222 2923 0
-2922 2923 0
-222 -2922 0
-264 2924 0
-2923 2924 0
-264 -2923 0
-306 2925 0
-2924 2925 0
-306 -2924 0
-2840 -2925 0
96 138 180 222 264 306 2840 0
-97 2927 0
-139 2928 0
-2927 2928 0
-139 -2927 0
-181 2929 0
-2928 2929 0
-181 -2928 0
-223 2930 0
-2929 2930 0
-223 -2929 0
-265 2931 0
-2930 2931 0
-265 -2930 0
-307 2932 0
-2931 2932 0
-307 -2931 0
-2841 -2932 0
97 139 181 223 265 307 2841 0
-98 2934 0
-140 2935 0
-2934 2935 0
-140 -2934 0
-182 2936 0
-2935 2936 0
-182 -2935 0
-224 2937 0
-2936 2937 0
-224 -2936 0
-266 2938 0
-2937 2938 0
-266 -2937 0
-308 2939 0
-2938 2939 0
-308 -2938 0
-2842 -2939 0
98 140 182 224 266 308 2842 0
-2941 2948 0
-2949 0
-2942 2950 0
-2948 2950 0
-2942 -2948 2951 0
-2949 2951 0
-2942 -2949 0
-2943 2952 0
-2950 2952 0
-2943 -2950 2953 0
-2951 2953 0
-2943 -2951 0
-2944 2954 0
-2952 2954 0
-2944 -2952 2955 0
-2953 2955 0
-2944 -2953 0
-2945 2956 0
-2954 2956 0
-2945 -2954 2957 0
-2955 2957 0
-2945 -2955 0
-2946 2958 0
-2956 2958 0
-2946 -2956 2959 0
-2957 2959 0
-2946 -2957 0
-2947 -2959 0
2941 2962 0
-2963 0
-2964 0
-2965 0
-2966 0
2942 2967 0
-2962 2967 0
2942 -2962 2968 0
-2963 2968 0
2942 -2963 2969 0
-2964 2969 0
2942 -2964 2970 0
-2965 2970 0
2942 -2965 2971 0
-2966 2971 0
2942 -2966 0
2943 2972 0
-2967 2972 0
2943 -2967 2973 0
-2968 2973 0
2943 -2968 2974 0
-2969 2974 0
2943 -2969 2975 0
-2970 2975 0
2943 -2970 2976 0
-2971 2976 0
2943 -2971 0
2944 2977 0
-2972 2977 0
2944 -2972 2978 0
-2973 2978 0
2944 -2973 2979 0
-2974 2979 0
2944 -2974 2980 0
-2975 2980 0
2944 -2975 2981 0
-2976 2981 0
2944 -2976 0
2945 2982 0
-2977 2982 0
2945 -2977 2983 0
-2978 2983 0
2945 -2978 2984 0
-2979 2984 0
2945 -2979 2985 0
-2980 2985 0
2945 -2980 2986 0
-2981 2986 0
2945 -2981 0
2946 2987 0
-2982 2987 0
2946 -2982 2988 0
-2983 2988 0
2946 -2983 2989 0
-2984 2989 0
2946 -2984 2990 0
-2985 2990 0
2946 -2985 2991 0
-2986 2991 0
2946 -2986 0
2947 -2991 0
-141 2997 0
-183 2998 0
-2997 2998 0
-183 -2997 0
-225 2999 0
-2998 2999 0
-225 -2998 0
-267 3000 0
-2999 3000 0
-267 -2999 0
-309 3001 0
-3000 3001 0
-309 -3000 0
-2941 -3001 0
141 183 225 267 309 2941 0
-142 3003 0
-184 3004 0
-3003 3004 0
-184 -3003 0
-226 3005 0
-3004 3005 0
-226 -3004 0
-268 3006 0
-3005 3006 0
-268 -3005 0
-310 3007 0
-3006 3007 0
-310 -3006 0
-2942 -3007 0
142 184 226 268 310 2942 0
-143 3009 0
-185 3010 0
-3009 3010 0
-185 -3009 0
-227 3011 0
-3010 3011 0
-227 -3010 0
-269 3012 0
-3011 3012 0
-269 -3011 0
-311 3013 0
-3012 3013 0
-311 -3012 0
-2943 -3013 0
143 185 227 269 311 2943 0
-144 3015 0
-186 3016 0
-3015 3016 0
-186 -3015 0
-228 3017 0
-3016 3017 0
-228 -3016 0
-270 3018 0
-3017 3018 0
-270 -3017 0
-312 3019 0
-3018 3019 0
-312 -3018 0
-2944 -3019 0
144 186 228 270 312 2944 0
-145 3021 0
-187 3022 0
-3021 3022 0
-187 -3021 0
-229 3023 0
-3022 3023 0
-229 -3022 0
-271 3024 0
-3023 3024 0
-271 -3023 0
-313 3025 0
-3024 3025 0
-313 -3024 0
-2945 -3025 0
145 187 229 271 313 2945 0
-146 3027 0
-188 3028 0
-3027 3028 0
-188 -3027 0
-230 3029 0
-3028 3029 0
-230 -3028 0
-272 3030 0
-3029 3030 0
-272 -3029 0
-314 3031 0
-3030 3031 0
-314 -3030 0
-2946 -3031 0
146 188 230 272 314 2946 0
-147 3033 0
-189 3034 0
-3033 3034 0
-189 -3033 0
-231 3035 0
-3034 3035 0
-231 -3034 0
-273 3036 0
-3035 3036 0
-273 -3035 0
-315 3037 0
-3036 3037 0
-315 -3036 0
-2947 -3037 0
147 189 231 273 315 2947 0
-3039 3046 0
-3047 0
-3048 0
-3040 3049 0
-3046 3049 0
-3040 -3046 3050 0
-3047 3050 0
-3040 -3047 3051 0
-3048 3051 0
-3040 -3048 0
-3041 3052 0
-3049 3052 0
-3041 -3049 3053 0
-3050 3053 0
-3041 -3050 3054 0
-3051 3054 0
-3041 -3051 0
-3042 3055 0
-3052 3055 0
-3042 -3052 3056 0
-3053 3056 0
-3042 -3053 3057 0
-3054 3057 0
-3042 -3054 0
-3043 3058 0
-3055 3058 0
-3043 -3055 3059 0
-3056 3059 0
-3043 -3056 3060 0
-3057 3060 0
-3043 -3057 0
-3044 3061 0
-3058 3061 0
-3044 -3058 3062 0
-3059 3062 0
-3044 -3059 3063 0
-3060 3063 0
-3044 -3060 0
-3045 -3063 0
3039 3067 0
-3068 0
-3069 0
-3070 0
3040 3071 0
-3067 3071 0
3040 -3067 3072 0
-3068 3072 0
3040 -3068 3073 0
-3069 3073 0
3040 -3069 3074 0
-3070 3074 0
3040 -3070 0
3041 3075 0
-3071 3075 0
3041 -3071 3076 0
-3072 3076 0
3041 -3072 3077 0
-3073 3077 0
3041 -3073 3078 0
-3074 3078 0
3041 -3074 0
3042 3079 0
-3075 3079 0
3042 -3075 3080 0
-3076 3080 0
3042 -3076 3081 0
-3077 3081 0
3042 -3077 3082 0
-3078 3082 0
3042 -3078 0
3043 3083 0
-3079 3083 0
3043 -3079 3084 0
-3080 3084 0
3043 -3080 3085 0
-3081 3085 0
3043 -3081 3086 0
-3082 3086 0
3043 -3082 0
3044 3087 0
-3083 3087 0
3044 -3083 3088 0
-3084 3088 0
3044 -3084 3089 0
-3085 3089 0
3044 -3085 3090 0
-3086 3090 0
3044 -3086 0
3045 -3090 0
-190 3095 0
-232 3096 0
-3095 3096 0
-232 -3095 0
-274 3097 0
-3096 3097 0
-274 -3096 0
-316 3098 0
-3097 3098 0
-316 -3097 0
-3039 -3098 0
190 232 274 316 3039 0
-191 3100 0
-233 3101 0
-3100 3101 0
-233 -3100 0
-275 3102 0
-3101 3102 0
-275 -3101 0
-317 3103 0
-3102 3103 0
-317 -3102 0
-3040 -3103 0
191 233 275 317 3040 0
-192 3105 0
-234 3106 0
-3105 3106 0
-234 -3105 0
-276 3107 0
-3106 3107 0
-276 -3106 0
-318 3108 0
-3107 3108 0
-318 -3107 0
-3041 -3108 0
192 234 276 318 3041 0
-193 3110 0
-235 3111 0
-3110 3111 0
-235 -3110 0
-277 3112 0
-3111 3112 0
-277 -3111 0
-319 3113 0
-3112 3113 0
-319 -3112 0
-3042 -3113 0
193 235 277 319 3042 0
-194 3115 0
-236 3116 0
-3115 3116 0
-236 -3115 0
-278 3117 0
-3116 3117 0
-278 -3116 0
-320 3118 0
-3117 3118 0
-320 -3117 0
-3043 -3118 0
194 236 278 320 3043 0
-195 3120 0
-237 3121 0
-3120 3121 0
-237 -3120 0
-279 3122 0
-3121 3122 0
-279 -3121 0
-321 3123 0
-3122 3123 0
-321 -3122 0
-3044 -3123 0
195 237 279 321 3044 0
-196 3125 0
-238 3126 0
-3125 3126 0
-238 -3125 0
-280 3127 0
-3126 3127 0
-280 -3126 0
-322 3128 0
-3127 3128 0
-322 -3127 0
-3045 -3128 0
196 238 280 322 3045 0
-3130 3137 0
-3138 0
-3139 0
-3140 0
-3131 3141 0
-3137 3141 0
-3131 -3137 3142 0
-3138 3142 0
-3131 -3138 3143 0
-3139 3143 0
-3131 -3139 3144 0
-3140 3144 0
-3131 -3140 0
-3132 3145 0
-3141 3145 0
-3132 -3141 3146 0
-3142 3146 0
-3132 -3142 3147 0
-3143 3147 0
-3132 -3143 3148 0
-3144 3148 0
-3132 -3144 0
-3133 3149 0
-3145 3149 0
-3133 -3145 3150 0
-3146 3150 0
-3133 -3146 3151 0
-3147 3151 0
-3133 -3147 3152 0
-3148 3152 0
-3133 -3148 0
-3134 3153 0
-3149 3153 0
-3134 -3149 3154 0
-3150 3154 0
-3134 -3150 3155 0
-3151 3155 0
-3134 -3151 3156 0
-3152 3156 0
-3134 -3152 0
-3135 3157 0
-3153 3157 0
-3135 -3153 3158 0
-3154 3158 0
-3135 -3154 3159 0
-3155 3159 0
-3135 -3155 3160 0
-3156 3160 0
-3135 -3156 0
-3136 -3160 0
3130 3165 0
-3166 0
-3167 0
3131 3168 0
-3165 3168 0
3131 -3165 3169 0
-3166 3169 0
3131 -3166 3170 0
-3167 3170 0
3131 -3167 0
3132 3171 0
-3168 3171 0
3132 -3168 3172 0
-3169 3172 0
3132 -3169 3173 0
-3170 3173 0
3132 -3170 0
3133 3174 0
-3171 3174 0
3133 -3171 3175 0
-3172 3175 0
3133 -3172 3176 0
-3173 3176 0
3133 -3173 0
3134 3177 0
-3174 3177 0
3134 -3174 3178 0
-3175 3178 0
3134 -3175 3179 0
-3176 3179 0
3134 -3176 0
3135 3180 0
-3177 3180 0
3135 -3177 3181 0
-3178 3181 0
3135 -3178 3182 0
-3179 3182 0
3135 -3179 0
3136 -3182 0
-239 3186 0
-281 3187 0
-3186 3187 0
-281 -3186 0
-323 3188 0
-3187 3188 0
-323 -3187 0
-3130 -3188 0
239 281 323 3130 0
-240 3190 0
-282 3191 0
-3190 3191 0
-282 -3190 0
-324 3192 0
-3191 3192 0
-324 -3191 0
-3131 -3192 0
240 282 324 3131 0
-241 3194 0
-283 3195 0
-3194 3195 0
-283 -3194 0
-325 3196 0
-3195 3196 0
-325 -3195 0
-3132 -3196 0
241 283 325 3132 0
-242 3198 0
-284 3199 0
-3198 3199 0
-284 -3198 0
-326 3200 0
-3199 3200 0
-326 -3199 0
-3133 -3200 0
242 284 326 3133 0
-243 3202 0
-285 3203 0
-3202 3203 0
-285 -3202 0
-327 3204 0
-3203 3204 0
-327 -3203 0
-3134 -3204 0
243 285 327 3134 0
-244 3206 0
-286 3207 0
-3206 3207 0
-286 -3206 0
-328 3208 0
-3207 3208 0
-328 -3207 0
-3135 -3208 0
244 286 328 3135 0
-245 3210 0
-287 3211 0
-3210 3211 0
-287 -3210 0
-329 3212 0
-3211 3212 0
-329 -3211 0
-3136 -3212 0
245 287 329 3136 0
-3214 3221 0
-3222 0
-3223 0
-3224 0
-3225 0
-3215 3226 0
-3221 3226 0
-3215 -3221 3227 0
-3222 3227 0
-3215 -3222 3228 0
-3223 3228 0
-3215 -3223 3229 0
-3224 3229 0
-3215 -3224 3230 0
-3225 3230 0
-3215 -3225 0
-3216 3231 0
-3226 3231 0
-3216 -3226 3232 0
-3227 3232 0
-3216 -3227 3233 0
-3228 3233 0
-3216 -3228 3234 0
-3229 3234 0
-3216 -3229 3235 0
-3230 3235 0
-3216 -3230 0
-3217 3236 0
-3231 3236 0
-3217 -3231 3237 0
-3232 3237 0
-3217 -3232 3238 0
-3233 3238 0
-3217 -3233 3239 0
-3234 3239 0
-3217 -3234 3240 0
-3235 3240 0
-3217 -3235 0
-3218 3241 0
-3236 3241 0
-3218 -3236 3242 0
-3237 3242 0
-3218 -3237 3243 0
-3238 3243 0
-3218 -3238 3244 0
-3239 3244 0
-3218 -3239 3245 0
-3240 3245 0
-3218 -3240 0
-3219 3246 0
-3241 3246 0
-3219 -3241 3247 0
-3242 3247 0
-3219 -3242 3248 0
-3243 3248 0
-3219 -3243 3249 0
-3244 3249 0
-3219 -3244 3250 0
-3245 3250 0
-3219 -3245 0
-3220 -3250 0
3214 3256 0
-3257 0
3215 3258 0
-3256 3258 0
3215 -3256 3259 0
-3257 3259 0
3215 -3257 0
3216 3260 0
-3258 3260 0
3216 -3258 3261 0
-3259 3261 0
3216 -3259 0
3217 3262 0
-3260 3262 0
3217 -3260 3263 0
-3261 3263 0
3217 -3261 0
3218 3264 0
-3262 3264 0
3218 -3262 3265 0
-3263 3265 0
3218 -3263 0
3219 3266 0
-3264 3266 0
3219 -3264 3267 0
-3265 3267 0
3219 -3265 0
3220 -3267 0
-288 3270 0
-330 3271 0
-3270 3271 0
-330 -3270 0
-3214 -3271 0
288 330 3214 0
-289 3273 0
-331 3274 0
-3273 3274 0
-331 -3273 0
-3215 -3274 0
289 331 3215 0
-290 3276 0
-332 3277 0
-3276 3277 0
-332 -3276 0
-3216 -3277 0
290 332 3216 0
-291 3279 0
-333 3280 0
-3279 3280 0
-333 -3279 0
-3217 -3280 0
291 333 3217 0
-292 3282 0
-334 3283 0
-3282 3283 0
-334 -3282 0
-3218 -3283 0
292 334 3218 0
-293 3285 0
-335 3286 0
-3285 3286 0
-335 -3285 0
-3219 -3286 0
293 335 3219 0
-294 3288 0
-336 3289 0
-3288 3289 0
-336 -3288 0
-3220 -3289 0
294 336 3220 0
