p cnf 1150 2076
-1 126 0
-2 127 0
-126 127 0
-2 -126 0
-3 128 0
-127 128 0
-3 -127 0
-4 129 0
-128 129 0
-4 -128 0
-5 -129 0
1 2 3 4 5 0
-6 131 0
-7 132 0
-131 132 0
-7 -131 0
-8 133 0
-132 133 0
-8 -132 0
-9 134 0
-133 134 0
-9 -133 0
-10 -134 0
6 7 8 9 10 0
-11 136 0
-12 137 0
-136 137 0
-12 -136 0
-13 138 0
-137 138 0
-13 -137 0
-14 139 0
-138 139 0
-14 -138 0
-15 -139 0
11 12 13 14 15 0
-16 141 0
-17 142 0
-141 142 0
-17 -141 0
-18 143 0
-142 143 0
-18 -142 0
-19 144 0
-143 144 0
-19 -143 0
-20 -144 0
16 17 18 19 20 0
-21 146 0
-22 147 0
-146 147 0
-22 -146 0
-23 148 0
-147 148 0
-23 -147 0
-24 149 0
-148 149 0
-24 -148 0
-25 -149 0
21 22 23 24 25 0
-26 151 0
-27 152 0
-151 152 0
-27 -151 0
-28 153 0
-152 153 0
-28 -152 0
-29 154 0
-153 154 0
-29 -153 0
-30 -154 0
26 27 28 29 30 0
-31 156 0
-32 157 0
-156 157 0
-32 -156 0
-33 158 0
-157 158 0
-33 -157 0
-34 159 0
-158 159 0
-34 -158 0
-35 -159 0
31 32 33 34 35 0
-36 161 0
-37 162 0
-161 162 0
-37 -161 0
-38 163 0
-162 163 0
-38 -162 0
-39 164 0
-163 164 0
-39 -163 0
-40 -164 0
36 37 38 39 40 0
-41 166 0
-42 167 0
-166 167 0
-42 -166 0
-43 168 0
-167 168 0
-43 -167 0
-44 169 0
-168 169 0
-44 -168 0
-45 -169 0
41 42 43 44 45 0
-46 171 0
-47 172 0
-171 172 0
-47 -171 0
-48 173 0
-172 173 0
-48 -172 0
-49 174 0
-173 174 0
-49 -173 0
-50 -174 0
46 47 48 49 50 0
-51 176 0
-52 177 0
-176 177 0
-52 -176 0
-53 178 0
-177 178 0
-53 -177 0
-54 179 0
-178 179 0
-54 -178 0
-55 -179 0
51 52 53 54 55 0
-56 181 0
-57 182 0
-181 182 0
-57 -181 0
-58 183 0
-182 183 0
-58 -182 0
-59 184 0
-183 184 0
-59 -183 0
-60 -184 0
56 57 58 59 60 0
-61 186 0
-62 187 0
-186 187 0
-62 -186 0
-63 188 0
-187 188 0
-63 -187 0
-64 189 0
-188 189 0
-64 -188 0
-65 -189 0
61 62 63 64 65 0
-66 191 0
-67 192 0
-191 192 0
-67 -191 0
-68 193 0
-192 193 0
-68 -192 0
-69 194 0
-193 194 0
-69 -193 0
-70 -194 0
66 67 68 69 70 0
-71 196 0
-72 197 0
-196 197 0
-72 -196 0
-73 198 0
-197 198 0
-73 -197 0
-74 199 0
-198 199 0
-74 -198 0
-75 -199 0
71 72 73 74 75 0
-76 201 0
-77 202 0
-201 202 0
-77 -201 0
-78 203 0
-202 203 0
-78 -202 0
-79 204 0
-203 204 0
-79 -203 0
-80 -204 0
76 77 78 79 80 0
-81 206 0
-82 207 0
-206 207 0
-82 -206 0
-83 208 0
-207 208 0
-83 -207 0
-84 209 0
-208 209 0
-84 -208 0
-85 -209 0
81 82 83 84 85 0
-86 211 0
-87 212 0
-211 212 0
-87 -211 0
-88 213 0
-212 213 0
-88 -212 0
-89 214 0
-213 214 0
-89 -213 0
-90 -214 0
86 87 88 89 90 0
-91 216 0
-92 217 0
-216 217 0
-92 -216 0
-93 218 0
-217 218 0
-93 -217 0
-94 219 0
-218 219 0
-94 -218 0
-95 -219 0
91 92 93 94 95 0
-96 221 0
-97 222 0
-221 222 0
-97 -221 0
-98 223 0
-222 223 0
-98 -222 0
-99 224 0
-223 224 0
-99 -223 0
-100 -224 0
96 97 98 99 100 0
-101 226 0
-102 227 0
-226 227 0
-102 -226 0
-103 228 0
-227 228 0
-103 -227 0
-104 229 0
-228 229 0
-104 -228 0
-105 -229 0
101 102 103 104 105 0
-106 231 0
-107 232 0
-231 232 0
-107 -231 0
-108 233 0
-232 233 0
-108 -232 0
-109 234 0
-233 234 0
-109 -233 0
-110 -234 0
106 107 108 109 110 0
-111 236 0
-112 237 0
-236 237 0
-112 -236 0
-113 238 0
-237 238 0
-113 -237 0
-114 239 0
-238 239 0
-114 -238 0
-115 -239 0
111 112 113 114 115 0
-116 241 0
-117 242 0
-241 242 0
-117 -241 0
-118 243 0
-242 243 0
-118 -242 0
-119 244 0
-243 244 0
-119 -243 0
-120 -244 0
116 117 118 119 120 0
-121 246 0
-122 247 0
-246 247 0
-122 -246 0
-123 248 0
-247 248 0
-123 -247 0
-124 249 0
-248 249 0
-124 -248 0
-125 -249 0
121 122 123 124 125 0
-1 251 0
-6 252 0
-251 252 0
-6 -251 0
-11 253 0
-252 253 0
-11 -252 0
-16 254 0
-253 254 0
-16 -253 0
-21 -254 0
1 6 11 16 21 0
-2 256 0
-7 257 0
-256 257 0
-7 -256 0
-12 258 0
-257 258 0
-12 -257 0
-17 259 0
-258 259 0
-17 -258 0
-22 -259 0
2 7 12 17 22 0
-3 261 0
-8 262 0
-261 262 0
-8 -261 0
-13 263 0
-262 263 0
-13 -262 0
-18 264 0
-263 264 0
-18 -263 0
-23 -264 0
3 8 13 18 23 0
-4 266 0
-9 267 0
-266 267 0
-9 -266 0
-14 268 0
-267 268 0
-14 -267 0
-19 269 0
-268 269 0
-19 -268 0
-24 -269 0
4 9 14 19 24 0
-5 271 0
-10 272 0
-271 272 0
-10 -271 0
-15 273 0
-272 273 0
-15 -272 0
-20 274 0
-273 274 0
-20 -273 0
-25 -274 0
5 10 15 20 25 0
-26 276 0
-31 277 0
-276 277 0
-31 -276 0
-36 278 0
-277 278 0
-36 -277 0
-41 279 0
-278 279 0
-41 -278 0
-46 -279 0
26 31 36 41 46 0
-27 281 0
-32 282 0
-281 282 0
-32 -281 0
-37 283 0
-282 283 0
-37 -282 0
-42 284 0
-283 284 0
-42 -283 0
-47 -284 0
27 32 37 42 47 0
-28 286 0
-33 287 0
-286 287 0
-33 -286 0
-38 288 0
-287 288 0
-38 -287 0
-43 289 0
-288 289 0
-43 -288 0
-48 -289 0
28 33 38 43 48 0
-29 291 0
-34 292 0
-291 292 0
-34 -291 0
-39 293 0
-292 293 0
-39 -292 0
-44 294 0
-293 294 0
-44 -293 0
-49 -294 0
29 34 39 44 49 0
-30 296 0
-35 297 0
-296 297 0
-35 -296 0
-40 298 0
-297 298 0
-40 -297 0
-45 299 0
-298 299 0
-45 -298 0
-50 -299 0
30 35 40 45 50 0
-51 301 0
-56 302 0
-301 302 0
-56 -301 0
-61 303 0
-302 303 0
-61 -302 0
-66 304 0
-303 304 0
-66 -303 0
-71 -304 0
51 56 61 66 71 0
-52 306 0
-57 307 0
-306 307 0
-57 -306 0
-62 308 0
-307 308 0
-62 -307 0
-67 309 0
-308 309 0
-67 -308 0
-72 -309 0
52 57 62 67 72 0
-53 311 0
-58 312 0
-311 312 0
-58 -311 0
-63 313 0
-312 313 0
-63 -312 0
-68 314 0
-313 314 0
-68 -313 0
-73 -314 0
53 58 63 68 73 0
-54 316 0
-59 317 0
-316 317 0
-59 -316 0
-64 318 0
-317 318 0
-64 -317 0
-69 319 0
-318 319 0
-69 -318 0
-74 -319 0
54 59 64 69 74 0
-55 321 0
-60 322 0
-321 322 0
-60 -321 0
-65 323 0
-322 323 0
-65 -322 0
-70 324 0
-323 324 0
-70 -323 0
-75 -324 0
55 60 65 70 75 0
-76 326 0
-81 327 0
-326 327 0
-81 -326 0
-86 328 0
-327 328 0
-86 -327 0
-91 329 0
-328 329 0
-91 -328 0
-96 -329 0
76 81 86 91 96 0
-77 331 0
-82 332 0
-331 332 0
-82 -331 0
-87 333 0
-332 333 0
-87 -332 0
-92 334 0
-333 334 0
-92 -333 0
-97 -334 0
77 82 87 92 97 0
-78 336 0
-83 337 0
-336 337 0
-83 -336 0
-88 338 0
-337 338 0
-88 -337 0
-93 339 0
-338 339 0
-93 -338 0
-98 -339 0
78 83 88 93 98 0
-79 341 0
-84 342 0
-341 342 0
-84 -341 0
-89 343 0
-342 343 0
-89 -342 0
-94 344 0
-343 344 0
-94 -343 0
-99 -344 0
79 84 89 94 99 0
-80 346 0
-85 347 0
-346 347 0
-85 -346 0
-90 348 0
-347 348 0
-90 -347 0
-95 349 0
-348 349 0
-95 -348 0
-100 -349 0
80 85 90 95 100 0
-101 351 0
-106 352 0
-351 352 0
-106 -351 0
-111 353 0
-352 353 0
-111 -352 0
-116 354 0
-353 354 0
-116 -353 0
-121 -354 0
101 106 111 116 121 0
-102 356 0
-107 357 0
-356 357 0
-107 -356 0
-112 358 0
-357 358 0
-112 -357 0
-117 359 0
-358 359 0
-117 -358 0
-122 -359 0
102 107 112 117 122 0
-103 361 0
-108 362 0
-361 362 0
-108 -361 0
-113 363 0
-362 363 0
-113 -362 0
-118 364 0
-363 364 0
-118 -363 0
-123 -364 0
103 108 113 118 123 0
-104 366 0
-109 367 0
-366 367 0
-109 -366 0
-114 368 0
-367 368 0
-114 -367 0
-119 369 0
-368 369 0
-119 -368 0
-124 -369 0
104 109 114 119 124 0
-105 371 0
-110 372 0
-371 372 0
-110 -371 0
-115 373 0
-372 373 0
-115 -372 0
-120 374 0
-373 374 0
-120 -373 0
-125 -374 0
105 110 115 120 125 0
-1 376 0
-26 377 0
-376 377 0
-26 -376 0
-51 378 0
-377 378 0
-51 -377 0
-76 379 0
-378 379 0
-76 -378 0
-101 -379 0
1 26 51 76 101 0
-2 381 0
-27 382 0
-381 382 0
-27 -381 0
-52 383 0
-382 383 0
-52 -382 0
-77 384 0
-383 384 0
-77 -383 0
-102 -384 0
2 27 52 77 102 0
-3 386 0
-28 387 0
-386 387 0
-28 -386 0
-53 388 0
-387 388 0
-53 -387 0
-78 389 0
-388 389 0
-78 -388 0
-103 -389 0
3 28 53 78 103 0
-4 391 0
-29 392 0
-391 392 0
-29 -391 0
-54 393 0
-392 393 0
-54 -392 0
-79 394 0
-393 394 0
-79 -393 0
-104 -394 0
4 29 54 79 104 0
-5 396 0
-30 397 0
-396 397 0
-30 -396 0
-55 398 0
-397 398 0
-55 -397 0
-80 399 0
-398 399 0
-80 -398 0
-105 -399 0
5 30 55 80 105 0
-6 401 0
-31 402 0
-401 402 0
-31 -401 0
-56 403 0
-402 403 0
-56 -402 0
-81 404 0
-403 404 0
-81 -403 0
-106 -404 0
6 31 56 81 106 0
-7 406 0
-32 407 0
-406 407 0
-32 -406 0
-57 408 0
-407 408 0
-57 -407 0
-82 409 0
-408 409 0
-82 -408 0
-107 -409 0
7 32 57 82 107 0
-8 411 0
-33 412 0
-411 412 0
-33 -411 0
-58 413 0
-412 413 0
-58 -412 0
-83 414 0
-413 414 0
-83 -413 0
-108 -414 0
8 33 58 83 108 0
-9 416 0
-34 417 0
-416 417 0
-34 -416 0
-59 418 0
-417 418 0
-59 -417 0
-84 419 0
-418 419 0
-84 -418 0
-109 -419 0
9 34 59 84 109 0
-10 421 0
-35 422 0
-421 422 0
-35 -421 0
-60 423 0
-422 423 0
-60 -422 0
-85 424 0
-423 424 0
-85 -423 0
-110 -424 0
10 35 60 85 110 0
-11 426 0
-36 427 0
-426 427 0
-36 -426 0
-61 428 0
-427 428 0
-61 -427 0
-86 429 0
-428 429 0
-86 -428 0
-111 -429 0
11 36 61 86 111 0
-12 431 0
-37 432 0
-431 432 0
-37 -431 0
-62 433 0
-432 433 0
-62 -432 0
-87 434 0
-433 434 0
-87 -433 0
-112 -434 0
12 37 62 87 112 0
-13 436 0
-38 437 0
-436 437 0
-38 -436 0
-63 438 0
-437 438 0
-63 -437 0
-88 439 0
-438 439 0
-88 -438 0
-113 -439 0
13 38 63 88 113 0
-14 441 0
-39 442 0
-441 442 0
-39 -441 0
-64 443 0
-442 443 0
-64 -442 0
-89 444 0
-443 444 0
-89 -443 0
-114 -444 0
14 39 64 89 114 0
-15 446 0
-40 447 0
-446 447 0
-40 -446 0
-65 448 0
-447 448 0
-65 -447 0
-90 449 0
-448 449 0
-90 -448 0
-115 -449 0
15 40 65 90 115 0
-16 451 0
-41 452 0
-451 452 0
-41 -451 0
-66 453 0
-452 453 0
-66 -452 0
-91 454 0
-453 454 0
-91 -453 0
-116 -454 0
16 41 66 91 116 0
-17 456 0
-42 457 0
-456 457 0
-42 -456 0
-67 458 0
-457 458 0
-67 -457 0
-92 459 0
-458 459 0
-92 -458 0
-117 -459 0
17 42 67 92 117 0
-18 461 0
-43 462 0
-461 462 0
-43 -461 0
-68 463 0
-462 463 0
-68 -462 0
-93 464 0
-463 464 0
-93 -463 0
-118 -464 0
18 43 68 93 118 0
-19 466 0
-44 467 0
-466 467 0
-44 -466 0
-69 468 0
-467 468 0
-69 -467 0
-94 469 0
-468 469 0
-94 -468 0
-119 -469 0
19 44 69 94 119 0
-20 471 0
-45 472 0
-471 472 0
-45 -471 0
-70 473 0
-472 473 0
-70 -472 0
-95 474 0
-473 474 0
-95 -473 0
-120 -474 0
20 45 70 95 120 0
-21 476 0
-46 477 0
-476 477 0
-46 -476 0
-71 478 0
-477 478 0
-71 -477 0
-96 479 0
-478 479 0
-96 -478 0
-121 -479 0
21 46 71 96 121 0
-22 481 0
-47 482 0
-481 482 0
-47 -481 0
-72 483 0
-482 483 0
-72 -482 0
-97 484 0
-483 484 0
-97 -483 0
-122 -484 0
22 47 72 97 122 0
-23 486 0
-48 487 0
-486 487 0
-48 -486 0
-73 488 0
-487 488 0
-73 -487 0
-98 489 0
-488 489 0
-98 -488 0
-123 -489 0
23 48 73 98 123 0
-24 491 0
-49 492 0
-491 492 0
-49 -491 0
-74 493 0
-492 493 0
-74 -492 0
-99 494 0
-493 494 0
-99 -493 0
-124 -494 0
24 49 74 99 124 0
-25 496 0
-50 497 0
-496 497 0
-50 -496 0
-75 498 0
-497 498 0
-75 -497 0
-100 499 0
-498 499 0
-100 -498 0
-125 -499 0
25 50 75 100 125 0
-501 506 0
-507 0
-508 0
-502 509 0
-506 509 0
-502 -506 510 0
-507 510 0
-502 -507 511 0
-508 511 0
-502 -508 0
-503 512 0
-509 512 0
-503 -509 513 0
-510 513 0
-503 -510 514 0
-511 514 0
-503 -511 0
-504 515 0
-512 515 0
-504 -512 516 0
-513 516 0
-504 -513 517 0
-514 517 0
-504 -514 0
-505 -517 0
501 521 0
-522 0
502 523 0
-521 523 0
502 -521 524 0
-522 524 0
502 -522 0
503 525 0
-523 525 0
503 -523 526 0
-524 526 0
503 -524 0
504 527 0
-525 527 0
504 -525 528 0
-526 528 0
504 -526 0
505 -528 0
-16 531 0
-46 532 0
-531 532 0
-46 -531 0
-501 -532 0
16 46 501 0
-17 534 0
-47 535 0
-534 535 0
-47 -534 0
-502 -535 0
17 47 502 0
-18 537 0
-48 538 0
-537 538 0
-48 -537 0
-503 -538 0
18 48 503 0
-19 540 0
-49 541 0
-540 541 0
-49 -540 0
-504 -541 0
19 49 504 0
-20 543 0
-50 544 0
-543 544 0
-50 -543 0
-505 -544 0
20 50 505 0
-546 551 0
-552 0
-547 553 0
-551 553 0
-547 -551 554 0
-552 554 0
-547 -552 0
-548 555 0
-553 555 0
-548 -553 556 0
-554 556 0
-548 -554 0
-549 557 0
-555 557 0
-549 -555 558 0
-556 558 0
-549 -556 0
-550 -558 0
546 561 0
-562 0
-563 0
547 564 0
-561 564 0
547 -561 565 0
-562 565 0
547 -562 566 0
-563 566 0
547 -563 0
548 567 0
-564 567 0
548 -564 568 0
-565 568 0
548 -565 569 0
-566 569 0
548 -566 0
549 570 0
-567 570 0
549 -567 571 0
-568 571 0
549 -568 572 0
-569 572 0
549 -569 0
550 -572 0
-11 576 0
-41 577 0
-576 577 0
-41 -576 0
-71 578 0
-577 578 0
-71 -577 0
-546 -578 0
11 41 71 546 0
-12 580 0
-42 581 0
-580 581 0
-42 -580 0
-72 582 0
-581 582 0
-72 -581 0
-547 -582 0
12 42 72 547 0
-13 584 0
-43 585 0
-584 585 0
-43 -584 0
-73 586 0
-585 586 0
-73 -585 0
-548 -586 0
13 43 73 548 0
-14 588 0
-44 589 0
-588 589 0
-44 -588 0
-74 590 0
-589 590 0
-74 -589 0
-549 -590 0
14 44 74 549 0
-15 592 0
-45 593 0
-592 593 0
-45 -592 0
-75 594 0
-593 594 0
-75 -593 0
-550 -594 0
15 45 75 550 0
-596 601 0
-597 602 0
-601 602 0
-597 -601 0
-598 603 0
-602 603 0
-598 -602 0
-599 604 0
-603 604 0
-599 -603 0
-600 -604 0
596 606 0
-607 0
-608 0
-609 0
597 610 0
-606 610 0
597 -606 611 0
-607 611 0
597 -607 612 0
-608 612 0
597 -608 613 0
-609 613 0
597 -609 0
598 614 0
-610 614 0
598 -610 615 0
-611 615 0
598 -611 616 0
-612 616 0
598 -612 617 0
-613 617 0
598 -613 0
599 618 0
-614 618 0
599 -614 619 0
-615 619 0
599 -615 620 0
-616 620 0
599 -616 621 0
-617 621 0
599 -617 0
600 -621 0
-6 626 0
-36 627 0
-626 627 0
-36 -626 0
-66 628 0
-627 628 0
-66 -627 0
-96 629 0
-628 629 0
-96 -628 0
-596 -629 0
6 36 66 96 596 0
-7 631 0
-37 632 0
-631 632 0
-37 -631 0
-67 633 0
-632 633 0
-67 -632 0
-97 634 0
-633 634 0
-97 -633 0
-597 -634 0
7 37 67 97 597 0
-8 636 0
-38 637 0
-636 637 0
-38 -636 0
-68 638 0
-637 638 0
-68 -637 0
-98 639 0
-638 639 0
-98 -638 0
-598 -639 0
8 38 68 98 598 0
-9 641 0
-39 642 0
-641 642 0
-39 -641 0
-69 643 0
-642 643 0
-69 -642 0
-99 644 0
-643 644 0
-99 -643 0
-599 -644 0
9 39 69 99 599 0
-10 646 0
-40 647 0
-646 647 0
-40 -646 0
-70 648 0
-647 648 0
-70 -647 0
-100 649 0
-648 649 0
-100 -648 0
-600 -649 0
10 40 70 100 600 0
-1 651 0
-31 652 0
-651 652 0
-31 -651 0
-61 653 0
-652 653 0
-61 -652 0
-91 654 0
-653 654 0
-91 -653 0
-121 -654 0
1 31 61 91 121 0
-2 656 0
-32 657 0
-656 657 0
-32 -656 0
-62 658 0
-657 658 0
-62 -657 0
-92 659 0
-658 659 0
-92 -658 0
-122 -659 0
2 32 62 92 122 0
-3 661 0
-33 662 0
-661 662 0
-33 -661 0
-63 663 0
-662 663 0
-63 -662 0
-93 664 0
-663 664 0
-93 -663 0
-123 -664 0
3 33 63 93 123 0
-4 666 0
-34 667 0
-666 667 0
-34 -666 0
-64 668 0
-667 668 0
-64 -667 0
-94 669 0
-668 669 0
-94 -668 0
-124 -669 0
4 34 64 94 124 0
-5 671 0
-35 672 0
-671 672 0
-35 -671 0
-65 673 0
-672 673 0
-65 -672 0
-95 674 0
-673 674 0
-95 -673 0
-125 -674 0
5 35 65 95 125 0
-676 681 0
-677 682 0
-681 682 0
-677 -681 0
-678 683 0
-682 683 0
-678 -682 0
-679 684 0
-683 684 0
-679 -683 0
-680 -684 0
676 686 0
-687 0
-688 0
-689 0
677 690 0
-686 690 0
677 -686 691 0
-687 691 0
677 -687 692 0
-688 692 0
677 -688 693 0
-689 693 0
677 -689 0
678 694 0
-690 694 0
678 -690 695 0
-691 695 0
678 -691 696 0
-692 696 0
678 -692 697 0
-693 697 0
678 -693 0
679 698 0
-694 698 0
679 -694 699 0
-695 699 0
679 -695 700 0
-696 700 0
679 -696 701 0
-697 701 0
679 -697 0
680 -701 0
-26 706 0
-56 707 0
-706 707 0
-56 -706 0
-86 708 0
-707 708 0
-86 -707 0
-116 709 0
-708 709 0
-116 -708 0
-676 -709 0
26 56 86 116 676 0
-27 711 0
-57 712 0
-711 712 0
-57 -711 0
-87 713 0
-712 713 0
-87 -712 0
-117 714 0
-713 714 0
-117 -713 0
-677 -714 0
27 57 87 117 677 0
-28 716 0
-58 717 0
-716 717 0
-58 -716 0
-88 718 0
-717 718 0
-88 -717 0
-118 719 0
-718 719 0
-118 -718 0
-678 -719 0
28 58 88 118 678 0
-29 721 0
-59 722 0
-721 722 0
-59 -721 0
-89 723 0
-722 723 0
-89 -722 0
-119 724 0
-723 724 0
-119 -723 0
-679 -724 0
29 59 89 119 679 0
-30 726 0
-60 727 0
-726 727 0
-60 -726 0
-90 728 0
-727 728 0
-90 -727 0
-120 729 0
-728 729 0
-120 -728 0
-680 -729 0
30 60 90 120 680 0
-731 736 0
-737 0
-732 738 0
-736 738 0
-732 -736 739 0
-737 739 0
-732 -737 0
-733 740 0
-738 740 0
-733 -738 741 0
-739 741 0
-733 -739 0
-734 742 0
-740 742 0
-734 -740 743 0
-741 743 0
-734 -741 0
-735 -743 0
731 746 0
-747 0
-748 0
732 749 0
-746 749 0
732 -746 750 0
-747 750 0
732 -747 751 0
-748 751 0
732 -748 0
733 752 0
-749 752 0
733 -749 753 0
-750 753 0
733 -750 754 0
-751 754 0
733 -751 0
734 755 0
-752 755 0
734 -752 756 0
-753 756 0
734 -753 757 0
-754 757 0
734 -754 0
735 -757 0
-51 761 0
-81 762 0
-761 762 0
-81 -761 0
-111 763 0
-762 763 0
-111 -762 0
-731 -763 0
51 81 111 731 0
-52 765 0
-82 766 0
-765 766 0
-82 -765 0
-112 767 0
-766 767 0
-112 -766 0
-732 -767 0
52 82 112 732 0
-53 769 0
-83 770 0
-769 770 0
-83 -769 0
-113 771 0
-770 771 0
-113 -770 0
-733 -771 0
53 83 113 733 0
-54 773 0
-84 774 0
-773 774 0
-84 -773 0
-114 775 0
-774 775 0
-114 -774 0
-734 -775 0
54 84 114 734 0
-55 777 0
-85 778 0
-777 778 0
-85 -777 0
-115 779 0
-778 779 0
-115 -778 0
-735 -779 0
55 85 115 735 0
-781 786 0
-787 0
-788 0
-782 789 0
-786 789 0
-782 -786 790 0
-787 790 0
-782 -787 791 0
-788 791 0
-782 -788 0
-783 792 0
-789 792 0
-783 -789 793 0
-790 793 0
-783 -790 794 0
-791 794 0
-783 -791 0
-784 795 0
-792 795 0
-784 -792 796 0
-793 796 0
-784 -793 797 0
-794 797 0
-784 -794 0
-785 -797 0
781 801 0
-802 0
782 803 0
-801 803 0
782 -801 804 0
-802 804 0
782 -802 0
783 805 0
-803 805 0
783 -803 806 0
-804 806 0
783 -804 0
784 807 0
-805 807 0
784 -805 808 0
-806 808 0
784 -806 0
785 -808 0
-76 811 0
-106 812 0
-811 812 0
-106 -811 0
-781 -812 0
76 106 781 0
-77 814 0
-107 815 0
-814 815 0
-107 -814 0
-782 -815 0
77 107 782 0
-78 817 0
-108 818 0
-817 818 0
-108 -817 0
-783 -818 0
78 108 783 0
-79 820 0
-109 821 0
-820 821 0
-109 -820 0
-784 -821 0
79 109 784 0
-80 823 0
-110 824 0
-823 824 0
-110 -823 0
-785 -824 0
80 110 785 0
-826 831 0
-832 0
-833 0
-827 834 0
-831 834 0
-827 -831 835 0
-832 835 0
-827 -832 836 0
-833 836 0
-827 -833 0
-828 837 0
-834 837 0
-828 -834 838 0
-835 838 0
-828 -835 839 0
-836 839 0
-828 -836 0
-829 840 0
-837 840 0
-829 -837 841 0
-838 841 0
-829 -838 842 0
-839 842 0
-829 -839 0
-830 -842 0
826 846 0
-847 0
827 848 0
-846 848 0
827 -846 849 0
-847 849 0
827 -847 0
828 850 0
-848 850 0
828 -848 851 0
-849 851 0
828 -849 0
829 852 0
-850 852 0
829 -850 853 0
-851 853 0
829 -851 0
830 -853 0
-6 856 0
-26 857 0
-856 857 0
-26 -856 0
-826 -857 0
6 26 826 0
-7 859 0
-27 860 0
-859 860 0
-27 -859 0
-827 -860 0
7 27 827 0
-8 862 0
-28 863 0
-862 863 0
-28 -862 0
-828 -863 0
8 28 828 0
-9 865 0
-29 866 0
-865 866 0
-29 -865 0
-829 -866 0
9 29 829 0
-10 868 0
-30 869 0
-868 869 0
-30 -868 0
-830 -869 0
10 30 830 0
-871 876 0
-877 0
-872 878 0
-876 878 0
-872 -876 879 0
-877 879 0
-872 -877 0
-873 880 0
-878 880 0
-873 -878 881 0
-879 881 0
-873 -879 0
-874 882 0
-880 882 0
-874 -880 883 0
-881 883 0
-874 -881 0
-875 -883 0
871 886 0
-887 0
-888 0
872 889 0
-886 889 0
872 -886 890 0
-887 890 0
872 -887 891 0
-888 891 0
872 -888 0
873 892 0
-889 892 0
873 -889 893 0
-890 893 0
873 -890 894 0
-891 894 0
873 -891 0
874 895 0
-892 895 0
874 -892 896 0
-893 896 0
874 -893 897 0
-894 897 0
874 -894 0
875 -897 0
-11 901 0
-31 902 0
-901 902 0
-31 -901 0
-51 903 0
-902 903 0
-51 -902 0
-871 -903 0
11 31 51 871 0
-12 905 0
-32 906 0
-905 906 0
-32 -905 0
-52 907 0
-906 907 0
-52 -906 0
-872 -907 0
12 32 52 872 0
-13 909 0
-33 910 0
-909 910 0
-33 -909 0
-53 911 0
-910 911 0
-53 -910 0
-873 -911 0
13 33 53 873 0
-14 913 0
-34 914 0
-913 914 0
-34 -913 0
-54 915 0
-914 915 0
-54 -914 0
-874 -915 0
14 34 54 874 0
-15 917 0
-35 918 0
-917 918 0
-35 -917 0
-55 919 0
-918 919 0
-55 -918 0
-875 -919 0
15 35 55 875 0
-921 926 0
-922 927 0
-926 927 0
-922 -926 0
-923 928 0
-927 928 0
-923 -927 0
-924 929 0
-928 929 0
-924 -928 0
-925 -929 0
921 931 0
-932 0
-933 0
-934 0
922 935 0
-931 935 0
922 -931 936 0
-932 936 0
922 -932 937 0
-933 937 0
922 -933 938 0
-934 938 0
922 -934 0
923 939 0
-935 939 0
923 -935 940 0
-936 940 0
923 -936 941 0
-937 941 0
923 -937 942 0
-938 942 0
923 -938 0
924 943 0
-939 943 0
924 -939 944 0
-940 944 0
924 -940 945 0
-941 945 0
924 -941 946 0
-942 946 0
924 -942 0
925 -946 0
-16 951 0
-36 952 0
-951 952 0
-36 -951 0
-56 953 0
-952 953 0
-56 -952 0
-76 954 0
-953 954 0
-76 -953 0
-921 -954 0
16 36 56 76 921 0
-17 956 0
-37 957 0
-956 957 0
-37 -956 0
-57 958 0
-957 958 0
-57 -957 0
-77 959 0
-958 959 0
-77 -958 0
-922 -959 0
17 37 57 77 922 0
-18 961 0
-38 962 0
-961 962 0
-38 -961 0
-58 963 0
-962 963 0
-58 -962 0
-78 964 0
-963 964 0
-78 -963 0
-923 -964 0
18 38 58 78 923 0
-19 966 0
-39 967 0
-966 967 0
-39 -966 0
-59 968 0
-967 968 0
-59 -967 0
-79 969 0
-968 969 0
-79 -968 0
-924 -969 0
19 39 59 79 924 0
-20 971 0
-40 972 0
-971 972 0
-40 -971 0
-60 973 0
-972 973 0
-60 -972 0
-80 974 0
-973 974 0
-80 -973 0
-925 -974 0
20 40 60 80 925 0
-21 976 0
-41 977 0
-976 977 0
-41 -976 0
-61 978 0
-977 978 0
-61 -977 0
-81 979 0
-978 979 0
-81 -978 0
-101 -979 0
21 41 61 81 101 0
-22 981 0
-42 982 0
-981 982 0
-42 -981 0
-62 983 0
-982 983 0
-62 -982 0
-82 984 0
-983 984 0
-82 -983 0
-102 -984 0
22 42 62 82 102 0
-23 986 0
-43 987 0
-986 987 0
-43 -986 0
-63 988 0
-987 988 0
-63 -987 0
-83 989 0
-988 989 0
-83 -988 0
-103 -989 0
23 43 63 83 103 0
-24 991 0
-44 992 0
-991 992 0
-44 -991 0
-64 993 0
-992 993 0
-64 -992 0
-84 994 0
-993 994 0
-84 -993 0
-104 -994 0
24 44 64 84 104 0
-25 996 0
-45 997 0
-996 997 0
-45 -996 0
-65 998 0
-997 998 0
-65 -997 0
-85 999 0
-998 999 0
-85 -998 0
-105 -999 0
25 45 65 85 105 0
-1001 1006 0
-1002 1007 0
-1006 1007 0
-1002 -1006 0
-1003 1008 0
-1007 1008 0
-1003 -1007 0
-1004 1009 0
-1008 1009 0
-1004 -1008 0
-1005 -1009 0
1001 1011 0
-1012 0
-1013 0
-1014 0
1002 1015 0
-1011 1015 0
1002 -1011 1016 0
-1012 1016 0
1002 -1012 1017 0
-1013 1017 0
1002 -1013 1018 0
-1014 1018 0
1002 -1014 0
1003 1019 0
-1015 1019 0
1003 -1015 1020 0
-1016 1020 0
1003 -1016 1021 0
-1017 1021 0
1003 -1017 1022 0
-1018 1022 0
1003 -1018 0
1004 1023 0
-1019 1023 0
1004 -1019 1024 0
-1020 1024 0
1004 -1020 1025 0
-1021 1025 0
1004 -1021 1026 0
-1022 1026 0
1004 -1022 0
1005 -1026 0
-46 1031 0
-66 1032 0
-1031 1032 0
-66 -1031 0
-86 1033 0
-1032 1033 0
-86 -1032 0
-106 1034 0
-1033 1034 0
-106 -1033 0
-1001 -1034 0
46 66 86 106 1001 0
-47 1036 0
-67 1037 0
-1036 1037 0
-67 -1036 0
-87 1038 0
-1037 1038 0
-87 -1037 0
-107 1039 0
-1038 1039 0
-107 -1038 0
-1002 -1039 0
47 67 87 107 1002 0
-48 1041 0
-68 1042 0
-1041 1042 0
-68 -1041 0
-88 1043 0
-1042 1043 0
-88 -1042 0
-108 1044 0
-1043 1044 0
-108 -1043 0
-1003 -1044 0
48 68 88 108 1003 0
-49 1046 0
-69 1047 0
-1046 1047 0
-69 -1046 0
-89 1048 0
-1047 1048 0
-89 -1047 0
-109 1049 0
-1048 1049 0
-109 -1048 0
-1004 -1049 0
49 69 89 109 1004 0
-50 1051 0
-70 1052 0
-1051 1052 0
-70 -1051 0
-90 1053 0
-1052 1053 0
-90 -1052 0
-110 1054 0
-1053 1054 0
-110 -1053 0
-1005 -1054 0
50 70 90 110 1005 0
-1056 1061 0
-1062 0
-1057 1063 0
-1061 1063 0
-1057 -1061 1064 0
-1062 1064 0
-1057 -1062 0
-1058 1065 0
-1063 1065 0
-1058 -1063 1066 0
-1064 1066 0
-1058 -1064 0
-1059 1067 0
-1065 1067 0
-1059 -1065 1068 0
-1066 1068 0
-1059 -1066 0
-1060 -1068 0
1056 1071 0
-1072 0
-1073 0
1057 1074 0
-1071 1074 0
1057 -1071 1075 0
-1072 1075 0
1057 -1072 1076 0
-1073 1076 0
1057 -1073 0
1058 1077 0
-1074 1077 0
1058 -1074 1078 0
-1075 1078 0
1058 -1075 1079 0
-1076 1079 0
1058 -1076 0
1059 1080 0
-1077 1080 0
1059 -1077 1081 0
-1078 1081 0
1059 -1078 1082 0
-1079 1082 0
1059 -1079 0
1060 -1082 0
-71 1086 0
-91 1087 0
-1086 1087 0
-91 -1086 0
-111 1088 0
-1087 1088 0
-111 -1087 0
-1056 -1088 0
71 91 111 1056 0
-72 1090 0
-92 1091 0
-1090 1091 0
-92 -1090 0
-112 1092 0
-1091 1092 0
-112 -1091 0
-1057 -1092 0
72 92 112 1057 0
-73 1094 0
-93 1095 0
-1094 1095 0
-93 -1094 0
-113 1096 0
-1095 1096 0
-113 -1095 0
-1058 -1096 0
73 93 113 1058 0
-74 1098 0
-94 1099 0
-1098 1099 0
-94 -1098 0
-114 1100 0
-1099 1100 0
-114 -1099 0
-1059 -1100 0
74 94 114 1059 0
-75 1102 0
-95 1103 0
-1102 1103 0
-95 -1102 0
-115 1104 0
-1103 1104 0
-115 -1103 0
-1060 -1104 0
75 95 115 1060 0
-1106 1111 0
-1112 0
-1113 0
-1107 1114 0
-1111 1114 0
-1107 -1111 1115 0
-1112 1115 0
-1107 -1112 1116 0
-1113 1116 0
-1107 -1113 0
-1108 1117 0
-1114 1117 0
-1108 -1114 1118 0
-1115 1118 0
-1108 -1115 1119 0
-1116 1119 0
-1108 -1116 0
-1109 1120 0
-1117 1120 0
-1109 -1117 1121 0
-1118 1121 0
-1109 -1118 1122 0
-1119 1122 0
-1109 -1119 0
-1110 -1122 0
1106 1126 0
-1127 0
1107 1128 0
-1126 1128 0
1107 -1126 1129 0
-1127 1129 0
1107 -1127 0
1108 1130 0
-1128 1130 0
1108 -1128 1131 0
-1129 1131 0
1108 -1129 0
1109 1132 0
-1130 1132 0
1109 -1130 1133 0
-1131 1133 0
1109 -1131 0
1110 -1133 0
-96 1136 0
-116 1137 0
-1136 1137 0
-116 -1136 0
-1106 -1137 0
96 116 1106 0
-97 1139 0
-117 1140 0
-1139 1140 0
-117 -1139 0
-1107 -1140 0
97 117 1107 0
-98 1142 0
-118 1143 0
-1142 1143 0
-118 -1142 0
-1108 -1143 0
98 118 1108 0
-99 1145 0
-119 1146 0
-1145 1146 0
-119 -1145 0
-1109 -1146 0
99 119 1109 0
-100 1148 0
-120 1149 0
-1148 1149 0
-120 -1148 0
-1110 -1149 0
100 120 1110 0
