c Ohno et al. proposed method 4 encoding
p cnf 60 94
1 2 3 4 0
-1 5 0
-2 6 0
-5 6 0
-2 -5 0
-3 7 0
-6 7 0
-3 -6 0
-4 -7 0
-2 0
-4 0
9 10 11 12 0
-9 13 0
-10 14 0
-13 14 0
-10 -13 0
-11 15 0
-14 15 0
-11 -14 0
-12 -15 0
-10 0
-12 0
17 18 19 20 0
-17 21 0
-18 22 0
-21 22 0
-18 -21 0
-19 23 0
-22 23 0
-19 -22 0
-20 -23 0
-20 0
-25 29 0
-26 30 0
-29 30 0
-26 -29 0
-27 31 0
-30 31 0
-27 -30 0
-28 -31 0
25 33 0
-34 0
-35 0
26 36 0
-33 36 0
26 -33 37 0
-34 37 0
26 -34 38 0
-35 38 0
26 -35 0
27 39 0
-36 39 0
27 -36 40 0
-37 40 0
27 -37 41 0
-38 41 0
27 -38 0
28 -41 0
1 9 17 25 0
-1 45 0
-9 46 0
-45 46 0
-9 -45 0
-17 47 0
-46 47 0
-17 -46 0
-25 -47 0
2 10 18 26 0
-2 49 0
-10 50 0
-49 50 0
-10 -49 0
-18 51 0
-50 51 0
-18 -50 0
-26 -51 0
3 11 19 27 0
-3 53 0
-11 54 0
-53 54 0
-11 -53 0
-19 55 0
-54 55 0
-19 -54 0
-27 -55 0
4 12 20 28 0
-4 57 0
-12 58 0
-57 58 0
-12 -57 0
-20 59 0
-58 59 0
-20 -58 0
-28 -59 0
