p cnf 275 662
-1 26 0
-2 27 0
-26 27 0
-2 -26 0
-3 28 0
-27 28 0
-3 -27 0
-4 29 0
-28 29 0
-4 -28 0
-5 -29 0
1 2 3 4 5 0
-6 31 0
-7 32 0
-31 32 0
-7 -31 0
-8 33 0
-32 33 0
-8 -32 0
-9 34 0
-33 34 0
-9 -33 0
-10 -34 0
6 7 8 9 10 0
-11 36 0
-12 37 0
-36 37 0
-12 -36 0
-13 38 0
-37 38 0
-13 -37 0
-14 39 0
-38 39 0
-14 -38 0
-15 -39 0
11 12 13 14 15 0
-16 41 0
-17 42 0
-41 42 0
-17 -41 0
-18 43 0
-42 43 0
-18 -42 0
-19 44 0
-43 44 0
-19 -43 0
-20 -44 0
16 17 18 19 20 0
-21 46 0
-22 47 0
-46 47 0
-22 -46 0
-23 48 0
-47 48 0
-23 -47 0
-24 49 0
-48 49 0
-24 -48 0
-25 -49 0
21 22 23 24 25 0
-22 0
-23 0
-24 0
-25 0
-16 0
-1 0
-2 0
-5 0
-11 0
-12 0
-15 0
-51 1 0
-1 51 0
51 2 3 4 5 0
-52 6 0
-6 52 0
52 7 8 9 10 0
-53 11 0
-11 53 0
53 12 13 14 15 0
-54 16 0
-16 54 0
54 17 18 19 20 0
-55 21 0
-21 55 0
55 22 23 24 25 0
-51 56 0
-52 57 0
-56 57 0
-52 -56 0
-53 58 0
-57 58 0
-53 -57 0
-54 59 0
-58 59 0
-54 -58 0
-55 -59 0
-61 1 2 0
-1 61 0
-2 61 0
61 3 4 5 0
-62 6 7 0
-6 62 0
-7 62 0
62 8 9 10 0
-63 11 12 0
-11 63 0
-12 63 0
63 13 14 15 0
-64 16 17 0
-16 64 0
-17 64 0
64 18 19 20 0
-65 21 22 0
-21 65 0
-22 65 0
65 23 24 25 0
-61 66 0
-67 0
-62 68 0
-66 68 0
-62 -66 69 0
-67 69 0
-62 -67 0
-63 70 0
-68 70 0
-63 -68 71 0
-69 71 0
-63 -69 0
-64 72 0
-70 72 0
-64 -70 73 0
-71 73 0
-64 -71 0
-65 -73 0
-76 1 2 3 0
-1 76 0
-2 76 0
-3 76 0
76 4 5 0
-77 6 7 8 0
-6 77 0
-7 77 0
-8 77 0
77 9 10 0
-78 11 12 13 0
-11 78 0
-12 78 0
-13 78 0
78 14 15 0
-79 16 17 18 0
-16 79 0
-17 79 0
-18 79 0
79 19 20 0
-80 21 22 23 0
-21 80 0
-22 80 0
-23 80 0
80 24 25 0
-76 81 0
-82 0
-83 0
-77 84 0
-81 84 0
-77 -81 85 0
-82 85 0
-77 -82 86 0
-83 86 0
-77 -83 0
-78 87 0
-84 87 0
-78 -84 88 0
-85 88 0
-78 -85 89 0
-86 89 0
-78 -86 0
-79 90 0
-87 90 0
-79 -87 91 0
-88 91 0
-79 -88 92 0
-89 92 0
-79 -89 0
-80 -92 0
-96 1 2 3 4 0
-1 96 0
-2 96 0
-3 96 0
-4 96 0
96 5 0
-97 6 7 8 9 0
-6 97 0
-7 97 0
-8 97 0
-9 97 0
97 10 0
-98 11 12 13 14 0
-11 98 0
-12 98 0
-13 98 0
-14 98 0
98 15 0
-99 16 17 18 19 0
-16 99 0
-17 99 0
-18 99 0
-19 99 0
99 20 0
-100 21 22 23 24 0
-21 100 0
-22 100 0
-23 100 0
-24 100 0
100 25 0
-96 101 0
-102 0
-103 0
-104 0
-97 105 0
-101 105 0
-97 -101 106 0
-102 106 0
-97 -102 107 0
-103 107 0
-97 -103 108 0
-104 108 0
-97 -104 0
-98 109 0
-105 109 0
-98 -105 110 0
-106 110 0
-98 -106 111 0
-107 111 0
-98 -107 112 0
-108 112 0
-98 -108 0
-99 113 0
-109 113 0
-99 -109 114 0
-110 114 0
-99 -110 115 0
-111 115 0
-99 -111 116 0
-112 116 0
-99 -112 0
-100 -116 0
-121 1 2 3 4 5 0
-1 121 0
-2 121 0
-3 121 0
-4 121 0
-5 121 0
121 0
-122 6 7 8 9 10 0
-6 122 0
-7 122 0
-8 122 0
-9 122 0
-10 122 0
122 0
-123 11 12 13 14 15 0
-11 123 0
-12 123 0
-13 123 0
-14 123 0
-15 123 0
123 0
-124 16 17 18 19 20 0
-16 124 0
-17 124 0
-18 124 0
-19 124 0
-20 124 0
124 0
-125 21 22 23 24 25 0
-21 125 0
-22 125 0
-23 125 0
-24 125 0
-25 125 0
125 0
-126 2 0
-2 126 0
126 1 3 4 5 0
-127 7 0
-7 127 0
127 6 8 9 10 0
-128 12 0
-12 128 0
128 11 13 14 15 0
-129 17 0
-17 129 0
129 16 18 19 20 0
-130 22 0
-22 130 0
130 21 23 24 25 0
-126 131 0
-127 132 0
-131 132 0
-127 -131 0
-128 133 0
-132 133 0
-128 -132 0
-129 134 0
-133 134 0
-129 -133 0
-130 -134 0
-136 2 3 0
-2 136 0
-3 136 0
136 1 4 5 0
-137 7 8 0
-7 137 0
-8 137 0
137 6 9 10 0
-138 12 13 0
-12 138 0
-13 138 0
138 11 14 15 0
-139 17 18 0
-17 139 0
-18 139 0
139 16 19 20 0
-140 22 23 0
-22 140 0
-23 140 0
140 21 24 25 0
-136 141 0
-142 0
-137 143 0
-141 143 0
-137 -141 144 0
-142 144 0
-137 -142 0
-138 145 0
-143 145 0
-138 -143 146 0
-144 146 0
-138 -144 0
-139 147 0
-145 147 0
-139 -145 148 0
-146 148 0
-139 -146 0
-140 -148 0
-151 2 3 4 0
-2 151 0
-3 151 0
-4 151 0
151 1 5 0
-152 7 8 9 0
-7 152 0
-8 152 0
-9 152 0
152 6 10 0
-153 12 13 14 0
-12 153 0
-13 153 0
-14 153 0
153 11 15 0
-154 17 18 19 0
-17 154 0
-18 154 0
-19 154 0
154 16 20 0
-155 22 23 24 0
-22 155 0
-23 155 0
-24 155 0
155 21 25 0
-151 156 0
-157 0
-158 0
-152 159 0
-156 159 0
-152 -156 160 0
-157 160 0
-152 -157 161 0
-158 161 0
-152 -158 0
-153 162 0
-159 162 0
-153 -159 163 0
-160 163 0
-153 -160 164 0
-161 164 0
-153 -161 0
-154 165 0
-162 165 0
-154 -162 166 0
-163 166 0
-154 -163 167 0
-164 167 0
-154 -164 0
-155 -167 0
-171 2 3 4 5 0
-2 171 0
-3 171 0
-4 171 0
-5 171 0
171 1 0
-172 7 8 9 10 0
-7 172 0
-8 172 0
-9 172 0
-10 172 0
172 6 0
-173 12 13 14 15 0
-12 173 0
-13 173 0
-14 173 0
-15 173 0
173 11 0
-174 17 18 19 20 0
-17 174 0
-18 174 0
-19 174 0
-20 174 0
174 16 0
-175 22 23 24 25 0
-22 175 0
-23 175 0
-24 175 0
-25 175 0
175 21 0
-171 176 0
-177 0
-178 0
-179 0
-172 180 0
-176 180 0
-172 -176 181 0
-177 181 0
-172 -177 182 0
-178 182 0
-172 -178 183 0
-179 183 0
-172 -179 0
-173 184 0
-180 184 0
-173 -180 185 0
-181 185 0
-173 -181 186 0
-182 186 0
-173 -182 187 0
-183 187 0
-173 -183 0
-174 188 0
-184 188 0
-174 -184 189 0
-185 189 0
-174 -185 190 0
-186 190 0
-174 -186 191 0
-187 191 0
-174 -187 0
-175 -191 0
-196 3 0
-3 196 0
196 1 2 4 5 0
-197 8 0
-8 197 0
197 6 7 9 10 0
-198 13 0
-13 198 0
198 11 12 14 15 0
-199 18 0
-18 199 0
199 16 17 19 20 0
-200 23 0
-23 200 0
200 21 22 24 25 0
-196 201 0
-197 202 0
-201 202 0
-197 -201 0
-198 203 0
-202 203 0
-198 -202 0
-199 204 0
-203 204 0
-199 -203 0
-200 -204 0
-206 3 4 0
-3 206 0
-4 206 0
206 1 2 5 0
-207 8 9 0
-8 207 0
-9 207 0
207 6 7 10 0
-208 13 14 0
-13 208 0
-14 208 0
208 11 12 15 0
-209 18 19 0
-18 209 0
-19 209 0
209 16 17 20 0
-210 23 24 0
-23 210 0
-24 210 0
210 21 22 25 0
-206 211 0
-212 0
-207 213 0
-211 213 0
-207 -211 214 0
-212 214 0
-207 -212 0
-208 215 0
-213 215 0
-208 -213 216 0
-214 216 0
-208 -214 0
-209 217 0
-215 217 0
-209 -215 218 0
-216 218 0
-209 -216 0
-210 -218 0
-221 3 4 5 0
-3 221 0
-4 221 0
-5 221 0
221 1 2 0
-222 8 9 10 0
-8 222 0
-9 222 0
-10 222 0
222 6 7 0
-223 13 14 15 0
-13 223 0
-14 223 0
-15 223 0
223 11 12 0
-224 18 19 20 0
-18 224 0
-19 224 0
-20 224 0
224 16 17 0
-225 23 24 25 0
-23 225 0
-24 225 0
-25 225 0
225 21 22 0
-221 226 0
-227 0
-228 0
-222 229 0
-226 229 0
-222 -226 230 0
-227 230 0
-222 -227 231 0
-228 231 0
-222 -228 0
-223 232 0
-229 232 0
-223 -229 233 0
-230 233 0
-223 -230 234 0
-231 234 0
-223 -231 0
-224 235 0
-232 235 0
-224 -232 236 0
-233 236 0
-224 -233 237 0
-234 237 0
-224 -234 0
-225 -237 0
-241 4 0
-4 241 0
241 1 2 3 5 0
-242 9 0
-9 242 0
242 6 7 8 10 0
-243 14 0
-14 243 0
243 11 12 13 15 0
-244 19 0
-19 244 0
244 16 17 18 20 0
-245 24 0
-24 245 0
245 21 22 23 25 0
-241 246 0
-242 247 0
-246 247 0
-242 -246 0
-243 248 0
-247 248 0
-243 -247 0
-244 249 0
-248 249 0
-244 -248 0
-245 -249 0
-251 4 5 0
-4 251 0
-5 251 0
251 1 2 3 0
-252 9 10 0
-9 252 0
-10 252 0
252 6 7 8 0
-253 14 15 0
-14 253 0
-15 253 0
253 11 12 13 0
-254 19 20 0
-19 254 0
-20 254 0
254 16 17 18 0
-255 24 25 0
-24 255 0
-25 255 0
255 21 22 23 0
-251 256 0
-257 0
-252 258 0
-256 258 0
-252 -256 259 0
-257 259 0
-252 -257 0
-253 260 0
-258 260 0
-253 -258 261 0
-259 261 0
-253 -259 0
-254 262 0
-260 262 0
-254 -260 263 0
-261 263 0
-254 -261 0
-255 -263 0
-266 5 0
-5 266 0
266 1 2 3 4 0
-267 10 0
-10 267 0
267 6 7 8 9 0
-268 15 0
-15 268 0
268 11 12 13 14 0
-269 20 0
-20 269 0
269 16 17 18 19 0
-270 25 0
-25 270 0
270 21 22 23 24 0
-266 271 0
-267 272 0
-271 272 0
-267 -271 0
-268 273 0
-272 273 0
-268 -272 0
-269 274 0
-273 274 0
-269 -273 0
-270 -274 0
