p cnf 3938 8632
-1 126 0
-2 127 0
-126 127 0
-2 -126 0
-3 128 0
-127 128 0
-3 -127 0
-4 129 0
-128 129 0
-4 -128 0
-5 -129 0
1 2 3 4 5 0
-6 131 0
-7 132 0
-131 132 0
-7 -131 0
-8 133 0
-132 133 0
-8 -132 0
-9 134 0
-133 134 0
-9 -133 0
-10 -134 0
6 7 8 9 10 0
-11 136 0
-12 137 0
-136 137 0
-12 -136 0
-13 138 0
-137 138 0
-13 -137 0
-14 139 0
-138 139 0
-14 -138 0
-15 -139 0
11 12 13 14 15 0
-16 141 0
-17 142 0
-141 142 0
-17 -141 0
-18 143 0
-142 143 0
-18 -142 0
-19 144 0
-143 144 0
-19 -143 0
-20 -144 0
16 17 18 19 20 0
-21 146 0
-22 147 0
-146 147 0
-22 -146 0
-23 148 0
-147 148 0
-23 -147 0
-24 149 0
-148 149 0
-24 -148 0
-25 -149 0
21 22 23 24 25 0
-26 151 0
-27 152 0
-151 152 0
-27 -151 0
-28 153 0
-152 153 0
-28 -152 0
-29 154 0
-153 154 0
-29 -153 0
-30 -154 0
26 27 28 29 30 0
-31 156 0
-32 157 0
-156 157 0
-32 -156 0
-33 158 0
-157 158 0
-33 -157 0
-34 159 0
-158 159 0
-34 -158 0
-35 -159 0
31 32 33 34 35 0
-36 161 0
-37 162 0
-161 162 0
-37 -161 0
-38 163 0
-162 163 0
-38 -162 0
-39 164 0
-163 164 0
-39 -163 0
-40 -164 0
36 37 38 39 40 0
-41 166 0
-42 167 0
-166 167 0
-42 -166 0
-43 168 0
-167 168 0
-43 -167 0
-44 169 0
-168 169 0
-44 -168 0
-45 -169 0
41 42 43 44 45 0
-46 171 0
-47 172 0
-171 172 0
-47 -171 0
-48 173 0
-172 173 0
-48 -172 0
-49 174 0
-173 174 0
-49 -173 0
-50 -174 0
46 47 48 49 50 0
-51 176 0
-52 177 0
-176 177 0
-52 -176 0
-53 178 0
-177 178 0
-53 -177 0
-54 179 0
-178 179 0
-54 -178 0
-55 -179 0
51 52 53 54 55 0
-56 181 0
-57 182 0
-181 182 0
-57 -181 0
-58 183 0
-182 183 0
-58 -182 0
-59 184 0
-183 184 0
-59 -183 0
-60 -184 0
56 57 58 59 60 0
-61 186 0
-62 187 0
-186 187 0
-62 -186 0
-63 188 0
-187 188 0
-63 -187 0
-64 189 0
-188 189 0
-64 -188 0
-65 -189 0
61 62 63 64 65 0
-66 191 0
-67 192 0
-191 192 0
-67 -191 0
-68 193 0
-192 193 0
-68 -192 0
-69 194 0
-193 194 0
-69 -193 0
-70 -194 0
66 67 68 69 70 0
-71 196 0
-72 197 0
-196 197 0
-72 -196 0
-73 198 0
-197 198 0
-73 -197 0
-74 199 0
-198 199 0
-74 -198 0
-75 -199 0
71 72 73 74 75 0
-76 201 0
-77 202 0
-201 202 0
-77 -201 0
-78 203 0
-202 203 0
-78 -202 0
-79 204 0
-203 204 0
-79 -203 0
-80 -204 0
76 77 78 79 80 0
-81 206 0
-82 207 0
-206 207 0
-82 -206 0
-83 208 0
-207 208 0
-83 -207 0
-84 209 0
-208 209 0
-84 -208 0
-85 -209 0
81 82 83 84 85 0
-86 211 0
-87 212 0
-211 212 0
-87 -211 0
-88 213 0
-212 213 0
-88 -212 0
-89 214 0
-213 214 0
-89 -213 0
-90 -214 0
86 87 88 89 90 0
-91 216 0
-92 217 0
-216 217 0
-92 -216 0
-93 218 0
-217 218 0
-93 -217 0
-94 219 0
-218 219 0
-94 -218 0
-95 -219 0
91 92 93 94 95 0
-96 221 0
-97 222 0
-221 222 0
-97 -221 0
-98 223 0
-222 223 0
-98 -222 0
-99 224 0
-223 224 0
-99 -223 0
-100 -224 0
96 97 98 99 100 0
-101 226 0
-102 227 0
-226 227 0
-102 -226 0
-103 228 0
-227 228 0
-103 -227 0
-104 229 0
-228 229 0
-104 -228 0
-105 -229 0
101 102 103 104 105 0
-106 231 0
-107 232 0
-231 232 0
-107 -231 0
-108 233 0
-232 233 0
-108 -232 0
-109 234 0
-233 234 0
-109 -233 0
-110 -234 0
106 107 108 109 110 0
-111 236 0
-112 237 0
-236 237 0
-112 -236 0
-113 238 0
-237 238 0
-113 -237 0
-114 239 0
-238 239 0
-114 -238 0
-115 -239 0
111 112 113 114 115 0
-116 241 0
-117 242 0
-241 242 0
-117 -241 0
-118 243 0
-242 243 0
-118 -242 0
-119 244 0
-243 244 0
-119 -243 0
-120 -244 0
116 117 118 119 120 0
-121 246 0
-122 247 0
-246 247 0
-122 -246 0
-123 248 0
-247 248 0
-123 -247 0
-124 249 0
-248 249 0
-124 -248 0
-125 -249 0
121 122 123 124 125 0
-251 1 0
-1 251 0
-252 6 0
-6 252 0
-253 11 0
-11 253 0
-254 16 0
-16 254 0
-255 21 0
-21 255 0
-251 256 0
-252 257 0
-256 257 0
-252 -256 0
-253 258 0
-257 258 0
-253 -257 0
-254 259 0
-258 259 0
-254 -258 0
-255 -259 0
-261 1 2 0
-1 261 0
-2 261 0
-262 6 7 0
-6 262 0
-7 262 0
-263 11 12 0
-11 263 0
-12 263 0
-264 16 17 0
-16 264 0
-17 264 0
-265 21 22 0
-21 265 0
-22 265 0
-261 266 0
-267 0
-262 268 0
-266 268 0
-262 -266 269 0
-267 269 0
-262 -267 0
-263 270 0
-268 270 0
-263 -268 271 0
-269 271 0
-263 -269 0
-264 272 0
-270 272 0
-264 -270 273 0
-271 273 0
-264 -271 0
-265 -273 0
-276 1 2 3 0
-1 276 0
-2 276 0
-3 276 0
-277 6 7 8 0
-6 277 0
-7 277 0
-8 277 0
-278 11 12 13 0
-11 278 0
-12 278 0
-13 278 0
-279 16 17 18 0
-16 279 0
-17 279 0
-18 279 0
-280 21 22 23 0
-21 280 0
-22 280 0
-23 280 0
-276 281 0
-282 0
-283 0
-277 284 0
-281 284 0
-277 -281 285 0
-282 285 0
-277 -282 286 0
-283 286 0
-277 -283 0
-278 287 0
-284 287 0
-278 -284 288 0
-285 288 0
-278 -285 289 0
-286 289 0
-278 -286 0
-279 290 0
-287 290 0
-279 -287 291 0
-288 291 0
-279 -288 292 0
-289 292 0
-279 -289 0
-280 -292 0
-296 1 2 3 4 0
-1 296 0
-2 296 0
-3 296 0
-4 296 0
-297 6 7 8 9 0
-6 297 0
-7 297 0
-8 297 0
-9 297 0
-298 11 12 13 14 0
-11 298 0
-12 298 0
-13 298 0
-14 298 0
-299 16 17 18 19 0
-16 299 0
-17 299 0
-18 299 0
-19 299 0
-300 21 22 23 24 0
-21 300 0
-22 300 0
-23 300 0
-24 300 0
-296 301 0
-302 0
-303 0
-304 0
-297 305 0
-301 305 0
-297 -301 306 0
-302 306 0
-297 -302 307 0
-303 307 0
-297 -303 308 0
-304 308 0
-297 -304 0
-298 309 0
-305 309 0
-298 -305 310 0
-306 310 0
-298 -306 311 0
-307 311 0
-298 -307 312 0
-308 312 0
-298 -308 0
-299 313 0
-309 313 0
-299 -309 314 0
-310 314 0
-299 -310 315 0
-311 315 0
-299 -311 316 0
-312 316 0
-299 -312 0
-300 -316 0
-321 1 2 3 4 5 0
-1 321 0
-2 321 0
-3 321 0
-4 321 0
-5 321 0
-322 6 7 8 9 10 0
-6 322 0
-7 322 0
-8 322 0
-9 322 0
-10 322 0
-323 11 12 13 14 15 0
-11 323 0
-12 323 0
-13 323 0
-14 323 0
-15 323 0
-324 16 17 18 19 20 0
-16 324 0
-17 324 0
-18 324 0
-19 324 0
-20 324 0
-325 21 22 23 24 25 0
-21 325 0
-22 325 0
-23 325 0
-24 325 0
-25 325 0
-326 2 0
-2 326 0
-327 7 0
-7 327 0
-328 12 0
-12 328 0
-329 17 0
-17 329 0
-330 22 0
-22 330 0
-326 331 0
-327 332 0
-331 332 0
-327 -331 0
-328 333 0
-332 333 0
-328 -332 0
-329 334 0
-333 334 0
-329 -333 0
-330 -334 0
-336 2 3 0
-2 336 0
-3 336 0
-337 7 8 0
-7 337 0
-8 337 0
-338 12 13 0
-12 338 0
-13 338 0
-339 17 18 0
-17 339 0
-18 339 0
-340 22 23 0
-22 340 0
-23 340 0
-336 341 0
-342 0
-337 343 0
-341 343 0
-337 -341 344 0
-342 344 0
-337 -342 0
-338 345 0
-343 345 0
-338 -343 346 0
-344 346 0
-338 -344 0
-339 347 0
-345 347 0
-339 -345 348 0
-346 348 0
-339 -346 0
-340 -348 0
-351 2 3 4 0
-2 351 0
-3 351 0
-4 351 0
-352 7 8 9 0
-7 352 0
-8 352 0
-9 352 0
-353 12 13 14 0
-12 353 0
-13 353 0
-14 353 0
-354 17 18 19 0
-17 354 0
-18 354 0
-19 354 0
-355 22 23 24 0
-22 355 0
-23 355 0
-24 355 0
-351 356 0
-357 0
-358 0
-352 359 0
-356 359 0
-352 -356 360 0
-357 360 0
-352 -357 361 0
-358 361 0
-352 -358 0
-353 362 0
-359 362 0
-353 -359 363 0
-360 363 0
-353 -360 364 0
-361 364 0
-353 -361 0
-354 365 0
-362 365 0
-354 -362 366 0
-363 366 0
-354 -363 367 0
-364 367 0
-354 -364 0
-355 -367 0
-371 2 3 4 5 0
-2 371 0
-3 371 0
-4 371 0
-5 371 0
-372 7 8 9 10 0
-7 372 0
-8 372 0
-9 372 0
-10 372 0
-373 12 13 14 15 0
-12 373 0
-13 373 0
-14 373 0
-15 373 0
-374 17 18 19 20 0
-17 374 0
-18 374 0
-19 374 0
-20 374 0
-375 22 23 24 25 0
-22 375 0
-23 375 0
-24 375 0
-25 375 0
-371 376 0
-377 0
-378 0
-379 0
-372 380 0
-376 380 0
-372 -376 381 0
-377 381 0
-372 -377 382 0
-378 382 0
-372 -378 383 0
-379 383 0
-372 -379 0
-373 384 0
-380 384 0
-373 -380 385 0
-381 385 0
-373 -381 386 0
-382 386 0
-373 -382 387 0
-383 387 0
-373 -383 0
-374 388 0
-384 388 0
-374 -384 389 0
-385 389 0
-374 -385 390 0
-386 390 0
-374 -386 391 0
-387 391 0
-374 -387 0
-375 -391 0
-396 3 0
-3 396 0
-397 8 0
-8 397 0
-398 13 0
-13 398 0
-399 18 0
-18 399 0
-400 23 0
-23 400 0
-396 401 0
-397 402 0
-401 402 0
-397 -401 0
-398 403 0
-402 403 0
-398 -402 0
-399 404 0
-403 404 0
-399 -403 0
-400 -404 0
-406 3 4 0
-3 406 0
-4 406 0
-407 8 9 0
-8 407 0
-9 407 0
-408 13 14 0
-13 408 0
-14 408 0
-409 18 19 0
-18 409 0
-19 409 0
-410 23 24 0
-23 410 0
-24 410 0
-406 411 0
-412 0
-407 413 0
-411 413 0
-407 -411 414 0
-412 414 0
-407 -412 0
-408 415 0
-413 415 0
-408 -413 416 0
-414 416 0
-408 -414 0
-409 417 0
-415 417 0
-409 -415 418 0
-416 418 0
-409 -416 0
-410 -418 0
-421 3 4 5 0
-3 421 0
-4 421 0
-5 421 0
-422 8 9 10 0
-8 422 0
-9 422 0
-10 422 0
-423 13 14 15 0
-13 423 0
-14 423 0
-15 423 0
-424 18 19 20 0
-18 424 0
-19 424 0
-20 424 0
-425 23 24 25 0
-23 425 0
-24 425 0
-25 425 0
-421 426 0
-427 0
-428 0
-422 429 0
-426 429 0
-422 -426 430 0
-427 430 0
-422 -427 431 0
-428 431 0
-422 -428 0
-423 432 0
-429 432 0
-423 -429 433 0
-430 433 0
-423 -430 434 0
-431 434 0
-423 -431 0
-424 435 0
-432 435 0
-424 -432 436 0
-433 436 0
-424 -433 437 0
-434 437 0
-424 -434 0
-425 -437 0
-441 4 0
-4 441 0
-442 9 0
-9 442 0
-443 14 0
-14 443 0
-444 19 0
-19 444 0
-445 24 0
-24 445 0
-441 446 0
-442 447 0
-446 447 0
-442 -446 0
-443 448 0
-447 448 0
-443 -447 0
-444 449 0
-448 449 0
-444 -448 0
-445 -449 0
-451 4 5 0
-4 451 0
-5 451 0
-452 9 10 0
-9 452 0
-10 452 0
-453 14 15 0
-14 453 0
-15 453 0
-454 19 20 0
-19 454 0
-20 454 0
-455 24 25 0
-24 455 0
-25 455 0
-451 456 0
-457 0
-452 458 0
-456 458 0
-452 -456 459 0
-457 459 0
-452 -457 0
-453 460 0
-458 460 0
-453 -458 461 0
-459 461 0
-453 -459 0
-454 462 0
-460 462 0
-454 -460 463 0
-461 463 0
-454 -461 0
-455 -463 0
-466 5 0
-5 466 0
-467 10 0
-10 467 0
-468 15 0
-15 468 0
-469 20 0
-20 469 0
-470 25 0
-25 470 0
-466 471 0
-467 472 0
-471 472 0
-467 -471 0
-468 473 0
-472 473 0
-468 -472 0
-469 474 0
-473 474 0
-469 -473 0
-470 -474 0
-476 26 0
-26 476 0
-477 31 0
-31 477 0
-478 36 0
-36 478 0
-479 41 0
-41 479 0
-480 46 0
-46 480 0
-476 481 0
-477 482 0
-481 482 0
-477 -481 0
-478 483 0
-482 483 0
-478 -482 0
-479 484 0
-483 484 0
-479 -483 0
-480 -484 0
-486 26 27 0
-26 486 0
-27 486 0
-487 31 32 0
-31 487 0
-32 487 0
-488 36 37 0
-36 488 0
-37 488 0
-489 41 42 0
-41 489 0
-42 489 0
-490 46 47 0
-46 490 0
-47 490 0
-486 491 0
-492 0
-487 493 0
-491 493 0
-487 -491 494 0
-492 494 0
-487 -492 0
-488 495 0
-493 495 0
-488 -493 496 0
-494 496 0
-488 -494 0
-489 497 0
-495 497 0
-489 -495 498 0
-496 498 0
-489 -496 0
-490 -498 0
-501 26 27 28 0
-26 501 0
-27 501 0
-28 501 0
-502 31 32 33 0
-31 502 0
-32 502 0
-33 502 0
-503 36 37 38 0
-36 503 0
-37 503 0
-38 503 0
-504 41 42 43 0
-41 504 0
-42 504 0
-43 504 0
-505 46 47 48 0
-46 505 0
-47 505 0
-48 505 0
-501 506 0
-507 0
-508 0
-502 509 0
-506 509 0
-502 -506 510 0
-507 510 0
-502 -507 511 0
-508 511 0
-502 -508 0
-503 512 0
-509 512 0
-503 -509 513 0
-510 513 0
-503 -510 514 0
-511 514 0
-503 -511 0
-504 515 0
-512 515 0
-504 -512 516 0
-513 516 0
-504 -513 517 0
-514 517 0
-504 -514 0
-505 -517 0
-521 26 27 28 29 0
-26 521 0
-27 521 0
-28 521 0
-29 521 0
-522 31 32 33 34 0
-31 522 0
-32 522 0
-33 522 0
-34 522 0
-523 36 37 38 39 0
-36 523 0
-37 523 0
-38 523 0
-39 523 0
-524 41 42 43 44 0
-41 524 0
-42 524 0
-43 524 0
-44 524 0
-525 46 47 48 49 0
-46 525 0
-47 525 0
-48 525 0
-49 525 0
-521 526 0
-527 0
-528 0
-529 0
-522 530 0
-526 530 0
-522 -526 531 0
-527 531 0
-522 -527 532 0
-528 532 0
-522 -528 533 0
-529 533 0
-522 -529 0
-523 534 0
-530 534 0
-523 -530 535 0
-531 535 0
-523 -531 536 0
-532 536 0
-523 -532 537 0
-533 537 0
-523 -533 0
-524 538 0
-534 538 0
-524 -534 539 0
-535 539 0
-524 -535 540 0
-536 540 0
-524 -536 541 0
-537 541 0
-524 -537 0
-525 -541 0
-546 26 27 28 29 30 0
-26 546 0
-27 546 0
-28 546 0
-29 546 0
-30 546 0
-547 31 32 33 34 35 0
-31 547 0
-32 547 0
-33 547 0
-34 547 0
-35 547 0
-548 36 37 38 39 40 0
-36 548 0
-37 548 0
-38 548 0
-39 548 0
-40 548 0
-549 41 42 43 44 45 0
-41 549 0
-42 549 0
-43 549 0
-44 549 0
-45 549 0
-550 46 47 48 49 50 0
-46 550 0
-47 550 0
-48 550 0
-49 550 0
-50 550 0
-551 27 0
-27 551 0
-552 32 0
-32 552 0
-553 37 0
-37 553 0
-554 42 0
-42 554 0
-555 47 0
-47 555 0
-551 556 0
-552 557 0
-556 557 0
-552 -556 0
-553 558 0
-557 558 0
-553 -557 0
-554 559 0
-558 559 0
-554 -558 0
-555 -559 0
-561 27 28 0
-27 561 0
-28 561 0
-562 32 33 0
-32 562 0
-33 562 0
-563 37 38 0
-37 563 0
-38 563 0
-564 42 43 0
-42 564 0
-43 564 0
-565 47 48 0
-47 565 0
-48 565 0
-561 566 0
-567 0
-562 568 0
-566 568 0
-562 -566 569 0
-567 569 0
-562 -567 0
-563 570 0
-568 570 0
-563 -568 571 0
-569 571 0
-563 -569 0
-564 572 0
-570 572 0
-564 -570 573 0
-571 573 0
-564 -571 0
-565 -573 0
-576 27 28 29 0
-27 576 0
-28 576 0
-29 576 0
-577 32 33 34 0
-32 577 0
-33 577 0
-34 577 0
-578 37 38 39 0
-37 578 0
-38 578 0
-39 578 0
-579 42 43 44 0
-42 579 0
-43 579 0
-44 579 0
-580 47 48 49 0
-47 580 0
-48 580 0
-49 580 0
-576 581 0
-582 0
-583 0
-577 584 0
-581 584 0
-577 -581 585 0
-582 585 0
-577 -582 586 0
-583 586 0
-577 -583 0
-578 587 0
-584 587 0
-578 -584 588 0
-585 588 0
-578 -585 589 0
-586 589 0
-578 -586 0
-579 590 0
-587 590 0
-579 -587 591 0
-588 591 0
-579 -588 592 0
-589 592 0
-579 -589 0
-580 -592 0
-596 27 28 29 30 0
-27 596 0
-28 596 0
-29 596 0
-30 596 0
-597 32 33 34 35 0
-32 597 0
-33 597 0
-34 597 0
-35 597 0
-598 37 38 39 40 0
-37 598 0
-38 598 0
-39 598 0
-40 598 0
-599 42 43 44 45 0
-42 599 0
-43 599 0
-44 599 0
-45 599 0
-600 47 48 49 50 0
-47 600 0
-48 600 0
-49 600 0
-50 600 0
-596 601 0
-602 0
-603 0
-604 0
-597 605 0
-601 605 0
-597 -601 606 0
-602 606 0
-597 -602 607 0
-603 607 0
-597 -603 608 0
-604 608 0
-597 -604 0
-598 609 0
-605 609 0
-598 -605 610 0
-606 610 0
-598 -606 611 0
-607 611 0
-598 -607 612 0
-608 612 0
-598 -608 0
-599 613 0
-609 613 0
-599 -609 614 0
-610 614 0
-599 -610 615 0
-611 615 0
-599 -611 616 0
-612 616 0
-599 -612 0
-600 -616 0
-621 28 0
-28 621 0
-622 33 0
-33 622 0
-623 38 0
-38 623 0
-624 43 0
-43 624 0
-625 48 0
-48 625 0
-621 626 0
-622 627 0
-626 627 0
-622 -626 0
-623 628 0
-627 628 0
-623 -627 0
-624 629 0
-628 629 0
-624 -628 0
-625 -629 0
-631 28 29 0
-28 631 0
-29 631 0
-632 33 34 0
-33 632 0
-34 632 0
-633 38 39 0
-38 633 0
-39 633 0
-634 43 44 0
-43 634 0
-44 634 0
-635 48 49 0
-48 635 0
-49 635 0
-631 636 0
-637 0
-632 638 0
-636 638 0
-632 -636 639 0
-637 639 0
-632 -637 0
-633 640 0
-638 640 0
-633 -638 641 0
-639 641 0
-633 -639 0
-634 642 0
-640 642 0
-634 -640 643 0
-641 643 0
-634 -641 0
-635 -643 0
-646 28 29 30 0
-28 646 0
-29 646 0
-30 646 0
-647 33 34 35 0
-33 647 0
-34 647 0
-35 647 0
-648 38 39 40 0
-38 648 0
-39 648 0
-40 648 0
-649 43 44 45 0
-43 649 0
-44 649 0
-45 649 0
-650 48 49 50 0
-48 650 0
-49 650 0
-50 650 0
-646 651 0
-652 0
-653 0
-647 654 0
-651 654 0
-647 -651 655 0
-652 655 0
-647 -652 656 0
-653 656 0
-647 -653 0
-648 657 0
-654 657 0
-648 -654 658 0
-655 658 0
-648 -655 659 0
-656 659 0
-648 -656 0
-649 660 0
-657 660 0
-649 -657 661 0
-658 661 0
-649 -658 662 0
-659 662 0
-649 -659 0
-650 -662 0
-666 29 0
-29 666 0
-667 34 0
-34 667 0
-668 39 0
-39 668 0
-669 44 0
-44 669 0
-670 49 0
-49 670 0
-666 671 0
-667 672 0
-671 672 0
-667 -671 0
-668 673 0
-672 673 0
-668 -672 0
-669 674 0
-673 674 0
-669 -673 0
-670 -674 0
-676 29 30 0
-29 676 0
-30 676 0
-677 34 35 0
-34 677 0
-35 677 0
-678 39 40 0
-39 678 0
-40 678 0
-679 44 45 0
-44 679 0
-45 679 0
-680 49 50 0
-49 680 0
-50 680 0
-676 681 0
-682 0
-677 683 0
-681 683 0
-677 -681 684 0
-682 684 0
-677 -682 0
-678 685 0
-683 685 0
-678 -683 686 0
-684 686 0
-678 -684 0
-679 687 0
-685 687 0
-679 -685 688 0
-686 688 0
-679 -686 0
-680 -688 0
-691 30 0
-30 691 0
-692 35 0
-35 692 0
-693 40 0
-40 693 0
-694 45 0
-45 694 0
-695 50 0
-50 695 0
-691 696 0
-692 697 0
-696 697 0
-692 -696 0
-693 698 0
-697 698 0
-693 -697 0
-694 699 0
-698 699 0
-694 -698 0
-695 -699 0
-701 51 0
-51 701 0
-702 56 0
-56 702 0
-703 61 0
-61 703 0
-704 66 0
-66 704 0
-705 71 0
-71 705 0
-701 706 0
-702 707 0
-706 707 0
-702 -706 0
-703 708 0
-707 708 0
-703 -707 0
-704 709 0
-708 709 0
-704 -708 0
-705 -709 0
-711 51 52 0
-51 711 0
-52 711 0
-712 56 57 0
-56 712 0
-57 712 0
-713 61 62 0
-61 713 0
-62 713 0
-714 66 67 0
-66 714 0
-67 714 0
-715 71 72 0
-71 715 0
-72 715 0
-711 716 0
-717 0
-712 718 0
-716 718 0
-712 -716 719 0
-717 719 0
-712 -717 0
-713 720 0
-718 720 0
-713 -718 721 0
-719 721 0
-713 -719 0
-714 722 0
-720 722 0
-714 -720 723 0
-721 723 0
-714 -721 0
-715 -723 0
-726 51 52 53 0
-51 726 0
-52 726 0
-53 726 0
-727 56 57 58 0
-56 727 0
-57 727 0
-58 727 0
-728 61 62 63 0
-61 728 0
-62 728 0
-63 728 0
-729 66 67 68 0
-66 729 0
-67 729 0
-68 729 0
-730 71 72 73 0
-71 730 0
-72 730 0
-73 730 0
-726 731 0
-732 0
-733 0
-727 734 0
-731 734 0
-727 -731 735 0
-732 735 0
-727 -732 736 0
-733 736 0
-727 -733 0
-728 737 0
-734 737 0
-728 -734 738 0
-735 738 0
-728 -735 739 0
-736 739 0
-728 -736 0
-729 740 0
-737 740 0
-729 -737 741 0
-738 741 0
-729 -738 742 0
-739 742 0
-729 -739 0
-730 -742 0
-746 51 52 53 54 0
-51 746 0
-52 746 0
-53 746 0
-54 746 0
-747 56 57 58 59 0
-56 747 0
-57 747 0
-58 747 0
-59 747 0
-748 61 62 63 64 0
-61 748 0
-62 748 0
-63 748 0
-64 748 0
-749 66 67 68 69 0
-66 749 0
-67 749 0
-68 749 0
-69 749 0
-750 71 72 73 74 0
-71 750 0
-72 750 0
-73 750 0
-74 750 0
-746 751 0
-752 0
-753 0
-754 0
-747 755 0
-751 755 0
-747 -751 756 0
-752 756 0
-747 -752 757 0
-753 757 0
-747 -753 758 0
-754 758 0
-747 -754 0
-748 759 0
-755 759 0
-748 -755 760 0
-756 760 0
-748 -756 761 0
-757 761 0
-748 -757 762 0
-758 762 0
-748 -758 0
-749 763 0
-759 763 0
-749 -759 764 0
-760 764 0
-749 -760 765 0
-761 765 0
-749 -761 766 0
-762 766 0
-749 -762 0
-750 -766 0
-771 51 52 53 54 55 0
-51 771 0
-52 771 0
-53 771 0
-54 771 0
-55 771 0
-772 56 57 58 59 60 0
-56 772 0
-57 772 0
-58 772 0
-59 772 0
-60 772 0
-773 61 62 63 64 65 0
-61 773 0
-62 773 0
-63 773 0
-64 773 0
-65 773 0
-774 66 67 68 69 70 0
-66 774 0
-67 774 0
-68 774 0
-69 774 0
-70 774 0
-775 71 72 73 74 75 0
-71 775 0
-72 775 0
-73 775 0
-74 775 0
-75 775 0
-776 52 0
-52 776 0
-777 57 0
-57 777 0
-778 62 0
-62 778 0
-779 67 0
-67 779 0
-780 72 0
-72 780 0
-776 781 0
-777 782 0
-781 782 0
-777 -781 0
-778 783 0
-782 783 0
-778 -782 0
-779 784 0
-783 784 0
-779 -783 0
-780 -784 0
-786 52 53 0
-52 786 0
-53 786 0
-787 57 58 0
-57 787 0
-58 787 0
-788 62 63 0
-62 788 0
-63 788 0
-789 67 68 0
-67 789 0
-68 789 0
-790 72 73 0
-72 790 0
-73 790 0
-786 791 0
-792 0
-787 793 0
-791 793 0
-787 -791 794 0
-792 794 0
-787 -792 0
-788 795 0
-793 795 0
-788 -793 796 0
-794 796 0
-788 -794 0
-789 797 0
-795 797 0
-789 -795 798 0
-796 798 0
-789 -796 0
-790 -798 0
-801 52 53 54 0
-52 801 0
-53 801 0
-54 801 0
-802 57 58 59 0
-57 802 0
-58 802 0
-59 802 0
-803 62 63 64 0
-62 803 0
-63 803 0
-64 803 0
-804 67 68 69 0
-67 804 0
-68 804 0
-69 804 0
-805 72 73 74 0
-72 805 0
-73 805 0
-74 805 0
-801 806 0
-807 0
-808 0
-802 809 0
-806 809 0
-802 -806 810 0
-807 810 0
-802 -807 811 0
-808 811 0
-802 -808 0
-803 812 0
-809 812 0
-803 -809 813 0
-810 813 0
-803 -810 814 0
-811 814 0
-803 -811 0
-804 815 0
-812 815 0
-804 -812 816 0
-813 816 0
-804 -813 817 0
-814 817 0
-804 -814 0
-805 -817 0
-821 52 53 54 55 0
-52 821 0
-53 821 0
-54 821 0
-55 821 0
-822 57 58 59 60 0
-57 822 0
-58 822 0
-59 822 0
-60 822 0
-823 62 63 64 65 0
-62 823 0
-63 823 0
-64 823 0
-65 823 0
-824 67 68 69 70 0
-67 824 0
-68 824 0
-69 824 0
-70 824 0
-825 72 73 74 75 0
-72 825 0
-73 825 0
-74 825 0
-75 825 0
-821 826 0
-827 0
-828 0
-829 0
-822 830 0
-826 830 0
-822 -826 831 0
-827 831 0
-822 -827 832 0
-828 832 0
-822 -828 833 0
-829 833 0
-822 -829 0
-823 834 0
-830 834 0
-823 -830 835 0
-831 835 0
-823 -831 836 0
-832 836 0
-823 -832 837 0
-833 837 0
-823 -833 0
-824 838 0
-834 838 0
-824 -834 839 0
-835 839 0
-824 -835 840 0
-836 840 0
-824 -836 841 0
-837 841 0
-824 -837 0
-825 -841 0
-846 53 0
-53 846 0
-847 58 0
-58 847 0
-848 63 0
-63 848 0
-849 68 0
-68 849 0
-850 73 0
-73 850 0
-846 851 0
-847 852 0
-851 852 0
-847 -851 0
-848 853 0
-852 853 0
-848 -852 0
-849 854 0
-853 854 0
-849 -853 0
-850 -854 0
-856 53 54 0
-53 856 0
-54 856 0
-857 58 59 0
-58 857 0
-59 857 0
-858 63 64 0
-63 858 0
-64 858 0
-859 68 69 0
-68 859 0
-69 859 0
-860 73 74 0
-73 860 0
-74 860 0
-856 861 0
-862 0
-857 863 0
-861 863 0
-857 -861 864 0
-862 864 0
-857 -862 0
-858 865 0
-863 865 0
-858 -863 866 0
-864 866 0
-858 -864 0
-859 867 0
-865 867 0
-859 -865 868 0
-866 868 0
-859 -866 0
-860 -868 0
-871 53 54 55 0
-53 871 0
-54 871 0
-55 871 0
-872 58 59 60 0
-58 872 0
-59 872 0
-60 872 0
-873 63 64 65 0
-63 873 0
-64 873 0
-65 873 0
-874 68 69 70 0
-68 874 0
-69 874 0
-70 874 0
-875 73 74 75 0
-73 875 0
-74 875 0
-75 875 0
-871 876 0
-877 0
-878 0
-872 879 0
-876 879 0
-872 -876 880 0
-877 880 0
-872 -877 881 0
-878 881 0
-872 -878 0
-873 882 0
-879 882 0
-873 -879 883 0
-880 883 0
-873 -880 884 0
-881 884 0
-873 -881 0
-874 885 0
-882 885 0
-874 -882 886 0
-883 886 0
-874 -883 887 0
-884 887 0
-874 -884 0
-875 -887 0
-891 54 0
-54 891 0
-892 59 0
-59 892 0
-893 64 0
-64 893 0
-894 69 0
-69 894 0
-895 74 0
-74 895 0
-891 896 0
-892 897 0
-896 897 0
-892 -896 0
-893 898 0
-897 898 0
-893 -897 0
-894 899 0
-898 899 0
-894 -898 0
-895 -899 0
-901 54 55 0
-54 901 0
-55 901 0
-902 59 60 0
-59 902 0
-60 902 0
-903 64 65 0
-64 903 0
-65 903 0
-904 69 70 0
-69 904 0
-70 904 0
-905 74 75 0
-74 905 0
-75 905 0
-901 906 0
-907 0
-902 908 0
-906 908 0
-902 -906 909 0
-907 909 0
-902 -907 0
-903 910 0
-908 910 0
-903 -908 911 0
-909 911 0
-903 -909 0
-904 912 0
-910 912 0
-904 -910 913 0
-911 913 0
-904 -911 0
-905 -913 0
-916 55 0
-55 916 0
-917 60 0
-60 917 0
-918 65 0
-65 918 0
-919 70 0
-70 919 0
-920 75 0
-75 920 0
-916 921 0
-917 922 0
-921 922 0
-917 -921 0
-918 923 0
-922 923 0
-918 -922 0
-919 924 0
-923 924 0
-919 -923 0
-920 -924 0
-926 76 0
-76 926 0
-927 81 0
-81 927 0
-928 86 0
-86 928 0
-929 91 0
-91 929 0
-930 96 0
-96 930 0
-926 931 0
-927 932 0
-931 932 0
-927 -931 0
-928 933 0
-932 933 0
-928 -932 0
-929 934 0
-933 934 0
-929 -933 0
-930 -934 0
-936 76 77 0
-76 936 0
-77 936 0
-937 81 82 0
-81 937 0
-82 937 0
-938 86 87 0
-86 938 0
-87 938 0
-939 91 92 0
-91 939 0
-92 939 0
-940 96 97 0
-96 940 0
-97 940 0
-936 941 0
-942 0
-937 943 0
-941 943 0
-937 -941 944 0
-942 944 0
-937 -942 0
-938 945 0
-943 945 0
-938 -943 946 0
-944 946 0
-938 -944 0
-939 947 0
-945 947 0
-939 -945 948 0
-946 948 0
-939 -946 0
-940 -948 0
-951 76 77 78 0
-76 951 0
-77 951 0
-78 951 0
-952 81 82 83 0
-81 952 0
-82 952 0
-83 952 0
-953 86 87 88 0
-86 953 0
-87 953 0
-88 953 0
-954 91 92 93 0
-91 954 0
-92 954 0
-93 954 0
-955 96 97 98 0
-96 955 0
-97 955 0
-98 955 0
-951 956 0
-957 0
-958 0
-952 959 0
-956 959 0
-952 -956 960 0
-957 960 0
-952 -957 961 0
-958 961 0
-952 -958 0
-953 962 0
-959 962 0
-953 -959 963 0
-960 963 0
-953 -960 964 0
-961 964 0
-953 -961 0
-954 965 0
-962 965 0
-954 -962 966 0
-963 966 0
-954 -963 967 0
-964 967 0
-954 -964 0
-955 -967 0
-971 76 77 78 79 0
-76 971 0
-77 971 0
-78 971 0
-79 971 0
-972 81 82 83 84 0
-81 972 0
-82 972 0
-83 972 0
-84 972 0
-973 86 87 88 89 0
-86 973 0
-87 973 0
-88 973 0
-89 973 0
-974 91 92 93 94 0
-91 974 0
-92 974 0
-93 974 0
-94 974 0
-975 96 97 98 99 0
-96 975 0
-97 975 0
-98 975 0
-99 975 0
-971 976 0
-977 0
-978 0
-979 0
-972 980 0
-976 980 0
-972 -976 981 0
-977 981 0
-972 -977 982 0
-978 982 0
-972 -978 983 0
-979 983 0
-972 -979 0
-973 984 0
-980 984 0
-973 -980 985 0
-981 985 0
-973 -981 986 0
-982 986 0
-973 -982 987 0
-983 987 0
-973 -983 0
-974 988 0
-984 988 0
-974 -984 989 0
-985 989 0
-974 -985 990 0
-986 990 0
-974 -986 991 0
-987 991 0
-974 -987 0
-975 -991 0
-996 76 77 78 79 80 0
-76 996 0
-77 996 0
-78 996 0
-79 996 0
-80 996 0
-997 81 82 83 84 85 0
-81 997 0
-82 997 0
-83 997 0
-84 997 0
-85 997 0
-998 86 87 88 89 90 0
-86 998 0
-87 998 0
-88 998 0
-89 998 0
-90 998 0
-999 91 92 93 94 95 0
-91 999 0
-92 999 0
-93 999 0
-94 999 0
-95 999 0
-1000 96 97 98 99 100 0
-96 1000 0
-97 1000 0
-98 1000 0
-99 1000 0
-100 1000 0
-1001 77 0
-77 1001 0
-1002 82 0
-82 1002 0
-1003 87 0
-87 1003 0
-1004 92 0
-92 1004 0
-1005 97 0
-97 1005 0
-1001 1006 0
-1002 1007 0
-1006 1007 0
-1002 -1006 0
-1003 1008 0
-1007 1008 0
-1003 -1007 0
-1004 1009 0
-1008 1009 0
-1004 -1008 0
-1005 -1009 0
-1011 77 78 0
-77 1011 0
-78 1011 0
-1012 82 83 0
-82 1012 0
-83 1012 0
-1013 87 88 0
-87 1013 0
-88 1013 0
-1014 92 93 0
-92 1014 0
-93 1014 0
-1015 97 98 0
-97 1015 0
-98 1015 0
-1011 1016 0
-1017 0
-1012 1018 0
-1016 1018 0
-1012 -1016 1019 0
-1017 1019 0
-1012 -1017 0
-1013 1020 0
-1018 1020 0
-1013 -1018 1021 0
-1019 1021 0
-1013 -1019 0
-1014 1022 0
-1020 1022 0
-1014 -1020 1023 0
-1021 1023 0
-1014 -1021 0
-1015 -1023 0
-1026 77 78 79 0
-77 1026 0
-78 1026 0
-79 1026 0
-1027 82 83 84 0
-82 1027 0
-83 1027 0
-84 1027 0
-1028 87 88 89 0
-87 1028 0
-88 1028 0
-89 1028 0
-1029 92 93 94 0
-92 1029 0
-93 1029 0
-94 1029 0
-1030 97 98 99 0
-97 1030 0
-98 1030 0
-99 1030 0
-1026 1031 0
-1032 0
-1033 0
-1027 1034 0
-1031 1034 0
-1027 -1031 1035 0
-1032 1035 0
-1027 -1032 1036 0
-1033 1036 0
-1027 -1033 0
-1028 1037 0
-1034 1037 0
-1028 -1034 1038 0
-1035 1038 0
-1028 -1035 1039 0
-1036 1039 0
-1028 -1036 0
-1029 1040 0
-1037 1040 0
-1029 -1037 1041 0
-1038 1041 0
-1029 -1038 1042 0
-1039 1042 0
-1029 -1039 0
-1030 -1042 0
-1046 77 78 79 80 0
-77 1046 0
-78 1046 0
-79 1046 0
-80 1046 0
-1047 82 83 84 85 0
-82 1047 0
-83 1047 0
-84 1047 0
-85 1047 0
-1048 87 88 89 90 0
-87 1048 0
-88 1048 0
-89 1048 0
-90 1048 0
-1049 92 93 94 95 0
-92 1049 0
-93 1049 0
-94 1049 0
-95 1049 0
-1050 97 98 99 100 0
-97 1050 0
-98 1050 0
-99 1050 0
-100 1050 0
-1046 1051 0
-1052 0
-1053 0
-1054 0
-1047 1055 0
-1051 1055 0
-1047 -1051 1056 0
-1052 1056 0
-1047 -1052 1057 0
-1053 1057 0
-1047 -1053 1058 0
-1054 1058 0
-1047 -1054 0
-1048 1059 0
-1055 1059 0
-1048 -1055 1060 0
-1056 1060 0
-1048 -1056 1061 0
-1057 1061 0
-1048 -1057 1062 0
-1058 1062 0
-1048 -1058 0
-1049 1063 0
-1059 1063 0
-1049 -1059 1064 0
-1060 1064 0
-1049 -1060 1065 0
-1061 1065 0
-1049 -1061 1066 0
-1062 1066 0
-1049 -1062 0
-1050 -1066 0
-1071 78 0
-78 1071 0
-1072 83 0
-83 1072 0
-1073 88 0
-88 1073 0
-1074 93 0
-93 1074 0
-1075 98 0
-98 1075 0
-1071 1076 0
-1072 1077 0
-1076 1077 0
-1072 -1076 0
-1073 1078 0
-1077 1078 0
-1073 -1077 0
-1074 1079 0
-1078 1079 0
-1074 -1078 0
-1075 -1079 0
-1081 78 79 0
-78 1081 0
-79 1081 0
-1082 83 84 0
-83 1082 0
-84 1082 0
-1083 88 89 0
-88 1083 0
-89 1083 0
-1084 93 94 0
-93 1084 0
-94 1084 0
-1085 98 99 0
-98 1085 0
-99 1085 0
-1081 1086 0
-1087 0
-1082 1088 0
-1086 1088 0
-1082 -1086 1089 0
-1087 1089 0
-1082 -1087 0
-1083 1090 0
-1088 1090 0
-1083 -1088 1091 0
-1089 1091 0
-1083 -1089 0
-1084 1092 0
-1090 1092 0
-1084 -1090 1093 0
-1091 1093 0
-1084 -1091 0
-1085 -1093 0
-1096 78 79 80 0
-78 1096 0
-79 1096 0
-80 1096 0
-1097 83 84 85 0
-83 1097 0
-84 1097 0
-85 1097 0
-1098 88 89 90 0
-88 1098 0
-89 1098 0
-90 1098 0
-1099 93 94 95 0
-93 1099 0
-94 1099 0
-95 1099 0
-1100 98 99 100 0
-98 1100 0
-99 1100 0
-100 1100 0
-1096 1101 0
-1102 0
-1103 0
-1097 1104 0
-1101 1104 0
-1097 -1101 1105 0
-1102 1105 0
-1097 -1102 1106 0
-1103 1106 0
-1097 -1103 0
-1098 1107 0
-1104 1107 0
-1098 -1104 1108 0
-1105 1108 0
-1098 -1105 1109 0
-1106 1109 0
-1098 -1106 0
-1099 1110 0
-1107 1110 0
-1099 -1107 1111 0
-1108 1111 0
-1099 -1108 1112 0
-1109 1112 0
-1099 -1109 0
-1100 -1112 0
-1116 79 0
-79 1116 0
-1117 84 0
-84 1117 0
-1118 89 0
-89 1118 0
-1119 94 0
-94 1119 0
-1120 99 0
-99 1120 0
-1116 1121 0
-1117 1122 0
-1121 1122 0
-1117 -1121 0
-1118 1123 0
-1122 1123 0
-1118 -1122 0
-1119 1124 0
-1123 1124 0
-1119 -1123 0
-1120 -1124 0
-1126 79 80 0
-79 1126 0
-80 1126 0
-1127 84 85 0
-84 1127 0
-85 1127 0
-1128 89 90 0
-89 1128 0
-90 1128 0
-1129 94 95 0
-94 1129 0
-95 1129 0
-1130 99 100 0
-99 1130 0
-100 1130 0
-1126 1131 0
-1132 0
-1127 1133 0
-1131 1133 0
-1127 -1131 1134 0
-1132 1134 0
-1127 -1132 0
-1128 1135 0
-1133 1135 0
-1128 -1133 1136 0
-1134 1136 0
-1128 -1134 0
-1129 1137 0
-1135 1137 0
-1129 -1135 1138 0
-1136 1138 0
-1129 -1136 0
-1130 -1138 0
-1141 80 0
-80 1141 0
-1142 85 0
-85 1142 0
-1143 90 0
-90 1143 0
-1144 95 0
-95 1144 0
-1145 100 0
-100 1145 0
-1141 1146 0
-1142 1147 0
-1146 1147 0
-1142 -1146 0
-1143 1148 0
-1147 1148 0
-1143 -1147 0
-1144 1149 0
-1148 1149 0
-1144 -1148 0
-1145 -1149 0
-1151 101 0
-101 1151 0
-1152 106 0
-106 1152 0
-1153 111 0
-111 1153 0
-1154 116 0
-116 1154 0
-1155 121 0
-121 1155 0
-1151 1156 0
-1152 1157 0
-1156 1157 0
-1152 -1156 0
-1153 1158 0
-1157 1158 0
-1153 -1157 0
-1154 1159 0
-1158 1159 0
-1154 -1158 0
-1155 -1159 0
-1161 101 102 0
-101 1161 0
-102 1161 0
-1162 106 107 0
-106 1162 0
-107 1162 0
-1163 111 112 0
-111 1163 0
-112 1163 0
-1164 116 117 0
-116 1164 0
-117 1164 0
-1165 121 122 0
-121 1165 0
-122 1165 0
-1161 1166 0
-1167 0
-1162 1168 0
-1166 1168 0
-1162 -1166 1169 0
-1167 1169 0
-1162 -1167 0
-1163 1170 0
-1168 1170 0
-1163 -1168 1171 0
-1169 1171 0
-1163 -1169 0
-1164 1172 0
-1170 1172 0
-1164 -1170 1173 0
-1171 1173 0
-1164 -1171 0
-1165 -1173 0
-1176 101 102 103 0
-101 1176 0
-102 1176 0
-103 1176 0
-1177 106 107 108 0
-106 1177 0
-107 1177 0
-108 1177 0
-1178 111 112 113 0
-111 1178 0
-112 1178 0
-113 1178 0
-1179 116 117 118 0
-116 1179 0
-117 1179 0
-118 1179 0
-1180 121 122 123 0
-121 1180 0
-122 1180 0
-123 1180 0
-1176 1181 0
-1182 0
-1183 0
-1177 1184 0
-1181 1184 0
-1177 -1181 1185 0
-1182 1185 0
-1177 -1182 1186 0
-1183 1186 0
-1177 -1183 0
-1178 1187 0
-1184 1187 0
-1178 -1184 1188 0
-1185 1188 0
-1178 -1185 1189 0
-1186 1189 0
-1178 -1186 0
-1179 1190 0
-1187 1190 0
-1179 -1187 1191 0
-1188 1191 0
-1179 -1188 1192 0
-1189 1192 0
-1179 -1189 0
-1180 -1192 0
-1196 101 102 103 104 0
-101 1196 0
-102 1196 0
-103 1196 0
-104 1196 0
-1197 106 107 108 109 0
-106 1197 0
-107 1197 0
-108 1197 0
-109 1197 0
-1198 111 112 113 114 0
-111 1198 0
-112 1198 0
-113 1198 0
-114 1198 0
-1199 116 117 118 119 0
-116 1199 0
-117 1199 0
-118 1199 0
-119 1199 0
-1200 121 122 123 124 0
-121 1200 0
-122 1200 0
-123 1200 0
-124 1200 0
-1196 1201 0
-1202 0
-1203 0
-1204 0
-1197 1205 0
-1201 1205 0
-1197 -1201 1206 0
-1202 1206 0
-1197 -1202 1207 0
-1203 1207 0
-1197 -1203 1208 0
-1204 1208 0
-1197 -1204 0
-1198 1209 0
-1205 1209 0
-1198 -1205 1210 0
-1206 1210 0
-1198 -1206 1211 0
-1207 1211 0
-1198 -1207 1212 0
-1208 1212 0
-1198 -1208 0
-1199 1213 0
-1209 1213 0
-1199 -1209 1214 0
-1210 1214 0
-1199 -1210 1215 0
-1211 1215 0
-1199 -1211 1216 0
-1212 1216 0
-1199 -1212 0
-1200 -1216 0
-1221 101 102 103 104 105 0
-101 1221 0
-102 1221 0
-103 1221 0
-104 1221 0
-105 1221 0
-1222 106 107 108 109 110 0
-106 1222 0
-107 1222 0
-108 1222 0
-109 1222 0
-110 1222 0
-1223 111 112 113 114 115 0
-111 1223 0
-112 1223 0
-113 1223 0
-114 1223 0
-115 1223 0
-1224 116 117 118 119 120 0
-116 1224 0
-117 1224 0
-118 1224 0
-119 1224 0
-120 1224 0
-1225 121 122 123 124 125 0
-121 1225 0
-122 1225 0
-123 1225 0
-124 1225 0
-125 1225 0
-1226 102 0
-102 1226 0
-1227 107 0
-107 1227 0
-1228 112 0
-112 1228 0
-1229 117 0
-117 1229 0
-1230 122 0
-122 1230 0
-1226 1231 0
-1227 1232 0
-1231 1232 0
-1227 -1231 0
-1228 1233 0
-1232 1233 0
-1228 -1232 0
-1229 1234 0
-1233 1234 0
-1229 -1233 0
-1230 -1234 0
-1236 102 103 0
-102 1236 0
-103 1236 0
-1237 107 108 0
-107 1237 0
-108 1237 0
-1238 112 113 0
-112 1238 0
-113 1238 0
-1239 117 118 0
-117 1239 0
-118 1239 0
-1240 122 123 0
-122 1240 0
-123 1240 0
-1236 1241 0
-1242 0
-1237 1243 0
-1241 1243 0
-1237 -1241 1244 0
-1242 1244 0
-1237 -1242 0
-1238 1245 0
-1243 1245 0
-1238 -1243 1246 0
-1244 1246 0
-1238 -1244 0
-1239 1247 0
-1245 1247 0
-1239 -1245 1248 0
-1246 1248 0
-1239 -1246 0
-1240 -1248 0
-1251 102 103 104 0
-102 1251 0
-103 1251 0
-104 1251 0
-1252 107 108 109 0
-107 1252 0
-108 1252 0
-109 1252 0
-1253 112 113 114 0
-112 1253 0
-113 1253 0
-114 1253 0
-1254 117 118 119 0
-117 1254 0
-118 1254 0
-119 1254 0
-1255 122 123 124 0
-122 1255 0
-123 1255 0
-124 1255 0
-1251 1256 0
-1257 0
-1258 0
-1252 1259 0
-1256 1259 0
-1252 -1256 1260 0
-1257 1260 0
-1252 -1257 1261 0
-1258 1261 0
-1252 -1258 0
-1253 1262 0
-1259 1262 0
-1253 -1259 1263 0
-1260 1263 0
-1253 -1260 1264 0
-1261 1264 0
-1253 -1261 0
-1254 1265 0
-1262 1265 0
-1254 -1262 1266 0
-1263 1266 0
-1254 -1263 1267 0
-1264 1267 0
-1254 -1264 0
-1255 -1267 0
-1271 102 103 104 105 0
-102 1271 0
-103 1271 0
-104 1271 0
-105 1271 0
-1272 107 108 109 110 0
-107 1272 0
-108 1272 0
-109 1272 0
-110 1272 0
-1273 112 113 114 115 0
-112 1273 0
-113 1273 0
-114 1273 0
-115 1273 0
-1274 117 118 119 120 0
-117 1274 0
-118 1274 0
-119 1274 0
-120 1274 0
-1275 122 123 124 125 0
-122 1275 0
-123 1275 0
-124 1275 0
-125 1275 0
-1271 1276 0
-1277 0
-1278 0
-1279 0
-1272 1280 0
-1276 1280 0
-1272 -1276 1281 0
-1277 1281 0
-1272 -1277 1282 0
-1278 1282 0
-1272 -1278 1283 0
-1279 1283 0
-1272 -1279 0
-1273 1284 0
-1280 1284 0
-1273 -1280 1285 0
-1281 1285 0
-1273 -1281 1286 0
-1282 1286 0
-1273 -1282 1287 0
-1283 1287 0
-1273 -1283 0
-1274 1288 0
-1284 1288 0
-1274 -1284 1289 0
-1285 1289 0
-1274 -1285 1290 0
-1286 1290 0
-1274 -1286 1291 0
-1287 1291 0
-1274 -1287 0
-1275 -1291 0
-1296 103 0
-103 1296 0
-1297 108 0
-108 1297 0
-1298 113 0
-113 1298 0
-1299 118 0
-118 1299 0
-1300 123 0
-123 1300 0
-1296 1301 0
-1297 1302 0
-1301 1302 0
-1297 -1301 0
-1298 1303 0
-1302 1303 0
-1298 -1302 0
-1299 1304 0
-1303 1304 0
-1299 -1303 0
-1300 -1304 0
-1306 103 104 0
-103 1306 0
-104 1306 0
-1307 108 109 0
-108 1307 0
-109 1307 0
-1308 113 114 0
-113 1308 0
-114 1308 0
-1309 118 119 0
-118 1309 0
-119 1309 0
-1310 123 124 0
-123 1310 0
-124 1310 0
-1306 1311 0
-1312 0
-1307 1313 0
-1311 1313 0
-1307 -1311 1314 0
-1312 1314 0
-1307 -1312 0
-1308 1315 0
-1313 1315 0
-1308 -1313 1316 0
-1314 1316 0
-1308 -1314 0
-1309 1317 0
-1315 1317 0
-1309 -1315 1318 0
-1316 1318 0
-1309 -1316 0
-1310 -1318 0
-1321 103 104 105 0
-103 1321 0
-104 1321 0
-105 1321 0
-1322 108 109 110 0
-108 1322 0
-109 1322 0
-110 1322 0
-1323 113 114 115 0
-113 1323 0
-114 1323 0
-115 1323 0
-1324 118 119 120 0
-118 1324 0
-119 1324 0
-120 1324 0
-1325 123 124 125 0
-123 1325 0
-124 1325 0
-125 1325 0
-1321 1326 0
-1327 0
-1328 0
-1322 1329 0
-1326 1329 0
-1322 -1326 1330 0
-1327 1330 0
-1322 -1327 1331 0
-1328 1331 0
-1322 -1328 0
-1323 1332 0
-1329 1332 0
-1323 -1329 1333 0
-1330 1333 0
-1323 -1330 1334 0
-1331 1334 0
-1323 -1331 0
-1324 1335 0
-1332 1335 0
-1324 -1332 1336 0
-1333 1336 0
-1324 -1333 1337 0
-1334 1337 0
-1324 -1334 0
-1325 -1337 0
-1341 104 0
-104 1341 0
-1342 109 0
-109 1342 0
-1343 114 0
-114 1343 0
-1344 119 0
-119 1344 0
-1345 124 0
-124 1345 0
-1341 1346 0
-1342 1347 0
-1346 1347 0
-1342 -1346 0
-1343 1348 0
-1347 1348 0
-1343 -1347 0
-1344 1349 0
-1348 1349 0
-1344 -1348 0
-1345 -1349 0
-1351 104 105 0
-104 1351 0
-105 1351 0
-1352 109 110 0
-109 1352 0
-110 1352 0
-1353 114 115 0
-114 1353 0
-115 1353 0
-1354 119 120 0
-119 1354 0
-120 1354 0
-1355 124 125 0
-124 1355 0
-125 1355 0
-1351 1356 0
-1357 0
-1352 1358 0
-1356 1358 0
-1352 -1356 1359 0
-1357 1359 0
-1352 -1357 0
-1353 1360 0
-1358 1360 0
-1353 -1358 1361 0
-1359 1361 0
-1353 -1359 0
-1354 1362 0
-1360 1362 0
-1354 -1360 1363 0
-1361 1363 0
-1354 -1361 0
-1355 -1363 0
-1366 105 0
-105 1366 0
-1367 110 0
-110 1367 0
-1368 115 0
-115 1368 0
-1369 120 0
-120 1369 0
-1370 125 0
-125 1370 0
-1366 1371 0
-1367 1372 0
-1371 1372 0
-1367 -1371 0
-1368 1373 0
-1372 1373 0
-1368 -1372 0
-1369 1374 0
-1373 1374 0
-1369 -1373 0
-1370 -1374 0
-1376 1 0
-1 1376 0
-1377 26 0
-26 1377 0
-1378 51 0
-51 1378 0
-1379 76 0
-76 1379 0
-1380 101 0
-101 1380 0
-1376 1381 0
-1377 1382 0
-1381 1382 0
-1377 -1381 0
-1378 1383 0
-1382 1383 0
-1378 -1382 0
-1379 1384 0
-1383 1384 0
-1379 -1383 0
-1380 -1384 0
-1386 1 2 0
-1 1386 0
-2 1386 0
-1387 26 27 0
-26 1387 0
-27 1387 0
-1388 51 52 0
-51 1388 0
-52 1388 0
-1389 76 77 0
-76 1389 0
-77 1389 0
-1390 101 102 0
-101 1390 0
-102 1390 0
-1386 1391 0
-1392 0
-1387 1393 0
-1391 1393 0
-1387 -1391 1394 0
-1392 1394 0
-1387 -1392 0
-1388 1395 0
-1393 1395 0
-1388 -1393 1396 0
-1394 1396 0
-1388 -1394 0
-1389 1397 0
-1395 1397 0
-1389 -1395 1398 0
-1396 1398 0
-1389 -1396 0
-1390 -1398 0
-1401 1 2 3 0
-1 1401 0
-2 1401 0
-3 1401 0
-1402 26 27 28 0
-26 1402 0
-27 1402 0
-28 1402 0
-1403 51 52 53 0
-51 1403 0
-52 1403 0
-53 1403 0
-1404 76 77 78 0
-76 1404 0
-77 1404 0
-78 1404 0
-1405 101 102 103 0
-101 1405 0
-102 1405 0
-103 1405 0
-1401 1406 0
-1407 0
-1408 0
-1402 1409 0
-1406 1409 0
-1402 -1406 1410 0
-1407 1410 0
-1402 -1407 1411 0
-1408 1411 0
-1402 -1408 0
-1403 1412 0
-1409 1412 0
-1403 -1409 1413 0
-1410 1413 0
-1403 -1410 1414 0
-1411 1414 0
-1403 -1411 0
-1404 1415 0
-1412 1415 0
-1404 -1412 1416 0
-1413 1416 0
-1404 -1413 1417 0
-1414 1417 0
-1404 -1414 0
-1405 -1417 0
-1421 1 2 3 4 0
-1 1421 0
-2 1421 0
-3 1421 0
-4 1421 0
-1422 26 27 28 29 0
-26 1422 0
-27 1422 0
-28 1422 0
-29 1422 0
-1423 51 52 53 54 0
-51 1423 0
-52 1423 0
-53 1423 0
-54 1423 0
-1424 76 77 78 79 0
-76 1424 0
-77 1424 0
-78 1424 0
-79 1424 0
-1425 101 102 103 104 0
-101 1425 0
-102 1425 0
-103 1425 0
-104 1425 0
-1421 1426 0
-1427 0
-1428 0
-1429 0
-1422 1430 0
-1426 1430 0
-1422 -1426 1431 0
-1427 1431 0
-1422 -1427 1432 0
-1428 1432 0
-1422 -1428 1433 0
-1429 1433 0
-1422 -1429 0
-1423 1434 0
-1430 1434 0
-1423 -1430 1435 0
-1431 1435 0
-1423 -1431 1436 0
-1432 1436 0
-1423 -1432 1437 0
-1433 1437 0
-1423 -1433 0
-1424 1438 0
-1434 1438 0
-1424 -1434 1439 0
-1435 1439 0
-1424 -1435 1440 0
-1436 1440 0
-1424 -1436 1441 0
-1437 1441 0
-1424 -1437 0
-1425 -1441 0
-1446 1 2 3 4 5 0
-1 1446 0
-2 1446 0
-3 1446 0
-4 1446 0
-5 1446 0
-1447 26 27 28 29 30 0
-26 1447 0
-27 1447 0
-28 1447 0
-29 1447 0
-30 1447 0
-1448 51 52 53 54 55 0
-51 1448 0
-52 1448 0
-53 1448 0
-54 1448 0
-55 1448 0
-1449 76 77 78 79 80 0
-76 1449 0
-77 1449 0
-78 1449 0
-79 1449 0
-80 1449 0
-1450 101 102 103 104 105 0
-101 1450 0
-102 1450 0
-103 1450 0
-104 1450 0
-105 1450 0
-1451 2 0
-2 1451 0
-1452 27 0
-27 1452 0
-1453 52 0
-52 1453 0
-1454 77 0
-77 1454 0
-1455 102 0
-102 1455 0
-1451 1456 0
-1452 1457 0
-1456 1457 0
-1452 -1456 0
-1453 1458 0
-1457 1458 0
-1453 -1457 0
-1454 1459 0
-1458 1459 0
-1454 -1458 0
-1455 -1459 0
-1461 2 3 0
-2 1461 0
-3 1461 0
-1462 27 28 0
-27 1462 0
-28 1462 0
-1463 52 53 0
-52 1463 0
-53 1463 0
-1464 77 78 0
-77 1464 0
-78 1464 0
-1465 102 103 0
-102 1465 0
-103 1465 0
-1461 1466 0
-1467 0
-1462 1468 0
-1466 1468 0
-1462 -1466 1469 0
-1467 1469 0
-1462 -1467 0
-1463 1470 0
-1468 1470 0
-1463 -1468 1471 0
-1469 1471 0
-1463 -1469 0
-1464 1472 0
-1470 1472 0
-1464 -1470 1473 0
-1471 1473 0
-1464 -1471 0
-1465 -1473 0
-1476 2 3 4 0
-2 1476 0
-3 1476 0
-4 1476 0
-1477 27 28 29 0
-27 1477 0
-28 1477 0
-29 1477 0
-1478 52 53 54 0
-52 1478 0
-53 1478 0
-54 1478 0
-1479 77 78 79 0
-77 1479 0
-78 1479 0
-79 1479 0
-1480 102 103 104 0
-102 1480 0
-103 1480 0
-104 1480 0
-1476 1481 0
-1482 0
-1483 0
-1477 1484 0
-1481 1484 0
-1477 -1481 1485 0
-1482 1485 0
-1477 -1482 1486 0
-1483 1486 0
-1477 -1483 0
-1478 1487 0
-1484 1487 0
-1478 -1484 1488 0
-1485 1488 0
-1478 -1485 1489 0
-1486 1489 0
-1478 -1486 0
-1479 1490 0
-1487 1490 0
-1479 -1487 1491 0
-1488 1491 0
-1479 -1488 1492 0
-1489 1492 0
-1479 -1489 0
-1480 -1492 0
-1496 2 3 4 5 0
-2 1496 0
-3 1496 0
-4 1496 0
-5 1496 0
-1497 27 28 29 30 0
-27 1497 0
-28 1497 0
-29 1497 0
-30 1497 0
-1498 52 53 54 55 0
-52 1498 0
-53 1498 0
-54 1498 0
-55 1498 0
-1499 77 78 79 80 0
-77 1499 0
-78 1499 0
-79 1499 0
-80 1499 0
-1500 102 103 104 105 0
-102 1500 0
-103 1500 0
-104 1500 0
-105 1500 0
-1496 1501 0
-1502 0
-1503 0
-1504 0
-1497 1505 0
-1501 1505 0
-1497 -1501 1506 0
-1502 1506 0
-1497 -1502 1507 0
-1503 1507 0
-1497 -1503 1508 0
-1504 1508 0
-1497 -1504 0
-1498 1509 0
-1505 1509 0
-1498 -1505 1510 0
-1506 1510 0
-1498 -1506 1511 0
-1507 1511 0
-1498 -1507 1512 0
-1508 1512 0
-1498 -1508 0
-1499 1513 0
-1509 1513 0
-1499 -1509 1514 0
-1510 1514 0
-1499 -1510 1515 0
-1511 1515 0
-1499 -1511 1516 0
-1512 1516 0
-1499 -1512 0
-1500 -1516 0
-1521 3 0
-3 1521 0
-1522 28 0
-28 1522 0
-1523 53 0
-53 1523 0
-1524 78 0
-78 1524 0
-1525 103 0
-103 1525 0
-1521 1526 0
-1522 1527 0
-1526 1527 0
-1522 -1526 0
-1523 1528 0
-1527 1528 0
-1523 -1527 0
-1524 1529 0
-1528 1529 0
-1524 -1528 0
-1525 -1529 0
-1531 3 4 0
-3 1531 0
-4 1531 0
-1532 28 29 0
-28 1532 0
-29 1532 0
-1533 53 54 0
-53 1533 0
-54 1533 0
-1534 78 79 0
-78 1534 0
-79 1534 0
-1535 103 104 0
-103 1535 0
-104 1535 0
-1531 1536 0
-1537 0
-1532 1538 0
-1536 1538 0
-1532 -1536 1539 0
-1537 1539 0
-1532 -1537 0
-1533 1540 0
-1538 1540 0
-1533 -1538 1541 0
-1539 1541 0
-1533 -1539 0
-1534 1542 0
-1540 1542 0
-1534 -1540 1543 0
-1541 1543 0
-1534 -1541 0
-1535 -1543 0
-1546 3 4 5 0
-3 1546 0
-4 1546 0
-5 1546 0
-1547 28 29 30 0
-28 1547 0
-29 1547 0
-30 1547 0
-1548 53 54 55 0
-53 1548 0
-54 1548 0
-55 1548 0
-1549 78 79 80 0
-78 1549 0
-79 1549 0
-80 1549 0
-1550 103 104 105 0
-103 1550 0
-104 1550 0
-105 1550 0
-1546 1551 0
-1552 0
-1553 0
-1547 1554 0
-1551 1554 0
-1547 -1551 1555 0
-1552 1555 0
-1547 -1552 1556 0
-1553 1556 0
-1547 -1553 0
-1548 1557 0
-1554 1557 0
-1548 -1554 1558 0
-1555 1558 0
-1548 -1555 1559 0
-1556 1559 0
-1548 -1556 0
-1549 1560 0
-1557 1560 0
-1549 -1557 1561 0
-1558 1561 0
-1549 -1558 1562 0
-1559 1562 0
-1549 -1559 0
-1550 -1562 0
-1566 4 0
-4 1566 0
-1567 29 0
-29 1567 0
-1568 54 0
-54 1568 0
-1569 79 0
-79 1569 0
-1570 104 0
-104 1570 0
-1566 1571 0
-1567 1572 0
-1571 1572 0
-1567 -1571 0
-1568 1573 0
-1572 1573 0
-1568 -1572 0
-1569 1574 0
-1573 1574 0
-1569 -1573 0
-1570 -1574 0
-1576 4 5 0
-4 1576 0
-5 1576 0
-1577 29 30 0
-29 1577 0
-30 1577 0
-1578 54 55 0
-54 1578 0
-55 1578 0
-1579 79 80 0
-79 1579 0
-80 1579 0
-1580 104 105 0
-104 1580 0
-105 1580 0
-1576 1581 0
-1582 0
-1577 1583 0
-1581 1583 0
-1577 -1581 1584 0
-1582 1584 0
-1577 -1582 0
-1578 1585 0
-1583 1585 0
-1578 -1583 1586 0
-1584 1586 0
-1578 -1584 0
-1579 1587 0
-1585 1587 0
-1579 -1585 1588 0
-1586 1588 0
-1579 -1586 0
-1580 -1588 0
-1591 5 0
-5 1591 0
-1592 30 0
-30 1592 0
-1593 55 0
-55 1593 0
-1594 80 0
-80 1594 0
-1595 105 0
-105 1595 0
-1591 1596 0
-1592 1597 0
-1596 1597 0
-1592 -1596 0
-1593 1598 0
-1597 1598 0
-1593 -1597 0
-1594 1599 0
-1598 1599 0
-1594 -1598 0
-1595 -1599 0
-1601 6 0
-6 1601 0
-1602 31 0
-31 1602 0
-1603 56 0
-56 1603 0
-1604 81 0
-81 1604 0
-1605 106 0
-106 1605 0
-1601 1606 0
-1602 1607 0
-1606 1607 0
-1602 -1606 0
-1603 1608 0
-1607 1608 0
-1603 -1607 0
-1604 1609 0
-1608 1609 0
-1604 -1608 0
-1605 -1609 0
-1611 6 7 0
-6 1611 0
-7 1611 0
-1612 31 32 0
-31 1612 0
-32 1612 0
-1613 56 57 0
-56 1613 0
-57 1613 0
-1614 81 82 0
-81 1614 0
-82 1614 0
-1615 106 107 0
-106 1615 0
-107 1615 0
-1611 1616 0
-1617 0
-1612 1618 0
-1616 1618 0
-1612 -1616 1619 0
-1617 1619 0
-1612 -1617 0
-1613 1620 0
-1618 1620 0
-1613 -1618 1621 0
-1619 1621 0
-1613 -1619 0
-1614 1622 0
-1620 1622 0
-1614 -1620 1623 0
-1621 1623 0
-1614 -1621 0
-1615 -1623 0
-1626 6 7 8 0
-6 1626 0
-7 1626 0
-8 1626 0
-1627 31 32 33 0
-31 1627 0
-32 1627 0
-33 1627 0
-1628 56 57 58 0
-56 1628 0
-57 1628 0
-58 1628 0
-1629 81 82 83 0
-81 1629 0
-82 1629 0
-83 1629 0
-1630 106 107 108 0
-106 1630 0
-107 1630 0
-108 1630 0
-1626 1631 0
-1632 0
-1633 0
-1627 1634 0
-1631 1634 0
-1627 -1631 1635 0
-1632 1635 0
-1627 -1632 1636 0
-1633 1636 0
-1627 -1633 0
-1628 1637 0
-1634 1637 0
-1628 -1634 1638 0
-1635 1638 0
-1628 -1635 1639 0
-1636 1639 0
-1628 -1636 0
-1629 1640 0
-1637 1640 0
-1629 -1637 1641 0
-1638 1641 0
-1629 -1638 1642 0
-1639 1642 0
-1629 -1639 0
-1630 -1642 0
-1646 6 7 8 9 0
-6 1646 0
-7 1646 0
-8 1646 0
-9 1646 0
-1647 31 32 33 34 0
-31 1647 0
-32 1647 0
-33 1647 0
-34 1647 0
-1648 56 57 58 59 0
-56 1648 0
-57 1648 0
-58 1648 0
-59 1648 0
-1649 81 82 83 84 0
-81 1649 0
-82 1649 0
-83 1649 0
-84 1649 0
-1650 106 107 108 109 0
-106 1650 0
-107 1650 0
-108 1650 0
-109 1650 0
-1646 1651 0
-1652 0
-1653 0
-1654 0
-1647 1655 0
-1651 1655 0
-1647 -1651 1656 0
-1652 1656 0
-1647 -1652 1657 0
-1653 1657 0
-1647 -1653 1658 0
-1654 1658 0
-1647 -1654 0
-1648 1659 0
-1655 1659 0
-1648 -1655 1660 0
-1656 1660 0
-1648 -1656 1661 0
-1657 1661 0
-1648 -1657 1662 0
-1658 1662 0
-1648 -1658 0
-1649 1663 0
-1659 1663 0
-1649 -1659 1664 0
-1660 1664 0
-1649 -1660 1665 0
-1661 1665 0
-1649 -1661 1666 0
-1662 1666 0
-1649 -1662 0
-1650 -1666 0
-1671 6 7 8 9 10 0
-6 1671 0
-7 1671 0
-8 1671 0
-9 1671 0
-10 1671 0
-1672 31 32 33 34 35 0
-31 1672 0
-32 1672 0
-33 1672 0
-34 1672 0
-35 1672 0
-1673 56 57 58 59 60 0
-56 1673 0
-57 1673 0
-58 1673 0
-59 1673 0
-60 1673 0
-1674 81 82 83 84 85 0
-81 1674 0
-82 1674 0
-83 1674 0
-84 1674 0
-85 1674 0
-1675 106 107 108 109 110 0
-106 1675 0
-107 1675 0
-108 1675 0
-109 1675 0
-110 1675 0
-1676 7 0
-7 1676 0
-1677 32 0
-32 1677 0
-1678 57 0
-57 1678 0
-1679 82 0
-82 1679 0
-1680 107 0
-107 1680 0
-1676 1681 0
-1677 1682 0
-1681 1682 0
-1677 -1681 0
-1678 1683 0
-1682 1683 0
-1678 -1682 0
-1679 1684 0
-1683 1684 0
-1679 -1683 0
-1680 -1684 0
-1686 7 8 0
-7 1686 0
-8 1686 0
-1687 32 33 0
-32 1687 0
-33 1687 0
-1688 57 58 0
-57 1688 0
-58 1688 0
-1689 82 83 0
-82 1689 0
-83 1689 0
-1690 107 108 0
-107 1690 0
-108 1690 0
-1686 1691 0
-1692 0
-1687 1693 0
-1691 1693 0
-1687 -1691 1694 0
-1692 1694 0
-1687 -1692 0
-1688 1695 0
-1693 1695 0
-1688 -1693 1696 0
-1694 1696 0
-1688 -1694 0
-1689 1697 0
-1695 1697 0
-1689 -1695 1698 0
-1696 1698 0
-1689 -1696 0
-1690 -1698 0
-1701 7 8 9 0
-7 1701 0
-8 1701 0
-9 1701 0
-1702 32 33 34 0
-32 1702 0
-33 1702 0
-34 1702 0
-1703 57 58 59 0
-57 1703 0
-58 1703 0
-59 1703 0
-1704 82 83 84 0
-82 1704 0
-83 1704 0
-84 1704 0
-1705 107 108 109 0
-107 1705 0
-108 1705 0
-109 1705 0
-1701 1706 0
-1707 0
-1708 0
-1702 1709 0
-1706 1709 0
-1702 -1706 1710 0
-1707 1710 0
-1702 -1707 1711 0
-1708 1711 0
-1702 -1708 0
-1703 1712 0
-1709 1712 0
-1703 -1709 1713 0
-1710 1713 0
-1703 -1710 1714 0
-1711 1714 0
-1703 -1711 0
-1704 1715 0
-1712 1715 0
-1704 -1712 1716 0
-1713 1716 0
-1704 -1713 1717 0
-1714 1717 0
-1704 -1714 0
-1705 -1717 0
-1721 7 8 9 10 0
-7 1721 0
-8 1721 0
-9 1721 0
-10 1721 0
-1722 32 33 34 35 0
-32 1722 0
-33 1722 0
-34 1722 0
-35 1722 0
-1723 57 58 59 60 0
-57 1723 0
-58 1723 0
-59 1723 0
-60 1723 0
-1724 82 83 84 85 0
-82 1724 0
-83 1724 0
-84 1724 0
-85 1724 0
-1725 107 108 109 110 0
-107 1725 0
-108 1725 0
-109 1725 0
-110 1725 0
-1721 1726 0
-1727 0
-1728 0
-1729 0
-1722 1730 0
-1726 1730 0
-1722 -1726 1731 0
-1727 1731 0
-1722 -1727 1732 0
-1728 1732 0
-1722 -1728 1733 0
-1729 1733 0
-1722 -1729 0
-1723 1734 0
-1730 1734 0
-1723 -1730 1735 0
-1731 1735 0
-1723 -1731 1736 0
-1732 1736 0
-1723 -1732 1737 0
-1733 1737 0
-1723 -1733 0
-1724 1738 0
-1734 1738 0
-1724 -1734 1739 0
-1735 1739 0
-1724 -1735 1740 0
-1736 1740 0
-1724 -1736 1741 0
-1737 1741 0
-1724 -1737 0
-1725 -1741 0
-1746 8 0
-8 1746 0
-1747 33 0
-33 1747 0
-1748 58 0
-58 1748 0
-1749 83 0
-83 1749 0
-1750 108 0
-108 1750 0
-1746 1751 0
-1747 1752 0
-1751 1752 0
-1747 -1751 0
-1748 1753 0
-1752 1753 0
-1748 -1752 0
-1749 1754 0
-1753 1754 0
-1749 -1753 0
-1750 -1754 0
-1756 8 9 0
-8 1756 0
-9 1756 0
-1757 33 34 0
-33 1757 0
-34 1757 0
-1758 58 59 0
-58 1758 0
-59 1758 0
-1759 83 84 0
-83 1759 0
-84 1759 0
-1760 108 109 0
-108 1760 0
-109 1760 0
-1756 1761 0
-1762 0
-1757 1763 0
-1761 1763 0
-1757 -1761 1764 0
-1762 1764 0
-1757 -1762 0
-1758 1765 0
-1763 1765 0
-1758 -1763 1766 0
-1764 1766 0
-1758 -1764 0
-1759 1767 0
-1765 1767 0
-1759 -1765 1768 0
-1766 1768 0
-1759 -1766 0
-1760 -1768 0
-1771 8 9 10 0
-8 1771 0
-9 1771 0
-10 1771 0
-1772 33 34 35 0
-33 1772 0
-34 1772 0
-35 1772 0
-1773 58 59 60 0
-58 1773 0
-59 1773 0
-60 1773 0
-1774 83 84 85 0
-83 1774 0
-84 1774 0
-85 1774 0
-1775 108 109 110 0
-108 1775 0
-109 1775 0
-110 1775 0
-1771 1776 0
-1777 0
-1778 0
-1772 1779 0
-1776 1779 0
-1772 -1776 1780 0
-1777 1780 0
-1772 -1777 1781 0
-1778 1781 0
-1772 -1778 0
-1773 1782 0
-1779 1782 0
-1773 -1779 1783 0
-1780 1783 0
-1773 -1780 1784 0
-1781 1784 0
-1773 -1781 0
-1774 1785 0
-1782 1785 0
-1774 -1782 1786 0
-1783 1786 0
-1774 -1783 1787 0
-1784 1787 0
-1774 -1784 0
-1775 -1787 0
-1791 9 0
-9 1791 0
-1792 34 0
-34 1792 0
-1793 59 0
-59 1793 0
-1794 84 0
-84 1794 0
-1795 109 0
-109 1795 0
-1791 1796 0
-1792 1797 0
-1796 1797 0
-1792 -1796 0
-1793 1798 0
-1797 1798 0
-1793 -1797 0
-1794 1799 0
-1798 1799 0
-1794 -1798 0
-1795 -1799 0
-1801 9 10 0
-9 1801 0
-10 1801 0
-1802 34 35 0
-34 1802 0
-35 1802 0
-1803 59 60 0
-59 1803 0
-60 1803 0
-1804 84 85 0
-84 1804 0
-85 1804 0
-1805 109 110 0
-109 1805 0
-110 1805 0
-1801 1806 0
-1807 0
-1802 1808 0
-1806 1808 0
-1802 -1806 1809 0
-1807 1809 0
-1802 -1807 0
-1803 1810 0
-1808 1810 0
-1803 -1808 1811 0
-1809 1811 0
-1803 -1809 0
-1804 1812 0
-1810 1812 0
-1804 -1810 1813 0
-1811 1813 0
-1804 -1811 0
-1805 -1813 0
-1816 10 0
-10 1816 0
-1817 35 0
-35 1817 0
-1818 60 0
-60 1818 0
-1819 85 0
-85 1819 0
-1820 110 0
-110 1820 0
-1816 1821 0
-1817 1822 0
-1821 1822 0
-1817 -1821 0
-1818 1823 0
-1822 1823 0
-1818 -1822 0
-1819 1824 0
-1823 1824 0
-1819 -1823 0
-1820 -1824 0
-1826 11 0
-11 1826 0
-1827 36 0
-36 1827 0
-1828 61 0
-61 1828 0
-1829 86 0
-86 1829 0
-1830 111 0
-111 1830 0
-1826 1831 0
-1827 1832 0
-1831 1832 0
-1827 -1831 0
-1828 1833 0
-1832 1833 0
-1828 -1832 0
-1829 1834 0
-1833 1834 0
-1829 -1833 0
-1830 -1834 0
-1836 11 12 0
-11 1836 0
-12 1836 0
-1837 36 37 0
-36 1837 0
-37 1837 0
-1838 61 62 0
-61 1838 0
-62 1838 0
-1839 86 87 0
-86 1839 0
-87 1839 0
-1840 111 112 0
-111 1840 0
-112 1840 0
-1836 1841 0
-1842 0
-1837 1843 0
-1841 1843 0
-1837 -1841 1844 0
-1842 1844 0
-1837 -1842 0
-1838 1845 0
-1843 1845 0
-1838 -1843 1846 0
-1844 1846 0
-1838 -1844 0
-1839 1847 0
-1845 1847 0
-1839 -1845 1848 0
-1846 1848 0
-1839 -1846 0
-1840 -1848 0
-1851 11 12 13 0
-11 1851 0
-12 1851 0
-13 1851 0
-1852 36 37 38 0
-36 1852 0
-37 1852 0
-38 1852 0
-1853 61 62 63 0
-61 1853 0
-62 1853 0
-63 1853 0
-1854 86 87 88 0
-86 1854 0
-87 1854 0
-88 1854 0
-1855 111 112 113 0
-111 1855 0
-112 1855 0
-113 1855 0
-1851 1856 0
-1857 0
-1858 0
-1852 1859 0
-1856 1859 0
-1852 -1856 1860 0
-1857 1860 0
-1852 -1857 1861 0
-1858 1861 0
-1852 -1858 0
-1853 1862 0
-1859 1862 0
-1853 -1859 1863 0
-1860 1863 0
-1853 -1860 1864 0
-1861 1864 0
-1853 -1861 0
-1854 1865 0
-1862 1865 0
-1854 -1862 1866 0
-1863 1866 0
-1854 -1863 1867 0
-1864 1867 0
-1854 -1864 0
-1855 -1867 0
-1871 11 12 13 14 0
-11 1871 0
-12 1871 0
-13 1871 0
-14 1871 0
-1872 36 37 38 39 0
-36 1872 0
-37 1872 0
-38 1872 0
-39 1872 0
-1873 61 62 63 64 0
-61 1873 0
-62 1873 0
-63 1873 0
-64 1873 0
-1874 86 87 88 89 0
-86 1874 0
-87 1874 0
-88 1874 0
-89 1874 0
-1875 111 112 113 114 0
-111 1875 0
-112 1875 0
-113 1875 0
-114 1875 0
-1871 1876 0
-1877 0
-1878 0
-1879 0
-1872 1880 0
-1876 1880 0
-1872 -1876 1881 0
-1877 1881 0
-1872 -1877 1882 0
-1878 1882 0
-1872 -1878 1883 0
-1879 1883 0
-1872 -1879 0
-1873 1884 0
-1880 1884 0
-1873 -1880 1885 0
-1881 1885 0
-1873 -1881 1886 0
-1882 1886 0
-1873 -1882 1887 0
-1883 1887 0
-1873 -1883 0
-1874 1888 0
-1884 1888 0
-1874 -1884 1889 0
-1885 1889 0
-1874 -1885 1890 0
-1886 1890 0
-1874 -1886 1891 0
-1887 1891 0
-1874 -1887 0
-1875 -1891 0
-1896 11 12 13 14 15 0
-11 1896 0
-12 1896 0
-13 1896 0
-14 1896 0
-15 1896 0
-1897 36 37 38 39 40 0
-36 1897 0
-37 1897 0
-38 1897 0
-39 1897 0
-40 1897 0
-1898 61 62 63 64 65 0
-61 1898 0
-62 1898 0
-63 1898 0
-64 1898 0
-65 1898 0
-1899 86 87 88 89 90 0
-86 1899 0
-87 1899 0
-88 1899 0
-89 1899 0
-90 1899 0
-1900 111 112 113 114 115 0
-111 1900 0
-112 1900 0
-113 1900 0
-114 1900 0
-115 1900 0
-1901 12 0
-12 1901 0
-1902 37 0
-37 1902 0
-1903 62 0
-62 1903 0
-1904 87 0
-87 1904 0
-1905 112 0
-112 1905 0
-1901 1906 0
-1902 1907 0
-1906 1907 0
-1902 -1906 0
-1903 1908 0
-1907 1908 0
-1903 -1907 0
-1904 1909 0
-1908 1909 0
-1904 -1908 0
-1905 -1909 0
-1911 12 13 0
-12 1911 0
-13 1911 0
-1912 37 38 0
-37 1912 0
-38 1912 0
-1913 62 63 0
-62 1913 0
-63 1913 0
-1914 87 88 0
-87 1914 0
-88 1914 0
-1915 112 113 0
-112 1915 0
-113 1915 0
-1911 1916 0
-1917 0
-1912 1918 0
-1916 1918 0
-1912 -1916 1919 0
-1917 1919 0
-1912 -1917 0
-1913 1920 0
-1918 1920 0
-1913 -1918 1921 0
-1919 1921 0
-1913 -1919 0
-1914 1922 0
-1920 1922 0
-1914 -1920 1923 0
-1921 1923 0
-1914 -1921 0
-1915 -1923 0
-1926 12 13 14 0
-12 1926 0
-13 1926 0
-14 1926 0
-1927 37 38 39 0
-37 1927 0
-38 1927 0
-39 1927 0
-1928 62 63 64 0
-62 1928 0
-63 1928 0
-64 1928 0
-1929 87 88 89 0
-87 1929 0
-88 1929 0
-89 1929 0
-1930 112 113 114 0
-112 1930 0
-113 1930 0
-114 1930 0
-1926 1931 0
-1932 0
-1933 0
-1927 1934 0
-1931 1934 0
-1927 -1931 1935 0
-1932 1935 0
-1927 -1932 1936 0
-1933 1936 0
-1927 -1933 0
-1928 1937 0
-1934 1937 0
-1928 -1934 1938 0
-1935 1938 0
-1928 -1935 1939 0
-1936 1939 0
-1928 -1936 0
-1929 1940 0
-1937 1940 0
-1929 -1937 1941 0
-1938 1941 0
-1929 -1938 1942 0
-1939 1942 0
-1929 -1939 0
-1930 -1942 0
-1946 12 13 14 15 0
-12 1946 0
-13 1946 0
-14 1946 0
-15 1946 0
-1947 37 38 39 40 0
-37 1947 0
-38 1947 0
-39 1947 0
-40 1947 0
-1948 62 63 64 65 0
-62 1948 0
-63 1948 0
-64 1948 0
-65 1948 0
-1949 87 88 89 90 0
-87 1949 0
-88 1949 0
-89 1949 0
-90 1949 0
-1950 112 113 114 115 0
-112 1950 0
-113 1950 0
-114 1950 0
-115 1950 0
-1946 1951 0
-1952 0
-1953 0
-1954 0
-1947 1955 0
-1951 1955 0
-1947 -1951 1956 0
-1952 1956 0
-1947 -1952 1957 0
-1953 1957 0
-1947 -1953 1958 0
-1954 1958 0
-1947 -1954 0
-1948 1959 0
-1955 1959 0
-1948 -1955 1960 0
-1956 1960 0
-1948 -1956 1961 0
-1957 1961 0
-1948 -1957 1962 0
-1958 1962 0
-1948 -1958 0
-1949 1963 0
-1959 1963 0
-1949 -1959 1964 0
-1960 1964 0
-1949 -1960 1965 0
-1961 1965 0
-1949 -1961 1966 0
-1962 1966 0
-1949 -1962 0
-1950 -1966 0
-1971 13 0
-13 1971 0
-1972 38 0
-38 1972 0
-1973 63 0
-63 1973 0
-1974 88 0
-88 1974 0
-1975 113 0
-113 1975 0
-1971 1976 0
-1972 1977 0
-1976 1977 0
-1972 -1976 0
-1973 1978 0
-1977 1978 0
-1973 -1977 0
-1974 1979 0
-1978 1979 0
-1974 -1978 0
-1975 -1979 0
-1981 13 14 0
-13 1981 0
-14 1981 0
-1982 38 39 0
-38 1982 0
-39 1982 0
-1983 63 64 0
-63 1983 0
-64 1983 0
-1984 88 89 0
-88 1984 0
-89 1984 0
-1985 113 114 0
-113 1985 0
-114 1985 0
-1981 1986 0
-1987 0
-1982 1988 0
-1986 1988 0
-1982 -1986 1989 0
-1987 1989 0
-1982 -1987 0
-1983 1990 0
-1988 1990 0
-1983 -1988 1991 0
-1989 1991 0
-1983 -1989 0
-1984 1992 0
-1990 1992 0
-1984 -1990 1993 0
-1991 1993 0
-1984 -1991 0
-1985 -1993 0
-1996 13 14 15 0
-13 1996 0
-14 1996 0
-15 1996 0
-1997 38 39 40 0
-38 1997 0
-39 1997 0
-40 1997 0
-1998 63 64 65 0
-63 1998 0
-64 1998 0
-65 1998 0
-1999 88 89 90 0
-88 1999 0
-89 1999 0
-90 1999 0
-2000 113 114 115 0
-113 2000 0
-114 2000 0
-115 2000 0
-1996 2001 0
-2002 0
-2003 0
-1997 2004 0
-2001 2004 0
-1997 -2001 2005 0
-2002 2005 0
-1997 -2002 2006 0
-2003 2006 0
-1997 -2003 0
-1998 2007 0
-2004 2007 0
-1998 -2004 2008 0
-2005 2008 0
-1998 -2005 2009 0
-2006 2009 0
-1998 -2006 0
-1999 2010 0
-2007 2010 0
-1999 -2007 2011 0
-2008 2011 0
-1999 -2008 2012 0
-2009 2012 0
-1999 -2009 0
-2000 -2012 0
-2016 14 0
-14 2016 0
-2017 39 0
-39 2017 0
-2018 64 0
-64 2018 0
-2019 89 0
-89 2019 0
-2020 114 0
-114 2020 0
-2016 2021 0
-2017 2022 0
-2021 2022 0
-2017 -2021 0
-2018 2023 0
-2022 2023 0
-2018 -2022 0
-2019 2024 0
-2023 2024 0
-2019 -2023 0
-2020 -2024 0
-2026 14 15 0
-14 2026 0
-15 2026 0
-2027 39 40 0
-39 2027 0
-40 2027 0
-2028 64 65 0
-64 2028 0
-65 2028 0
-2029 89 90 0
-89 2029 0
-90 2029 0
-2030 114 115 0
-114 2030 0
-115 2030 0
-2026 2031 0
-2032 0
-2027 2033 0
-2031 2033 0
-2027 -2031 2034 0
-2032 2034 0
-2027 -2032 0
-2028 2035 0
-2033 2035 0
-2028 -2033 2036 0
-2034 2036 0
-2028 -2034 0
-2029 2037 0
-2035 2037 0
-2029 -2035 2038 0
-2036 2038 0
-2029 -2036 0
-2030 -2038 0
-2041 15 0
-15 2041 0
-2042 40 0
-40 2042 0
-2043 65 0
-65 2043 0
-2044 90 0
-90 2044 0
-2045 115 0
-115 2045 0
-2041 2046 0
-2042 2047 0
-2046 2047 0
-2042 -2046 0
-2043 2048 0
-2047 2048 0
-2043 -2047 0
-2044 2049 0
-2048 2049 0
-2044 -2048 0
-2045 -2049 0
-2051 16 0
-16 2051 0
-2052 41 0
-41 2052 0
-2053 66 0
-66 2053 0
-2054 91 0
-91 2054 0
-2055 116 0
-116 2055 0
-2051 2056 0
-2052 2057 0
-2056 2057 0
-2052 -2056 0
-2053 2058 0
-2057 2058 0
-2053 -2057 0
-2054 2059 0
-2058 2059 0
-2054 -2058 0
-2055 -2059 0
-2061 16 17 0
-16 2061 0
-17 2061 0
-2062 41 42 0
-41 2062 0
-42 2062 0
-2063 66 67 0
-66 2063 0
-67 2063 0
-2064 91 92 0
-91 2064 0
-92 2064 0
-2065 116 117 0
-116 2065 0
-117 2065 0
-2061 2066 0
-2067 0
-2062 2068 0
-2066 2068 0
-2062 -2066 2069 0
-2067 2069 0
-2062 -2067 0
-2063 2070 0
-2068 2070 0
-2063 -2068 2071 0
-2069 2071 0
-2063 -2069 0
-2064 2072 0
-2070 2072 0
-2064 -2070 2073 0
-2071 2073 0
-2064 -2071 0
-2065 -2073 0
-2076 16 17 18 0
-16 2076 0
-17 2076 0
-18 2076 0
-2077 41 42 43 0
-41 2077 0
-42 2077 0
-43 2077 0
-2078 66 67 68 0
-66 2078 0
-67 2078 0
-68 2078 0
-2079 91 92 93 0
-91 2079 0
-92 2079 0
-93 2079 0
-2080 116 117 118 0
-116 2080 0
-117 2080 0
-118 2080 0
-2076 2081 0
-2082 0
-2083 0
-2077 2084 0
-2081 2084 0
-2077 -2081 2085 0
-2082 2085 0
-2077 -2082 2086 0
-2083 2086 0
-2077 -2083 0
-2078 2087 0
-2084 2087 0
-2078 -2084 2088 0
-2085 2088 0
-2078 -2085 2089 0
-2086 2089 0
-2078 -2086 0
-2079 2090 0
-2087 2090 0
-2079 -2087 2091 0
-2088 2091 0
-2079 -2088 2092 0
-2089 2092 0
-2079 -2089 0
-2080 -2092 0
-2096 16 17 18 19 0
-16 2096 0
-17 2096 0
-18 2096 0
-19 2096 0
-2097 41 42 43 44 0
-41 2097 0
-42 2097 0
-43 2097 0
-44 2097 0
-2098 66 67 68 69 0
-66 2098 0
-67 2098 0
-68 2098 0
-69 2098 0
-2099 91 92 93 94 0
-91 2099 0
-92 2099 0
-93 2099 0
-94 2099 0
-2100 116 117 118 119 0
-116 2100 0
-117 2100 0
-118 2100 0
-119 2100 0
-2096 2101 0
-2102 0
-2103 0
-2104 0
-2097 2105 0
-2101 2105 0
-2097 -2101 2106 0
-2102 2106 0
-2097 -2102 2107 0
-2103 2107 0
-2097 -2103 2108 0
-2104 2108 0
-2097 -2104 0
-2098 2109 0
-2105 2109 0
-2098 -2105 2110 0
-2106 2110 0
-2098 -2106 2111 0
-2107 2111 0
-2098 -2107 2112 0
-2108 2112 0
-2098 -2108 0
-2099 2113 0
-2109 2113 0
-2099 -2109 2114 0
-2110 2114 0
-2099 -2110 2115 0
-2111 2115 0
-2099 -2111 2116 0
-2112 2116 0
-2099 -2112 0
-2100 -2116 0
-2121 16 17 18 19 20 0
-16 2121 0
-17 2121 0
-18 2121 0
-19 2121 0
-20 2121 0
-2122 41 42 43 44 45 0
-41 2122 0
-42 2122 0
-43 2122 0
-44 2122 0
-45 2122 0
-2123 66 67 68 69 70 0
-66 2123 0
-67 2123 0
-68 2123 0
-69 2123 0
-70 2123 0
-2124 91 92 93 94 95 0
-91 2124 0
-92 2124 0
-93 2124 0
-94 2124 0
-95 2124 0
-2125 116 117 118 119 120 0
-116 2125 0
-117 2125 0
-118 2125 0
-119 2125 0
-120 2125 0
-2126 17 0
-17 2126 0
-2127 42 0
-42 2127 0
-2128 67 0
-67 2128 0
-2129 92 0
-92 2129 0
-2130 117 0
-117 2130 0
-2126 2131 0
-2127 2132 0
-2131 2132 0
-2127 -2131 0
-2128 2133 0
-2132 2133 0
-2128 -2132 0
-2129 2134 0
-2133 2134 0
-2129 -2133 0
-2130 -2134 0
-2136 17 18 0
-17 2136 0
-18 2136 0
-2137 42 43 0
-42 2137 0
-43 2137 0
-2138 67 68 0
-67 2138 0
-68 2138 0
-2139 92 93 0
-92 2139 0
-93 2139 0
-2140 117 118 0
-117 2140 0
-118 2140 0
-2136 2141 0
-2142 0
-2137 2143 0
-2141 2143 0
-2137 -2141 2144 0
-2142 2144 0
-2137 -2142 0
-2138 2145 0
-2143 2145 0
-2138 -2143 2146 0
-2144 2146 0
-2138 -2144 0
-2139 2147 0
-2145 2147 0
-2139 -2145 2148 0
-2146 2148 0
-2139 -2146 0
-2140 -2148 0
-2151 17 18 19 0
-17 2151 0
-18 2151 0
-19 2151 0
-2152 42 43 44 0
-42 2152 0
-43 2152 0
-44 2152 0
-2153 67 68 69 0
-67 2153 0
-68 2153 0
-69 2153 0
-2154 92 93 94 0
-92 2154 0
-93 2154 0
-94 2154 0
-2155 117 118 119 0
-117 2155 0
-118 2155 0
-119 2155 0
-2151 2156 0
-2157 0
-2158 0
-2152 2159 0
-2156 2159 0
-2152 -2156 2160 0
-2157 2160 0
-2152 -2157 2161 0
-2158 2161 0
-2152 -2158 0
-2153 2162 0
-2159 2162 0
-2153 -2159 2163 0
-2160 2163 0
-2153 -2160 2164 0
-2161 2164 0
-2153 -2161 0
-2154 2165 0
-2162 2165 0
-2154 -2162 2166 0
-2163 2166 0
-2154 -2163 2167 0
-2164 2167 0
-2154 -2164 0
-2155 -2167 0
-2171 17 18 19 20 0
-17 2171 0
-18 2171 0
-19 2171 0
-20 2171 0
-2172 42 43 44 45 0
-42 2172 0
-43 2172 0
-44 2172 0
-45 2172 0
-2173 67 68 69 70 0
-67 2173 0
-68 2173 0
-69 2173 0
-70 2173 0
-2174 92 93 94 95 0
-92 2174 0
-93 2174 0
-94 2174 0
-95 2174 0
-2175 117 118 119 120 0
-117 2175 0
-118 2175 0
-119 2175 0
-120 2175 0
-2171 2176 0
-2177 0
-2178 0
-2179 0
-2172 2180 0
-2176 2180 0
-2172 -2176 2181 0
-2177 2181 0
-2172 -2177 2182 0
-2178 2182 0
-2172 -2178 2183 0
-2179 2183 0
-2172 -2179 0
-2173 2184 0
-2180 2184 0
-2173 -2180 2185 0
-2181 2185 0
-2173 -2181 2186 0
-2182 2186 0
-2173 -2182 2187 0
-2183 2187 0
-2173 -2183 0
-2174 2188 0
-2184 2188 0
-2174 -2184 2189 0
-2185 2189 0
-2174 -2185 2190 0
-2186 2190 0
-2174 -2186 2191 0
-2187 2191 0
-2174 -2187 0
-2175 -2191 0
-2196 18 0
-18 2196 0
-2197 43 0
-43 2197 0
-2198 68 0
-68 2198 0
-2199 93 0
-93 2199 0
-2200 118 0
-118 2200 0
-2196 2201 0
-2197 2202 0
-2201 2202 0
-2197 -2201 0
-2198 2203 0
-2202 2203 0
-2198 -2202 0
-2199 2204 0
-2203 2204 0
-2199 -2203 0
-2200 -2204 0
-2206 18 19 0
-18 2206 0
-19 2206 0
-2207 43 44 0
-43 2207 0
-44 2207 0
-2208 68 69 0
-68 2208 0
-69 2208 0
-2209 93 94 0
-93 2209 0
-94 2209 0
-2210 118 119 0
-118 2210 0
-119 2210 0
-2206 2211 0
-2212 0
-2207 2213 0
-2211 2213 0
-2207 -2211 2214 0
-2212 2214 0
-2207 -2212 0
-2208 2215 0
-2213 2215 0
-2208 -2213 2216 0
-2214 2216 0
-2208 -2214 0
-2209 2217 0
-2215 2217 0
-2209 -2215 2218 0
-2216 2218 0
-2209 -2216 0
-2210 -2218 0
-2221 18 19 20 0
-18 2221 0
-19 2221 0
-20 2221 0
-2222 43 44 45 0
-43 2222 0
-44 2222 0
-45 2222 0
-2223 68 69 70 0
-68 2223 0
-69 2223 0
-70 2223 0
-2224 93 94 95 0
-93 2224 0
-94 2224 0
-95 2224 0
-2225 118 119 120 0
-118 2225 0
-119 2225 0
-120 2225 0
-2221 2226 0
-2227 0
-2228 0
-2222 2229 0
-2226 2229 0
-2222 -2226 2230 0
-2227 2230 0
-2222 -2227 2231 0
-2228 2231 0
-2222 -2228 0
-2223 2232 0
-2229 2232 0
-2223 -2229 2233 0
-2230 2233 0
-2223 -2230 2234 0
-2231 2234 0
-2223 -2231 0
-2224 2235 0
-2232 2235 0
-2224 -2232 2236 0
-2233 2236 0
-2224 -2233 2237 0
-2234 2237 0
-2224 -2234 0
-2225 -2237 0
-2241 19 0
-19 2241 0
-2242 44 0
-44 2242 0
-2243 69 0
-69 2243 0
-2244 94 0
-94 2244 0
-2245 119 0
-119 2245 0
-2241 2246 0
-2242 2247 0
-2246 2247 0
-2242 -2246 0
-2243 2248 0
-2247 2248 0
-2243 -2247 0
-2244 2249 0
-2248 2249 0
-2244 -2248 0
-2245 -2249 0
-2251 19 20 0
-19 2251 0
-20 2251 0
-2252 44 45 0
-44 2252 0
-45 2252 0
-2253 69 70 0
-69 2253 0
-70 2253 0
-2254 94 95 0
-94 2254 0
-95 2254 0
-2255 119 120 0
-119 2255 0
-120 2255 0
-2251 2256 0
-2257 0
-2252 2258 0
-2256 2258 0
-2252 -2256 2259 0
-2257 2259 0
-2252 -2257 0
-2253 2260 0
-2258 2260 0
-2253 -2258 2261 0
-2259 2261 0
-2253 -2259 0
-2254 2262 0
-2260 2262 0
-2254 -2260 2263 0
-2261 2263 0
-2254 -2261 0
-2255 -2263 0
-2266 20 0
-20 2266 0
-2267 45 0
-45 2267 0
-2268 70 0
-70 2268 0
-2269 95 0
-95 2269 0
-2270 120 0
-120 2270 0
-2266 2271 0
-2267 2272 0
-2271 2272 0
-2267 -2271 0
-2268 2273 0
-2272 2273 0
-2268 -2272 0
-2269 2274 0
-2273 2274 0
-2269 -2273 0
-2270 -2274 0
-2276 21 0
-21 2276 0
-2277 46 0
-46 2277 0
-2278 71 0
-71 2278 0
-2279 96 0
-96 2279 0
-2280 121 0
-121 2280 0
-2276 2281 0
-2277 2282 0
-2281 2282 0
-2277 -2281 0
-2278 2283 0
-2282 2283 0
-2278 -2282 0
-2279 2284 0
-2283 2284 0
-2279 -2283 0
-2280 -2284 0
-2286 21 22 0
-21 2286 0
-22 2286 0
-2287 46 47 0
-46 2287 0
-47 2287 0
-2288 71 72 0
-71 2288 0
-72 2288 0
-2289 96 97 0
-96 2289 0
-97 2289 0
-2290 121 122 0
-121 2290 0
-122 2290 0
-2286 2291 0
-2292 0
-2287 2293 0
-2291 2293 0
-2287 -2291 2294 0
-2292 2294 0
-2287 -2292 0
-2288 2295 0
-2293 2295 0
-2288 -2293 2296 0
-2294 2296 0
-2288 -2294 0
-2289 2297 0
-2295 2297 0
-2289 -2295 2298 0
-2296 2298 0
-2289 -2296 0
-2290 -2298 0
-2301 21 22 23 0
-21 2301 0
-22 2301 0
-23 2301 0
-2302 46 47 48 0
-46 2302 0
-47 2302 0
-48 2302 0
-2303 71 72 73 0
-71 2303 0
-72 2303 0
-73 2303 0
-2304 96 97 98 0
-96 2304 0
-97 2304 0
-98 2304 0
-2305 121 122 123 0
-121 2305 0
-122 2305 0
-123 2305 0
-2301 2306 0
-2307 0
-2308 0
-2302 2309 0
-2306 2309 0
-2302 -2306 2310 0
-2307 2310 0
-2302 -2307 2311 0
-2308 2311 0
-2302 -2308 0
-2303 2312 0
-2309 2312 0
-2303 -2309 2313 0
-2310 2313 0
-2303 -2310 2314 0
-2311 2314 0
-2303 -2311 0
-2304 2315 0
-2312 2315 0
-2304 -2312 2316 0
-2313 2316 0
-2304 -2313 2317 0
-2314 2317 0
-2304 -2314 0
-2305 -2317 0
-2321 21 22 23 24 0
-21 2321 0
-22 2321 0
-23 2321 0
-24 2321 0
-2322 46 47 48 49 0
-46 2322 0
-47 2322 0
-48 2322 0
-49 2322 0
-2323 71 72 73 74 0
-71 2323 0
-72 2323 0
-73 2323 0
-74 2323 0
-2324 96 97 98 99 0
-96 2324 0
-97 2324 0
-98 2324 0
-99 2324 0
-2325 121 122 123 124 0
-121 2325 0
-122 2325 0
-123 2325 0
-124 2325 0
-2321 2326 0
-2327 0
-2328 0
-2329 0
-2322 2330 0
-2326 2330 0
-2322 -2326 2331 0
-2327 2331 0
-2322 -2327 2332 0
-2328 2332 0
-2322 -2328 2333 0
-2329 2333 0
-2322 -2329 0
-2323 2334 0
-2330 2334 0
-2323 -2330 2335 0
-2331 2335 0
-2323 -2331 2336 0
-2332 2336 0
-2323 -2332 2337 0
-2333 2337 0
-2323 -2333 0
-2324 2338 0
-2334 2338 0
-2324 -2334 2339 0
-2335 2339 0
-2324 -2335 2340 0
-2336 2340 0
-2324 -2336 2341 0
-2337 2341 0
-2324 -2337 0
-2325 -2341 0
-2346 21 22 23 24 25 0
-21 2346 0
-22 2346 0
-23 2346 0
-24 2346 0
-25 2346 0
-2347 46 47 48 49 50 0
-46 2347 0
-47 2347 0
-48 2347 0
-49 2347 0
-50 2347 0
-2348 71 72 73 74 75 0
-71 2348 0
-72 2348 0
-73 2348 0
-74 2348 0
-75 2348 0
-2349 96 97 98 99 100 0
-96 2349 0
-97 2349 0
-98 2349 0
-99 2349 0
-100 2349 0
-2350 121 122 123 124 125 0
-121 2350 0
-122 2350 0
-123 2350 0
-124 2350 0
-125 2350 0
-2351 22 0
-22 2351 0
-2352 47 0
-47 2352 0
-2353 72 0
-72 2353 0
-2354 97 0
-97 2354 0
-2355 122 0
-122 2355 0
-2351 2356 0
-2352 2357 0
-2356 2357 0
-2352 -2356 0
-2353 2358 0
-2357 2358 0
-2353 -2357 0
-2354 2359 0
-2358 2359 0
-2354 -2358 0
-2355 -2359 0
-2361 22 23 0
-22 2361 0
-23 2361 0
-2362 47 48 0
-47 2362 0
-48 2362 0
-2363 72 73 0
-72 2363 0
-73 2363 0
-2364 97 98 0
-97 2364 0
-98 2364 0
-2365 122 123 0
-122 2365 0
-123 2365 0
-2361 2366 0
-2367 0
-2362 2368 0
-2366 2368 0
-2362 -2366 2369 0
-2367 2369 0
-2362 -2367 0
-2363 2370 0
-2368 2370 0
-2363 -2368 2371 0
-2369 2371 0
-2363 -2369 0
-2364 2372 0
-2370 2372 0
-2364 -2370 2373 0
-2371 2373 0
-2364 -2371 0
-2365 -2373 0
-2376 22 23 24 0
-22 2376 0
-23 2376 0
-24 2376 0
-2377 47 48 49 0
-47 2377 0
-48 2377 0
-49 2377 0
-2378 72 73 74 0
-72 2378 0
-73 2378 0
-74 2378 0
-2379 97 98 99 0
-97 2379 0
-98 2379 0
-99 2379 0
-2380 122 123 124 0
-122 2380 0
-123 2380 0
-124 2380 0
-2376 2381 0
-2382 0
-2383 0
-2377 2384 0
-2381 2384 0
-2377 -2381 2385 0
-2382 2385 0
-2377 -2382 2386 0
-2383 2386 0
-2377 -2383 0
-2378 2387 0
-2384 2387 0
-2378 -2384 2388 0
-2385 2388 0
-2378 -2385 2389 0
-2386 2389 0
-2378 -2386 0
-2379 2390 0
-2387 2390 0
-2379 -2387 2391 0
-2388 2391 0
-2379 -2388 2392 0
-2389 2392 0
-2379 -2389 0
-2380 -2392 0
-2396 22 23 24 25 0
-22 2396 0
-23 2396 0
-24 2396 0
-25 2396 0
-2397 47 48 49 50 0
-47 2397 0
-48 2397 0
-49 2397 0
-50 2397 0
-2398 72 73 74 75 0
-72 2398 0
-73 2398 0
-74 2398 0
-75 2398 0
-2399 97 98 99 100 0
-97 2399 0
-98 2399 0
-99 2399 0
-100 2399 0
-2400 122 123 124 125 0
-122 2400 0
-123 2400 0
-124 2400 0
-125 2400 0
-2396 2401 0
-2402 0
-2403 0
-2404 0
-2397 2405 0
-2401 2405 0
-2397 -2401 2406 0
-2402 2406 0
-2397 -2402 2407 0
-2403 2407 0
-2397 -2403 2408 0
-2404 2408 0
-2397 -2404 0
-2398 2409 0
-2405 2409 0
-2398 -2405 2410 0
-2406 2410 0
-2398 -2406 2411 0
-2407 2411 0
-2398 -2407 2412 0
-2408 2412 0
-2398 -2408 0
-2399 2413 0
-2409 2413 0
-2399 -2409 2414 0
-2410 2414 0
-2399 -2410 2415 0
-2411 2415 0
-2399 -2411 2416 0
-2412 2416 0
-2399 -2412 0
-2400 -2416 0
-2421 23 0
-23 2421 0
-2422 48 0
-48 2422 0
-2423 73 0
-73 2423 0
-2424 98 0
-98 2424 0
-2425 123 0
-123 2425 0
-2421 2426 0
-2422 2427 0
-2426 2427 0
-2422 -2426 0
-2423 2428 0
-2427 2428 0
-2423 -2427 0
-2424 2429 0
-2428 2429 0
-2424 -2428 0
-2425 -2429 0
-2431 23 24 0
-23 2431 0
-24 2431 0
-2432 48 49 0
-48 2432 0
-49 2432 0
-2433 73 74 0
-73 2433 0
-74 2433 0
-2434 98 99 0
-98 2434 0
-99 2434 0
-2435 123 124 0
-123 2435 0
-124 2435 0
-2431 2436 0
-2437 0
-2432 2438 0
-2436 2438 0
-2432 -2436 2439 0
-2437 2439 0
-2432 -2437 0
-2433 2440 0
-2438 2440 0
-2433 -2438 2441 0
-2439 2441 0
-2433 -2439 0
-2434 2442 0
-2440 2442 0
-2434 -2440 2443 0
-2441 2443 0
-2434 -2441 0
-2435 -2443 0
-2446 23 24 25 0
-23 2446 0
-24 2446 0
-25 2446 0
-2447 48 49 50 0
-48 2447 0
-49 2447 0
-50 2447 0
-2448 73 74 75 0
-73 2448 0
-74 2448 0
-75 2448 0
-2449 98 99 100 0
-98 2449 0
-99 2449 0
-100 2449 0
-2450 123 124 125 0
-123 2450 0
-124 2450 0
-125 2450 0
-2446 2451 0
-2452 0
-2453 0
-2447 2454 0
-2451 2454 0
-2447 -2451 2455 0
-2452 2455 0
-2447 -2452 2456 0
-2453 2456 0
-2447 -2453 0
-2448 2457 0
-2454 2457 0
-2448 -2454 2458 0
-2455 2458 0
-2448 -2455 2459 0
-2456 2459 0
-2448 -2456 0
-2449 2460 0
-2457 2460 0
-2449 -2457 2461 0
-2458 2461 0
-2449 -2458 2462 0
-2459 2462 0
-2449 -2459 0
-2450 -2462 0
-2466 24 0
-24 2466 0
-2467 49 0
-49 2467 0
-2468 74 0
-74 2468 0
-2469 99 0
-99 2469 0
-2470 124 0
-124 2470 0
-2466 2471 0
-2467 2472 0
-2471 2472 0
-2467 -2471 0
-2468 2473 0
-2472 2473 0
-2468 -2472 0
-2469 2474 0
-2473 2474 0
-2469 -2473 0
-2470 -2474 0
-2476 24 25 0
-24 2476 0
-25 2476 0
-2477 49 50 0
-49 2477 0
-50 2477 0
-2478 74 75 0
-74 2478 0
-75 2478 0
-2479 99 100 0
-99 2479 0
-100 2479 0
-2480 124 125 0
-124 2480 0
-125 2480 0
-2476 2481 0
-2482 0
-2477 2483 0
-2481 2483 0
-2477 -2481 2484 0
-2482 2484 0
-2477 -2482 0
-2478 2485 0
-2483 2485 0
-2478 -2483 2486 0
-2484 2486 0
-2478 -2484 0
-2479 2487 0
-2485 2487 0
-2479 -2485 2488 0
-2486 2488 0
-2479 -2486 0
-2480 -2488 0
-2491 25 0
-25 2491 0
-2492 50 0
-50 2492 0
-2493 75 0
-75 2493 0
-2494 100 0
-100 2494 0
-2495 125 0
-125 2495 0
-2491 2496 0
-2492 2497 0
-2496 2497 0
-2492 -2496 0
-2493 2498 0
-2497 2498 0
-2493 -2497 0
-2494 2499 0
-2498 2499 0
-2494 -2498 0
-2495 -2499 0
-2501 16 0
-16 2501 0
-2502 46 0
-46 2502 0
-2501 2503 0
-2502 -2503 0
-2505 16 17 0
-16 2505 0
-17 2505 0
-2506 46 47 0
-46 2506 0
-47 2506 0
-2507 17 0
-17 2507 0
-2508 47 0
-47 2508 0
-2507 2509 0
-2508 -2509 0
-2511 17 18 0
-17 2511 0
-18 2511 0
-2512 47 48 0
-47 2512 0
-48 2512 0
-2513 18 0
-18 2513 0
-2514 48 0
-48 2514 0
-2513 2515 0
-2514 -2515 0
-2517 18 19 0
-18 2517 0
-19 2517 0
-2518 48 49 0
-48 2518 0
-49 2518 0
-2519 19 0
-19 2519 0
-2520 49 0
-49 2520 0
-2519 2521 0
-2520 -2521 0
-2523 19 20 0
-19 2523 0
-20 2523 0
-2524 49 50 0
-49 2524 0
-50 2524 0
-2525 20 0
-20 2525 0
-2526 50 0
-50 2526 0
-2525 2527 0
-2526 -2527 0
-2529 11 0
-11 2529 0
-2530 41 0
-41 2530 0
-2531 71 0
-71 2531 0
-2529 2532 0
-2530 2533 0
-2532 2533 0
-2530 -2532 0
-2531 -2533 0
-2535 11 12 0
-11 2535 0
-12 2535 0
-2536 41 42 0
-41 2536 0
-42 2536 0
-2537 71 72 0
-71 2537 0
-72 2537 0
-2535 2538 0
-2539 0
-2536 2540 0
-2538 2540 0
-2536 -2538 2541 0
-2539 2541 0
-2536 -2539 0
-2537 -2541 0
-2544 11 12 13 0
-11 2544 0
-12 2544 0
-13 2544 0
-2545 41 42 43 0
-41 2545 0
-42 2545 0
-43 2545 0
-2546 71 72 73 0
-71 2546 0
-72 2546 0
-73 2546 0
-2547 12 0
-12 2547 0
-2548 42 0
-42 2548 0
-2549 72 0
-72 2549 0
-2547 2550 0
-2548 2551 0
-2550 2551 0
-2548 -2550 0
-2549 -2551 0
-2553 12 13 0
-12 2553 0
-13 2553 0
-2554 42 43 0
-42 2554 0
-43 2554 0
-2555 72 73 0
-72 2555 0
-73 2555 0
-2553 2556 0
-2557 0
-2554 2558 0
-2556 2558 0
-2554 -2556 2559 0
-2557 2559 0
-2554 -2557 0
-2555 -2559 0
-2562 12 13 14 0
-12 2562 0
-13 2562 0
-14 2562 0
-2563 42 43 44 0
-42 2563 0
-43 2563 0
-44 2563 0
-2564 72 73 74 0
-72 2564 0
-73 2564 0
-74 2564 0
-2565 13 0
-13 2565 0
-2566 43 0
-43 2566 0
-2567 73 0
-73 2567 0
-2565 2568 0
-2566 2569 0
-2568 2569 0
-2566 -2568 0
-2567 -2569 0
-2571 13 14 0
-13 2571 0
-14 2571 0
-2572 43 44 0
-43 2572 0
-44 2572 0
-2573 73 74 0
-73 2573 0
-74 2573 0
-2571 2574 0
-2575 0
-2572 2576 0
-2574 2576 0
-2572 -2574 2577 0
-2575 2577 0
-2572 -2575 0
-2573 -2577 0
-2580 13 14 15 0
-13 2580 0
-14 2580 0
-15 2580 0
-2581 43 44 45 0
-43 2581 0
-44 2581 0
-45 2581 0
-2582 73 74 75 0
-73 2582 0
-74 2582 0
-75 2582 0
-2583 14 0
-14 2583 0
-2584 44 0
-44 2584 0
-2585 74 0
-74 2585 0
-2583 2586 0
-2584 2587 0
-2586 2587 0
-2584 -2586 0
-2585 -2587 0
-2589 14 15 0
-14 2589 0
-15 2589 0
-2590 44 45 0
-44 2590 0
-45 2590 0
-2591 74 75 0
-74 2591 0
-75 2591 0
-2589 2592 0
-2593 0
-2590 2594 0
-2592 2594 0
-2590 -2592 2595 0
-2593 2595 0
-2590 -2593 0
-2591 -2595 0
-2598 15 0
-15 2598 0
-2599 45 0
-45 2599 0
-2600 75 0
-75 2600 0
-2598 2601 0
-2599 2602 0
-2601 2602 0
-2599 -2601 0
-2600 -2602 0
-2604 6 0
-6 2604 0
-2605 36 0
-36 2605 0
-2606 66 0
-66 2606 0
-2607 96 0
-96 2607 0
-2604 2608 0
-2605 2609 0
-2608 2609 0
-2605 -2608 0
-2606 2610 0
-2609 2610 0
-2606 -2609 0
-2607 -2610 0
-2612 6 7 0
-6 2612 0
-7 2612 0
-2613 36 37 0
-36 2613 0
-37 2613 0
-2614 66 67 0
-66 2614 0
-67 2614 0
-2615 96 97 0
-96 2615 0
-97 2615 0
-2612 2616 0
-2617 0
-2613 2618 0
-2616 2618 0
-2613 -2616 2619 0
-2617 2619 0
-2613 -2617 0
-2614 2620 0
-2618 2620 0
-2614 -2618 2621 0
-2619 2621 0
-2614 -2619 0
-2615 -2621 0
-2624 6 7 8 0
-6 2624 0
-7 2624 0
-8 2624 0
-2625 36 37 38 0
-36 2625 0
-37 2625 0
-38 2625 0
-2626 66 67 68 0
-66 2626 0
-67 2626 0
-68 2626 0
-2627 96 97 98 0
-96 2627 0
-97 2627 0
-98 2627 0
-2624 2628 0
-2629 0
-2630 0
-2625 2631 0
-2628 2631 0
-2625 -2628 2632 0
-2629 2632 0
-2625 -2629 2633 0
-2630 2633 0
-2625 -2630 0
-2626 2634 0
-2631 2634 0
-2626 -2631 2635 0
-2632 2635 0
-2626 -2632 2636 0
-2633 2636 0
-2626 -2633 0
-2627 -2636 0
-2640 6 7 8 9 0
-6 2640 0
-7 2640 0
-8 2640 0
-9 2640 0
-2641 36 37 38 39 0
-36 2641 0
-37 2641 0
-38 2641 0
-39 2641 0
-2642 66 67 68 69 0
-66 2642 0
-67 2642 0
-68 2642 0
-69 2642 0
-2643 96 97 98 99 0
-96 2643 0
-97 2643 0
-98 2643 0
-99 2643 0
-2644 7 0
-7 2644 0
-2645 37 0
-37 2645 0
-2646 67 0
-67 2646 0
-2647 97 0
-97 2647 0
-2644 2648 0
-2645 2649 0
-2648 2649 0
-2645 -2648 0
-2646 2650 0
-2649 2650 0
-2646 -2649 0
-2647 -2650 0
-2652 7 8 0
-7 2652 0
-8 2652 0
-2653 37 38 0
-37 2653 0
-38 2653 0
-2654 67 68 0
-67 2654 0
-68 2654 0
-2655 97 98 0
-97 2655 0
-98 2655 0
-2652 2656 0
-2657 0
-2653 2658 0
-2656 2658 0
-2653 -2656 2659 0
-2657 2659 0
-2653 -2657 0
-2654 2660 0
-2658 2660 0
-2654 -2658 2661 0
-2659 2661 0
-2654 -2659 0
-2655 -2661 0
-2664 7 8 9 0
-7 2664 0
-8 2664 0
-9 2664 0
-2665 37 38 39 0
-37 2665 0
-38 2665 0
-39 2665 0
-2666 67 68 69 0
-67 2666 0
-68 2666 0
-69 2666 0
-2667 97 98 99 0
-97 2667 0
-98 2667 0
-99 2667 0
-2664 2668 0
-2669 0
-2670 0
-2665 2671 0
-2668 2671 0
-2665 -2668 2672 0
-2669 2672 0
-2665 -2669 2673 0
-2670 2673 0
-2665 -2670 0
-2666 2674 0
-2671 2674 0
-2666 -2671 2675 0
-2672 2675 0
-2666 -2672 2676 0
-2673 2676 0
-2666 -2673 0
-2667 -2676 0
-2680 7 8 9 10 0
-7 2680 0
-8 2680 0
-9 2680 0
-10 2680 0
-2681 37 38 39 40 0
-37 2681 0
-38 2681 0
-39 2681 0
-40 2681 0
-2682 67 68 69 70 0
-67 2682 0
-68 2682 0
-69 2682 0
-70 2682 0
-2683 97 98 99 100 0
-97 2683 0
-98 2683 0
-99 2683 0
-100 2683 0
-2684 8 0
-8 2684 0
-2685 38 0
-38 2685 0
-2686 68 0
-68 2686 0
-2687 98 0
-98 2687 0
-2684 2688 0
-2685 2689 0
-2688 2689 0
-2685 -2688 0
-2686 2690 0
-2689 2690 0
-2686 -2689 0
-2687 -2690 0
-2692 8 9 0
-8 2692 0
-9 2692 0
-2693 38 39 0
-38 2693 0
-39 2693 0
-2694 68 69 0
-68 2694 0
-69 2694 0
-2695 98 99 0
-98 2695 0
-99 2695 0
-2692 2696 0
-2697 0
-2693 2698 0
-2696 2698 0
-2693 -2696 2699 0
-2697 2699 0
-2693 -2697 0
-2694 2700 0
-2698 2700 0
-2694 -2698 2701 0
-2699 2701 0
-2694 -2699 0
-2695 -2701 0
-2704 8 9 10 0
-8 2704 0
-9 2704 0
-10 2704 0
-2705 38 39 40 0
-38 2705 0
-39 2705 0
-40 2705 0
-2706 68 69 70 0
-68 2706 0
-69 2706 0
-70 2706 0
-2707 98 99 100 0
-98 2707 0
-99 2707 0
-100 2707 0
-2704 2708 0
-2709 0
-2710 0
-2705 2711 0
-2708 2711 0
-2705 -2708 2712 0
-2709 2712 0
-2705 -2709 2713 0
-2710 2713 0
-2705 -2710 0
-2706 2714 0
-2711 2714 0
-2706 -2711 2715 0
-2712 2715 0
-2706 -2712 2716 0
-2713 2716 0
-2706 -2713 0
-2707 -2716 0
-2720 9 0
-9 2720 0
-2721 39 0
-39 2721 0
-2722 69 0
-69 2722 0
-2723 99 0
-99 2723 0
-2720 2724 0
-2721 2725 0
-2724 2725 0
-2721 -2724 0
-2722 2726 0
-2725 2726 0
-2722 -2725 0
-2723 -2726 0
-2728 9 10 0
-9 2728 0
-10 2728 0
-2729 39 40 0
-39 2729 0
-40 2729 0
-2730 69 70 0
-69 2730 0
-70 2730 0
-2731 99 100 0
-99 2731 0
-100 2731 0
-2728 2732 0
-2733 0
-2729 2734 0
-2732 2734 0
-2729 -2732 2735 0
-2733 2735 0
-2729 -2733 0
-2730 2736 0
-2734 2736 0
-2730 -2734 2737 0
-2735 2737 0
-2730 -2735 0
-2731 -2737 0
-2740 10 0
-10 2740 0
-2741 40 0
-40 2741 0
-2742 70 0
-70 2742 0
-2743 100 0
-100 2743 0
-2740 2744 0
-2741 2745 0
-2744 2745 0
-2741 -2744 0
-2742 2746 0
-2745 2746 0
-2742 -2745 0
-2743 -2746 0
-2748 1 0
-1 2748 0
-2749 31 0
-31 2749 0
-2750 61 0
-61 2750 0
-2751 91 0
-91 2751 0
-2752 121 0
-121 2752 0
-2748 2753 0
-2749 2754 0
-2753 2754 0
-2749 -2753 0
-2750 2755 0
-2754 2755 0
-2750 -2754 0
-2751 2756 0
-2755 2756 0
-2751 -2755 0
-2752 -2756 0
-2758 1 2 0
-1 2758 0
-2 2758 0
-2759 31 32 0
-31 2759 0
-32 2759 0
-2760 61 62 0
-61 2760 0
-62 2760 0
-2761 91 92 0
-91 2761 0
-92 2761 0
-2762 121 122 0
-121 2762 0
-122 2762 0
-2758 2763 0
-2764 0
-2759 2765 0
-2763 2765 0
-2759 -2763 2766 0
-2764 2766 0
-2759 -2764 0
-2760 2767 0
-2765 2767 0
-2760 -2765 2768 0
-2766 2768 0
-2760 -2766 0
-2761 2769 0
-2767 2769 0
-2761 -2767 2770 0
-2768 2770 0
-2761 -2768 0
-2762 -2770 0
-2773 1 2 3 0
-1 2773 0
-2 2773 0
-3 2773 0
-2774 31 32 33 0
-31 2774 0
-32 2774 0
-33 2774 0
-2775 61 62 63 0
-61 2775 0
-62 2775 0
-63 2775 0
-2776 91 92 93 0
-91 2776 0
-92 2776 0
-93 2776 0
-2777 121 122 123 0
-121 2777 0
-122 2777 0
-123 2777 0
-2773 2778 0
-2779 0
-2780 0
-2774 2781 0
-2778 2781 0
-2774 -2778 2782 0
-2779 2782 0
-2774 -2779 2783 0
-2780 2783 0
-2774 -2780 0
-2775 2784 0
-2781 2784 0
-2775 -2781 2785 0
-2782 2785 0
-2775 -2782 2786 0
-2783 2786 0
-2775 -2783 0
-2776 2787 0
-2784 2787 0
-2776 -2784 2788 0
-2785 2788 0
-2776 -2785 2789 0
-2786 2789 0
-2776 -2786 0
-2777 -2789 0
-2793 1 2 3 4 0
-1 2793 0
-2 2793 0
-3 2793 0
-4 2793 0
-2794 31 32 33 34 0
-31 2794 0
-32 2794 0
-33 2794 0
-34 2794 0
-2795 61 62 63 64 0
-61 2795 0
-62 2795 0
-63 2795 0
-64 2795 0
-2796 91 92 93 94 0
-91 2796 0
-92 2796 0
-93 2796 0
-94 2796 0
-2797 121 122 123 124 0
-121 2797 0
-122 2797 0
-123 2797 0
-124 2797 0
-2793 2798 0
-2799 0
-2800 0
-2801 0
-2794 2802 0
-2798 2802 0
-2794 -2798 2803 0
-2799 2803 0
-2794 -2799 2804 0
-2800 2804 0
-2794 -2800 2805 0
-2801 2805 0
-2794 -2801 0
-2795 2806 0
-2802 2806 0
-2795 -2802 2807 0
-2803 2807 0
-2795 -2803 2808 0
-2804 2808 0
-2795 -2804 2809 0
-2805 2809 0
-2795 -2805 0
-2796 2810 0
-2806 2810 0
-2796 -2806 2811 0
-2807 2811 0
-2796 -2807 2812 0
-2808 2812 0
-2796 -2808 2813 0
-2809 2813 0
-2796 -2809 0
-2797 -2813 0
-2818 1 2 3 4 5 0
-1 2818 0
-2 2818 0
-3 2818 0
-4 2818 0
-5 2818 0
-2819 31 32 33 34 35 0
-31 2819 0
-32 2819 0
-33 2819 0
-34 2819 0
-35 2819 0
-2820 61 62 63 64 65 0
-61 2820 0
-62 2820 0
-63 2820 0
-64 2820 0
-65 2820 0
-2821 91 92 93 94 95 0
-91 2821 0
-92 2821 0
-93 2821 0
-94 2821 0
-95 2821 0
-2822 121 122 123 124 125 0
-121 2822 0
-122 2822 0
-123 2822 0
-124 2822 0
-125 2822 0
-2823 2 0
-2 2823 0
-2824 32 0
-32 2824 0
-2825 62 0
-62 2825 0
-2826 92 0
-92 2826 0
-2827 122 0
-122 2827 0
-2823 2828 0
-2824 2829 0
-2828 2829 0
-2824 -2828 0
-2825 2830 0
-2829 2830 0
-2825 -2829 0
-2826 2831 0
-2830 2831 0
-2826 -2830 0
-2827 -2831 0
-2833 2 3 0
-2 2833 0
-3 2833 0
-2834 32 33 0
-32 2834 0
-33 2834 0
-2835 62 63 0
-62 2835 0
-63 2835 0
-2836 92 93 0
-92 2836 0
-93 2836 0
-2837 122 123 0
-122 2837 0
-123 2837 0
-2833 2838 0
-2839 0
-2834 2840 0
-2838 2840 0
-2834 -2838 2841 0
-2839 2841 0
-2834 -2839 0
-2835 2842 0
-2840 2842 0
-2835 -2840 2843 0
-2841 2843 0
-2835 -2841 0
-2836 2844 0
-2842 2844 0
-2836 -2842 2845 0
-2843 2845 0
-2836 -2843 0
-2837 -2845 0
-2848 2 3 4 0
-2 2848 0
-3 2848 0
-4 2848 0
-2849 32 33 34 0
-32 2849 0
-33 2849 0
-34 2849 0
-2850 62 63 64 0
-62 2850 0
-63 2850 0
-64 2850 0
-2851 92 93 94 0
-92 2851 0
-93 2851 0
-94 2851 0
-2852 122 123 124 0
-122 2852 0
-123 2852 0
-124 2852 0
-2848 2853 0
-2854 0
-2855 0
-2849 2856 0
-2853 2856 0
-2849 -2853 2857 0
-2854 2857 0
-2849 -2854 2858 0
-2855 2858 0
-2849 -2855 0
-2850 2859 0
-2856 2859 0
-2850 -2856 2860 0
-2857 2860 0
-2850 -2857 2861 0
-2858 2861 0
-2850 -2858 0
-2851 2862 0
-2859 2862 0
-2851 -2859 2863 0
-2860 2863 0
-2851 -2860 2864 0
-2861 2864 0
-2851 -2861 0
-2852 -2864 0
-2868 2 3 4 5 0
-2 2868 0
-3 2868 0
-4 2868 0
-5 2868 0
-2869 32 33 34 35 0
-32 2869 0
-33 2869 0
-34 2869 0
-35 2869 0
-2870 62 63 64 65 0
-62 2870 0
-63 2870 0
-64 2870 0
-65 2870 0
-2871 92 93 94 95 0
-92 2871 0
-93 2871 0
-94 2871 0
-95 2871 0
-2872 122 123 124 125 0
-122 2872 0
-123 2872 0
-124 2872 0
-125 2872 0
-2868 2873 0
-2874 0
-2875 0
-2876 0
-2869 2877 0
-2873 2877 0
-2869 -2873 2878 0
-2874 2878 0
-2869 -2874 2879 0
-2875 2879 0
-2869 -2875 2880 0
-2876 2880 0
-2869 -2876 0
-2870 2881 0
-2877 2881 0
-2870 -2877 2882 0
-2878 2882 0
-2870 -2878 2883 0
-2879 2883 0
-2870 -2879 2884 0
-2880 2884 0
-2870 -2880 0
-2871 2885 0
-2881 2885 0
-2871 -2881 2886 0
-2882 2886 0
-2871 -2882 2887 0
-2883 2887 0
-2871 -2883 2888 0
-2884 2888 0
-2871 -2884 0
-2872 -2888 0
-2893 3 0
-3 2893 0
-2894 33 0
-33 2894 0
-2895 63 0
-63 2895 0
-2896 93 0
-93 2896 0
-2897 123 0
-123 2897 0
-2893 2898 0
-2894 2899 0
-2898 2899 0
-2894 -2898 0
-2895 2900 0
-2899 2900 0
-2895 -2899 0
-2896 2901 0
-2900 2901 0
-2896 -2900 0
-2897 -2901 0
-2903 3 4 0
-3 2903 0
-4 2903 0
-2904 33 34 0
-33 2904 0
-34 2904 0
-2905 63 64 0
-63 2905 0
-64 2905 0
-2906 93 94 0
-93 2906 0
-94 2906 0
-2907 123 124 0
-123 2907 0
-124 2907 0
-2903 2908 0
-2909 0
-2904 2910 0
-2908 2910 0
-2904 -2908 2911 0
-2909 2911 0
-2904 -2909 0
-2905 2912 0
-2910 2912 0
-2905 -2910 2913 0
-2911 2913 0
-2905 -2911 0
-2906 2914 0
-2912 2914 0
-2906 -2912 2915 0
-2913 2915 0
-2906 -2913 0
-2907 -2915 0
-2918 3 4 5 0
-3 2918 0
-4 2918 0
-5 2918 0
-2919 33 34 35 0
-33 2919 0
-34 2919 0
-35 2919 0
-2920 63 64 65 0
-63 2920 0
-64 2920 0
-65 2920 0
-2921 93 94 95 0
-93 2921 0
-94 2921 0
-95 2921 0
-2922 123 124 125 0
-123 2922 0
-124 2922 0
-125 2922 0
-2918 2923 0
-2924 0
-2925 0
-2919 2926 0
-2923 2926 0
-2919 -2923 2927 0
-2924 2927 0
-2919 -2924 2928 0
-2925 2928 0
-2919 -2925 0
-2920 2929 0
-2926 2929 0
-2920 -2926 2930 0
-2927 2930 0
-2920 -2927 2931 0
-2928 2931 0
-2920 -2928 0
-2921 2932 0
-2929 2932 0
-2921 -2929 2933 0
-2930 2933 0
-2921 -2930 2934 0
-2931 2934 0
-2921 -2931 0
-2922 -2934 0
-2938 4 0
-4 2938 0
-2939 34 0
-34 2939 0
-2940 64 0
-64 2940 0
-2941 94 0
-94 2941 0
-2942 124 0
-124 2942 0
-2938 2943 0
-2939 2944 0
-2943 2944 0
-2939 -2943 0
-2940 2945 0
-2944 2945 0
-2940 -2944 0
-2941 2946 0
-2945 2946 0
-2941 -2945 0
-2942 -2946 0
-2948 4 5 0
-4 2948 0
-5 2948 0
-2949 34 35 0
-34 2949 0
-35 2949 0
-2950 64 65 0
-64 2950 0
-65 2950 0
-2951 94 95 0
-94 2951 0
-95 2951 0
-2952 124 125 0
-124 2952 0
-125 2952 0
-2948 2953 0
-2954 0
-2949 2955 0
-2953 2955 0
-2949 -2953 2956 0
-2954 2956 0
-2949 -2954 0
-2950 2957 0
-2955 2957 0
-2950 -2955 2958 0
-2956 2958 0
-2950 -2956 0
-2951 2959 0
-2957 2959 0
-2951 -2957 2960 0
-2958 2960 0
-2951 -2958 0
-2952 -2960 0
-2963 5 0
-5 2963 0
-2964 35 0
-35 2964 0
-2965 65 0
-65 2965 0
-2966 95 0
-95 2966 0
-2967 125 0
-125 2967 0
-2963 2968 0
-2964 2969 0
-2968 2969 0
-2964 -2968 0
-2965 2970 0
-2969 2970 0
-2965 -2969 0
-2966 2971 0
-2970 2971 0
-2966 -2970 0
-2967 -2971 0
-2973 26 0
-26 2973 0
-2974 56 0
-56 2974 0
-2975 86 0
-86 2975 0
-2976 116 0
-116 2976 0
-2973 2977 0
-2974 2978 0
-2977 2978 0
-2974 -2977 0
-2975 2979 0
-2978 2979 0
-2975 -2978 0
-2976 -2979 0
-2981 26 27 0
-26 2981 0
-27 2981 0
-2982 56 57 0
-56 2982 0
-57 2982 0
-2983 86 87 0
-86 2983 0
-87 2983 0
-2984 116 117 0
-116 2984 0
-117 2984 0
-2981 2985 0
-2986 0
-2982 2987 0
-2985 2987 0
-2982 -2985 2988 0
-2986 2988 0
-2982 -2986 0
-2983 2989 0
-2987 2989 0
-2983 -2987 2990 0
-2988 2990 0
-2983 -2988 0
-2984 -2990 0
-2993 26 27 28 0
-26 2993 0
-27 2993 0
-28 2993 0
-2994 56 57 58 0
-56 2994 0
-57 2994 0
-58 2994 0
-2995 86 87 88 0
-86 2995 0
-87 2995 0
-88 2995 0
-2996 116 117 118 0
-116 2996 0
-117 2996 0
-118 2996 0
-2993 2997 0
-2998 0
-2999 0
-2994 3000 0
-2997 3000 0
-2994 -2997 3001 0
-2998 3001 0
-2994 -2998 3002 0
-2999 3002 0
-2994 -2999 0
-2995 3003 0
-3000 3003 0
-2995 -3000 3004 0
-3001 3004 0
-2995 -3001 3005 0
-3002 3005 0
-2995 -3002 0
-2996 -3005 0
-3009 26 27 28 29 0
-26 3009 0
-27 3009 0
-28 3009 0
-29 3009 0
-3010 56 57 58 59 0
-56 3010 0
-57 3010 0
-58 3010 0
-59 3010 0
-3011 86 87 88 89 0
-86 3011 0
-87 3011 0
-88 3011 0
-89 3011 0
-3012 116 117 118 119 0
-116 3012 0
-117 3012 0
-118 3012 0
-119 3012 0
-3013 27 0
-27 3013 0
-3014 57 0
-57 3014 0
-3015 87 0
-87 3015 0
-3016 117 0
-117 3016 0
-3013 3017 0
-3014 3018 0
-3017 3018 0
-3014 -3017 0
-3015 3019 0
-3018 3019 0
-3015 -3018 0
-3016 -3019 0
-3021 27 28 0
-27 3021 0
-28 3021 0
-3022 57 58 0
-57 3022 0
-58 3022 0
-3023 87 88 0
-87 3023 0
-88 3023 0
-3024 117 118 0
-117 3024 0
-118 3024 0
-3021 3025 0
-3026 0
-3022 3027 0
-3025 3027 0
-3022 -3025 3028 0
-3026 3028 0
-3022 -3026 0
-3023 3029 0
-3027 3029 0
-3023 -3027 3030 0
-3028 3030 0
-3023 -3028 0
-3024 -3030 0
-3033 27 28 29 0
-27 3033 0
-28 3033 0
-29 3033 0
-3034 57 58 59 0
-57 3034 0
-58 3034 0
-59 3034 0
-3035 87 88 89 0
-87 3035 0
-88 3035 0
-89 3035 0
-3036 117 118 119 0
-117 3036 0
-118 3036 0
-119 3036 0
-3033 3037 0
-3038 0
-3039 0
-3034 3040 0
-3037 3040 0
-3034 -3037 3041 0
-3038 3041 0
-3034 -3038 3042 0
-3039 3042 0
-3034 -3039 0
-3035 3043 0
-3040 3043 0
-3035 -3040 3044 0
-3041 3044 0
-3035 -3041 3045 0
-3042 3045 0
-3035 -3042 0
-3036 -3045 0
-3049 27 28 29 30 0
-27 3049 0
-28 3049 0
-29 3049 0
-30 3049 0
-3050 57 58 59 60 0
-57 3050 0
-58 3050 0
-59 3050 0
-60 3050 0
-3051 87 88 89 90 0
-87 3051 0
-88 3051 0
-89 3051 0
-90 3051 0
-3052 117 118 119 120 0
-117 3052 0
-118 3052 0
-119 3052 0
-120 3052 0
-3053 28 0
-28 3053 0
-3054 58 0
-58 3054 0
-3055 88 0
-88 3055 0
-3056 118 0
-118 3056 0
-3053 3057 0
-3054 3058 0
-3057 3058 0
-3054 -3057 0
-3055 3059 0
-3058 3059 0
-3055 -3058 0
-3056 -3059 0
-3061 28 29 0
-28 3061 0
-29 3061 0
-3062 58 59 0
-58 3062 0
-59 3062 0
-3063 88 89 0
-88 3063 0
-89 3063 0
-3064 118 119 0
-118 3064 0
-119 3064 0
-3061 3065 0
-3066 0
-3062 3067 0
-3065 3067 0
-3062 -3065 3068 0
-3066 3068 0
-3062 -3066 0
-3063 3069 0
-3067 3069 0
-3063 -3067 3070 0
-3068 3070 0
-3063 -3068 0
-3064 -3070 0
-3073 28 29 30 0
-28 3073 0
-29 3073 0
-30 3073 0
-3074 58 59 60 0
-58 3074 0
-59 3074 0
-60 3074 0
-3075 88 89 90 0
-88 3075 0
-89 3075 0
-90 3075 0
-3076 118 119 120 0
-118 3076 0
-119 3076 0
-120 3076 0
-3073 3077 0
-3078 0
-3079 0
-3074 3080 0
-3077 3080 0
-3074 -3077 3081 0
-3078 3081 0
-3074 -3078 3082 0
-3079 3082 0
-3074 -3079 0
-3075 3083 0
-3080 3083 0
-3075 -3080 3084 0
-3081 3084 0
-3075 -3081 3085 0
-3082 3085 0
-3075 -3082 0
-3076 -3085 0
-3089 29 0
-29 3089 0
-3090 59 0
-59 3090 0
-3091 89 0
-89 3091 0
-3092 119 0
-119 3092 0
-3089 3093 0
-3090 3094 0
-3093 3094 0
-3090 -3093 0
-3091 3095 0
-3094 3095 0
-3091 -3094 0
-3092 -3095 0
-3097 29 30 0
-29 3097 0
-30 3097 0
-3098 59 60 0
-59 3098 0
-60 3098 0
-3099 89 90 0
-89 3099 0
-90 3099 0
-3100 119 120 0
-119 3100 0
-120 3100 0
-3097 3101 0
-3102 0
-3098 3103 0
-3101 3103 0
-3098 -3101 3104 0
-3102 3104 0
-3098 -3102 0
-3099 3105 0
-3103 3105 0
-3099 -3103 3106 0
-3104 3106 0
-3099 -3104 0
-3100 -3106 0
-3109 30 0
-30 3109 0
-3110 60 0
-60 3110 0
-3111 90 0
-90 3111 0
-3112 120 0
-120 3112 0
-3109 3113 0
-3110 3114 0
-3113 3114 0
-3110 -3113 0
-3111 3115 0
-3114 3115 0
-3111 -3114 0
-3112 -3115 0
-3117 51 0
-51 3117 0
-3118 81 0
-81 3118 0
-3119 111 0
-111 3119 0
-3117 3120 0
-3118 3121 0
-3120 3121 0
-3118 -3120 0
-3119 -3121 0
-3123 51 52 0
-51 3123 0
-52 3123 0
-3124 81 82 0
-81 3124 0
-82 3124 0
-3125 111 112 0
-111 3125 0
-112 3125 0
-3123 3126 0
-3127 0
-3124 3128 0
-3126 3128 0
-3124 -3126 3129 0
-3127 3129 0
-3124 -3127 0
-3125 -3129 0
-3132 51 52 53 0
-51 3132 0
-52 3132 0
-53 3132 0
-3133 81 82 83 0
-81 3133 0
-82 3133 0
-83 3133 0
-3134 111 112 113 0
-111 3134 0
-112 3134 0
-113 3134 0
-3135 52 0
-52 3135 0
-3136 82 0
-82 3136 0
-3137 112 0
-112 3137 0
-3135 3138 0
-3136 3139 0
-3138 3139 0
-3136 -3138 0
-3137 -3139 0
-3141 52 53 0
-52 3141 0
-53 3141 0
-3142 82 83 0
-82 3142 0
-83 3142 0
-3143 112 113 0
-112 3143 0
-113 3143 0
-3141 3144 0
-3145 0
-3142 3146 0
-3144 3146 0
-3142 -3144 3147 0
-3145 3147 0
-3142 -3145 0
-3143 -3147 0
-3150 52 53 54 0
-52 3150 0
-53 3150 0
-54 3150 0
-3151 82 83 84 0
-82 3151 0
-83 3151 0
-84 3151 0
-3152 112 113 114 0
-112 3152 0
-113 3152 0
-114 3152 0
-3153 53 0
-53 3153 0
-3154 83 0
-83 3154 0
-3155 113 0
-113 3155 0
-3153 3156 0
-3154 3157 0
-3156 3157 0
-3154 -3156 0
-3155 -3157 0
-3159 53 54 0
-53 3159 0
-54 3159 0
-3160 83 84 0
-83 3160 0
-84 3160 0
-3161 113 114 0
-113 3161 0
-114 3161 0
-3159 3162 0
-3163 0
-3160 3164 0
-3162 3164 0
-3160 -3162 3165 0
-3163 3165 0
-3160 -3163 0
-3161 -3165 0
-3168 53 54 55 0
-53 3168 0
-54 3168 0
-55 3168 0
-3169 83 84 85 0
-83 3169 0
-84 3169 0
-85 3169 0
-3170 113 114 115 0
-113 3170 0
-114 3170 0
-115 3170 0
-3171 54 0
-54 3171 0
-3172 84 0
-84 3172 0
-3173 114 0
-114 3173 0
-3171 3174 0
-3172 3175 0
-3174 3175 0
-3172 -3174 0
-3173 -3175 0
-3177 54 55 0
-54 3177 0
-55 3177 0
-3178 84 85 0
-84 3178 0
-85 3178 0
-3179 114 115 0
-114 3179 0
-115 3179 0
-3177 3180 0
-3181 0
-3178 3182 0
-3180 3182 0
-3178 -3180 3183 0
-3181 3183 0
-3178 -3181 0
-3179 -3183 0
-3186 55 0
-55 3186 0
-3187 85 0
-85 3187 0
-3188 115 0
-115 3188 0
-3186 3189 0
-3187 3190 0
-3189 3190 0
-3187 -3189 0
-3188 -3190 0
-3192 76 0
-76 3192 0
-3193 106 0
-106 3193 0
-3192 3194 0
-3193 -3194 0
-3196 76 77 0
-76 3196 0
-77 3196 0
-3197 106 107 0
-106 3197 0
-107 3197 0
-3198 77 0
-77 3198 0
-3199 107 0
-107 3199 0
-3198 3200 0
-3199 -3200 0
-3202 77 78 0
-77 3202 0
-78 3202 0
-3203 107 108 0
-107 3203 0
-108 3203 0
-3204 78 0
-78 3204 0
-3205 108 0
-108 3205 0
-3204 3206 0
-3205 -3206 0
-3208 78 79 0
-78 3208 0
-79 3208 0
-3209 108 109 0
-108 3209 0
-109 3209 0
-3210 79 0
-79 3210 0
-3211 109 0
-109 3211 0
-3210 3212 0
-3211 -3212 0
-3214 79 80 0
-79 3214 0
-80 3214 0
-3215 109 110 0
-109 3215 0
-110 3215 0
-3216 80 0
-80 3216 0
-3217 110 0
-110 3217 0
-3216 3218 0
-3217 -3218 0
-3220 6 0
-6 3220 0
-3221 26 0
-26 3221 0
-3220 3222 0
-3221 -3222 0
-3224 6 7 0
-6 3224 0
-7 3224 0
-3225 26 27 0
-26 3225 0
-27 3225 0
-3226 7 0
-7 3226 0
-3227 27 0
-27 3227 0
-3226 3228 0
-3227 -3228 0
-3230 7 8 0
-7 3230 0
-8 3230 0
-3231 27 28 0
-27 3231 0
-28 3231 0
-3232 8 0
-8 3232 0
-3233 28 0
-28 3233 0
-3232 3234 0
-3233 -3234 0
-3236 8 9 0
-8 3236 0
-9 3236 0
-3237 28 29 0
-28 3237 0
-29 3237 0
-3238 9 0
-9 3238 0
-3239 29 0
-29 3239 0
-3238 3240 0
-3239 -3240 0
-3242 9 10 0
-9 3242 0
-10 3242 0
-3243 29 30 0
-29 3243 0
-30 3243 0
-3244 10 0
-10 3244 0
-3245 30 0
-30 3245 0
-3244 3246 0
-3245 -3246 0
-3248 11 0
-11 3248 0
-3249 31 0
-31 3249 0
-3250 51 0
-51 3250 0
-3248 3251 0
-3249 3252 0
-3251 3252 0
-3249 -3251 0
-3250 -3252 0
-3254 11 12 0
-11 3254 0
-12 3254 0
-3255 31 32 0
-31 3255 0
-32 3255 0
-3256 51 52 0
-51 3256 0
-52 3256 0
-3254 3257 0
-3258 0
-3255 3259 0
-3257 3259 0
-3255 -3257 3260 0
-3258 3260 0
-3255 -3258 0
-3256 -3260 0
-3263 11 12 13 0
-11 3263 0
-12 3263 0
-13 3263 0
-3264 31 32 33 0
-31 3264 0
-32 3264 0
-33 3264 0
-3265 51 52 53 0
-51 3265 0
-52 3265 0
-53 3265 0
-3266 12 0
-12 3266 0
-3267 32 0
-32 3267 0
-3268 52 0
-52 3268 0
-3266 3269 0
-3267 3270 0
-3269 3270 0
-3267 -3269 0
-3268 -3270 0
-3272 12 13 0
-12 3272 0
-13 3272 0
-3273 32 33 0
-32 3273 0
-33 3273 0
-3274 52 53 0
-52 3274 0
-53 3274 0
-3272 3275 0
-3276 0
-3273 3277 0
-3275 3277 0
-3273 -3275 3278 0
-3276 3278 0
-3273 -3276 0
-3274 -3278 0
-3281 12 13 14 0
-12 3281 0
-13 3281 0
-14 3281 0
-3282 32 33 34 0
-32 3282 0
-33 3282 0
-34 3282 0
-3283 52 53 54 0
-52 3283 0
-53 3283 0
-54 3283 0
-3284 13 0
-13 3284 0
-3285 33 0
-33 3285 0
-3286 53 0
-53 3286 0
-3284 3287 0
-3285 3288 0
-3287 3288 0
-3285 -3287 0
-3286 -3288 0
-3290 13 14 0
-13 3290 0
-14 3290 0
-3291 33 34 0
-33 3291 0
-34 3291 0
-3292 53 54 0
-53 3292 0
-54 3292 0
-3290 3293 0
-3294 0
-3291 3295 0
-3293 3295 0
-3291 -3293 3296 0
-3294 3296 0
-3291 -3294 0
-3292 -3296 0
-3299 13 14 15 0
-13 3299 0
-14 3299 0
-15 3299 0
-3300 33 34 35 0
-33 3300 0
-34 3300 0
-35 3300 0
-3301 53 54 55 0
-53 3301 0
-54 3301 0
-55 3301 0
-3302 14 0
-14 3302 0
-3303 34 0
-34 3303 0
-3304 54 0
-54 3304 0
-3302 3305 0
-3303 3306 0
-3305 3306 0
-3303 -3305 0
-3304 -3306 0
-3308 14 15 0
-14 3308 0
-15 3308 0
-3309 34 35 0
-34 3309 0
-35 3309 0
-3310 54 55 0
-54 3310 0
-55 3310 0
-3308 3311 0
-3312 0
-3309 3313 0
-3311 3313 0
-3309 -3311 3314 0
-3312 3314 0
-3309 -3312 0
-3310 -3314 0
-3317 15 0
-15 3317 0
-3318 35 0
-35 3318 0
-3319 55 0
-55 3319 0
-3317 3320 0
-3318 3321 0
-3320 3321 0
-3318 -3320 0
-3319 -3321 0
-3323 16 0
-16 3323 0
-3324 36 0
-36 3324 0
-3325 56 0
-56 3325 0
-3326 76 0
-76 3326 0
-3323 3327 0
-3324 3328 0
-3327 3328 0
-3324 -3327 0
-3325 3329 0
-3328 3329 0
-3325 -3328 0
-3326 -3329 0
-3331 16 17 0
-16 3331 0
-17 3331 0
-3332 36 37 0
-36 3332 0
-37 3332 0
-3333 56 57 0
-56 3333 0
-57 3333 0
-3334 76 77 0
-76 3334 0
-77 3334 0
-3331 3335 0
-3336 0
-3332 3337 0
-3335 3337 0
-3332 -3335 3338 0
-3336 3338 0
-3332 -3336 0
-3333 3339 0
-3337 3339 0
-3333 -3337 3340 0
-3338 3340 0
-3333 -3338 0
-3334 -3340 0
-3343 16 17 18 0
-16 3343 0
-17 3343 0
-18 3343 0
-3344 36 37 38 0
-36 3344 0
-37 3344 0
-38 3344 0
-3345 56 57 58 0
-56 3345 0
-57 3345 0
-58 3345 0
-3346 76 77 78 0
-76 3346 0
-77 3346 0
-78 3346 0
-3343 3347 0
-3348 0
-3349 0
-3344 3350 0
-3347 3350 0
-3344 -3347 3351 0
-3348 3351 0
-3344 -3348 3352 0
-3349 3352 0
-3344 -3349 0
-3345 3353 0
-3350 3353 0
-3345 -3350 3354 0
-3351 3354 0
-3345 -3351 3355 0
-3352 3355 0
-3345 -3352 0
-3346 -3355 0
-3359 16 17 18 19 0
-16 3359 0
-17 3359 0
-18 3359 0
-19 3359 0
-3360 36 37 38 39 0
-36 3360 0
-37 3360 0
-38 3360 0
-39 3360 0
-3361 56 57 58 59 0
-56 3361 0
-57 3361 0
-58 3361 0
-59 3361 0
-3362 76 77 78 79 0
-76 3362 0
-77 3362 0
-78 3362 0
-79 3362 0
-3363 17 0
-17 3363 0
-3364 37 0
-37 3364 0
-3365 57 0
-57 3365 0
-3366 77 0
-77 3366 0
-3363 3367 0
-3364 3368 0
-3367 3368 0
-3364 -3367 0
-3365 3369 0
-3368 3369 0
-3365 -3368 0
-3366 -3369 0
-3371 17 18 0
-17 3371 0
-18 3371 0
-3372 37 38 0
-37 3372 0
-38 3372 0
-3373 57 58 0
-57 3373 0
-58 3373 0
-3374 77 78 0
-77 3374 0
-78 3374 0
-3371 3375 0
-3376 0
-3372 3377 0
-3375 3377 0
-3372 -3375 3378 0
-3376 3378 0
-3372 -3376 0
-3373 3379 0
-3377 3379 0
-3373 -3377 3380 0
-3378 3380 0
-3373 -3378 0
-3374 -3380 0
-3383 17 18 19 0
-17 3383 0
-18 3383 0
-19 3383 0
-3384 37 38 39 0
-37 3384 0
-38 3384 0
-39 3384 0
-3385 57 58 59 0
-57 3385 0
-58 3385 0
-59 3385 0
-3386 77 78 79 0
-77 3386 0
-78 3386 0
-79 3386 0
-3383 3387 0
-3388 0
-3389 0
-3384 3390 0
-3387 3390 0
-3384 -3387 3391 0
-3388 3391 0
-3384 -3388 3392 0
-3389 3392 0
-3384 -3389 0
-3385 3393 0
-3390 3393 0
-3385 -3390 3394 0
-3391 3394 0
-3385 -3391 3395 0
-3392 3395 0
-3385 -3392 0
-3386 -3395 0
-3399 17 18 19 20 0
-17 3399 0
-18 3399 0
-19 3399 0
-20 3399 0
-3400 37 38 39 40 0
-37 3400 0
-38 3400 0
-39 3400 0
-40 3400 0
-3401 57 58 59 60 0
-57 3401 0
-58 3401 0
-59 3401 0
-60 3401 0
-3402 77 78 79 80 0
-77 3402 0
-78 3402 0
-79 3402 0
-80 3402 0
-3403 18 0
-18 3403 0
-3404 38 0
-38 3404 0
-3405 58 0
-58 3405 0
-3406 78 0
-78 3406 0
-3403 3407 0
-3404 3408 0
-3407 3408 0
-3404 -3407 0
-3405 3409 0
-3408 3409 0
-3405 -3408 0
-3406 -3409 0
-3411 18 19 0
-18 3411 0
-19 3411 0
-3412 38 39 0
-38 3412 0
-39 3412 0
-3413 58 59 0
-58 3413 0
-59 3413 0
-3414 78 79 0
-78 3414 0
-79 3414 0
-3411 3415 0
-3416 0
-3412 3417 0
-3415 3417 0
-3412 -3415 3418 0
-3416 3418 0
-3412 -3416 0
-3413 3419 0
-3417 3419 0
-3413 -3417 3420 0
-3418 3420 0
-3413 -3418 0
-3414 -3420 0
-3423 18 19 20 0
-18 3423 0
-19 3423 0
-20 3423 0
-3424 38 39 40 0
-38 3424 0
-39 3424 0
-40 3424 0
-3425 58 59 60 0
-58 3425 0
-59 3425 0
-60 3425 0
-3426 78 79 80 0
-78 3426 0
-79 3426 0
-80 3426 0
-3423 3427 0
-3428 0
-3429 0
-3424 3430 0
-3427 3430 0
-3424 -3427 3431 0
-3428 3431 0
-3424 -3428 3432 0
-3429 3432 0
-3424 -3429 0
-3425 3433 0
-3430 3433 0
-3425 -3430 3434 0
-3431 3434 0
-3425 -3431 3435 0
-3432 3435 0
-3425 -3432 0
-3426 -3435 0
-3439 19 0
-19 3439 0
-3440 39 0
-39 3440 0
-3441 59 0
-59 3441 0
-3442 79 0
-79 3442 0
-3439 3443 0
-3440 3444 0
-3443 3444 0
-3440 -3443 0
-3441 3445 0
-3444 3445 0
-3441 -3444 0
-3442 -3445 0
-3447 19 20 0
-19 3447 0
-20 3447 0
-3448 39 40 0
-39 3448 0
-40 3448 0
-3449 59 60 0
-59 3449 0
-60 3449 0
-3450 79 80 0
-79 3450 0
-80 3450 0
-3447 3451 0
-3452 0
-3448 3453 0
-3451 3453 0
-3448 -3451 3454 0
-3452 3454 0
-3448 -3452 0
-3449 3455 0
-3453 3455 0
-3449 -3453 3456 0
-3454 3456 0
-3449 -3454 0
-3450 -3456 0
-3459 20 0
-20 3459 0
-3460 40 0
-40 3460 0
-3461 60 0
-60 3461 0
-3462 80 0
-80 3462 0
-3459 3463 0
-3460 3464 0
-3463 3464 0
-3460 -3463 0
-3461 3465 0
-3464 3465 0
-3461 -3464 0
-3462 -3465 0
-3467 21 0
-21 3467 0
-3468 41 0
-41 3468 0
-3469 61 0
-61 3469 0
-3470 81 0
-81 3470 0
-3471 101 0
-101 3471 0
-3467 3472 0
-3468 3473 0
-3472 3473 0
-3468 -3472 0
-3469 3474 0
-3473 3474 0
-3469 -3473 0
-3470 3475 0
-3474 3475 0
-3470 -3474 0
-3471 -3475 0
-3477 21 22 0
-21 3477 0
-22 3477 0
-3478 41 42 0
-41 3478 0
-42 3478 0
-3479 61 62 0
-61 3479 0
-62 3479 0
-3480 81 82 0
-81 3480 0
-82 3480 0
-3481 101 102 0
-101 3481 0
-102 3481 0
-3477 3482 0
-3483 0
-3478 3484 0
-3482 3484 0
-3478 -3482 3485 0
-3483 3485 0
-3478 -3483 0
-3479 3486 0
-3484 3486 0
-3479 -3484 3487 0
-3485 3487 0
-3479 -3485 0
-3480 3488 0
-3486 3488 0
-3480 -3486 3489 0
-3487 3489 0
-3480 -3487 0
-3481 -3489 0
-3492 21 22 23 0
-21 3492 0
-22 3492 0
-23 3492 0
-3493 41 42 43 0
-41 3493 0
-42 3493 0
-43 3493 0
-3494 61 62 63 0
-61 3494 0
-62 3494 0
-63 3494 0
-3495 81 82 83 0
-81 3495 0
-82 3495 0
-83 3495 0
-3496 101 102 103 0
-101 3496 0
-102 3496 0
-103 3496 0
-3492 3497 0
-3498 0
-3499 0
-3493 3500 0
-3497 3500 0
-3493 -3497 3501 0
-3498 3501 0
-3493 -3498 3502 0
-3499 3502 0
-3493 -3499 0
-3494 3503 0
-3500 3503 0
-3494 -3500 3504 0
-3501 3504 0
-3494 -3501 3505 0
-3502 3505 0
-3494 -3502 0
-3495 3506 0
-3503 3506 0
-3495 -3503 3507 0
-3504 3507 0
-3495 -3504 3508 0
-3505 3508 0
-3495 -3505 0
-3496 -3508 0
-3512 21 22 23 24 0
-21 3512 0
-22 3512 0
-23 3512 0
-24 3512 0
-3513 41 42 43 44 0
-41 3513 0
-42 3513 0
-43 3513 0
-44 3513 0
-3514 61 62 63 64 0
-61 3514 0
-62 3514 0
-63 3514 0
-64 3514 0
-3515 81 82 83 84 0
-81 3515 0
-82 3515 0
-83 3515 0
-84 3515 0
-3516 101 102 103 104 0
-101 3516 0
-102 3516 0
-103 3516 0
-104 3516 0
-3512 3517 0
-3518 0
-3519 0
-3520 0
-3513 3521 0
-3517 3521 0
-3513 -3517 3522 0
-3518 3522 0
-3513 -3518 3523 0
-3519 3523 0
-3513 -3519 3524 0
-3520 3524 0
-3513 -3520 0
-3514 3525 0
-3521 3525 0
-3514 -3521 3526 0
-3522 3526 0
-3514 -3522 3527 0
-3523 3527 0
-3514 -3523 3528 0
-3524 3528 0
-3514 -3524 0
-3515 3529 0
-3525 3529 0
-3515 -3525 3530 0
-3526 3530 0
-3515 -3526 3531 0
-3527 3531 0
-3515 -3527 3532 0
-3528 3532 0
-3515 -3528 0
-3516 -3532 0
-3537 21 22 23 24 25 0
-21 3537 0
-22 3537 0
-23 3537 0
-24 3537 0
-25 3537 0
-3538 41 42 43 44 45 0
-41 3538 0
-42 3538 0
-43 3538 0
-44 3538 0
-45 3538 0
-3539 61 62 63 64 65 0
-61 3539 0
-62 3539 0
-63 3539 0
-64 3539 0
-65 3539 0
-3540 81 82 83 84 85 0
-81 3540 0
-82 3540 0
-83 3540 0
-84 3540 0
-85 3540 0
-3541 101 102 103 104 105 0
-101 3541 0
-102 3541 0
-103 3541 0
-104 3541 0
-105 3541 0
-3542 22 0
-22 3542 0
-3543 42 0
-42 3543 0
-3544 62 0
-62 3544 0
-3545 82 0
-82 3545 0
-3546 102 0
-102 3546 0
-3542 3547 0
-3543 3548 0
-3547 3548 0
-3543 -3547 0
-3544 3549 0
-3548 3549 0
-3544 -3548 0
-3545 3550 0
-3549 3550 0
-3545 -3549 0
-3546 -3550 0
-3552 22 23 0
-22 3552 0
-23 3552 0
-3553 42 43 0
-42 3553 0
-43 3553 0
-3554 62 63 0
-62 3554 0
-63 3554 0
-3555 82 83 0
-82 3555 0
-83 3555 0
-3556 102 103 0
-102 3556 0
-103 3556 0
-3552 3557 0
-3558 0
-3553 3559 0
-3557 3559 0
-3553 -3557 3560 0
-3558 3560 0
-3553 -3558 0
-3554 3561 0
-3559 3561 0
-3554 -3559 3562 0
-3560 3562 0
-3554 -3560 0
-3555 3563 0
-3561 3563 0
-3555 -3561 3564 0
-3562 3564 0
-3555 -3562 0
-3556 -3564 0
-3567 22 23 24 0
-22 3567 0
-23 3567 0
-24 3567 0
-3568 42 43 44 0
-42 3568 0
-43 3568 0
-44 3568 0
-3569 62 63 64 0
-62 3569 0
-63 3569 0
-64 3569 0
-3570 82 83 84 0
-82 3570 0
-83 3570 0
-84 3570 0
-3571 102 103 104 0
-102 3571 0
-103 3571 0
-104 3571 0
-3567 3572 0
-3573 0
-3574 0
-3568 3575 0
-3572 3575 0
-3568 -3572 3576 0
-3573 3576 0
-3568 -3573 3577 0
-3574 3577 0
-3568 -3574 0
-3569 3578 0
-3575 3578 0
-3569 -3575 3579 0
-3576 3579 0
-3569 -3576 3580 0
-3577 3580 0
-3569 -3577 0
-3570 3581 0
-3578 3581 0
-3570 -3578 3582 0
-3579 3582 0
-3570 -3579 3583 0
-3580 3583 0
-3570 -3580 0
-3571 -3583 0
-3587 22 23 24 25 0
-22 3587 0
-23 3587 0
-24 3587 0
-25 3587 0
-3588 42 43 44 45 0
-42 3588 0
-43 3588 0
-44 3588 0
-45 3588 0
-3589 62 63 64 65 0
-62 3589 0
-63 3589 0
-64 3589 0
-65 3589 0
-3590 82 83 84 85 0
-82 3590 0
-83 3590 0
-84 3590 0
-85 3590 0
-3591 102 103 104 105 0
-102 3591 0
-103 3591 0
-104 3591 0
-105 3591 0
-3587 3592 0
-3593 0
-3594 0
-3595 0
-3588 3596 0
-3592 3596 0
-3588 -3592 3597 0
-3593 3597 0
-3588 -3593 3598 0
-3594 3598 0
-3588 -3594 3599 0
-3595 3599 0
-3588 -3595 0
-3589 3600 0
-3596 3600 0
-3589 -3596 3601 0
-3597 3601 0
-3589 -3597 3602 0
-3598 3602 0
-3589 -3598 3603 0
-3599 3603 0
-3589 -3599 0
-3590 3604 0
-3600 3604 0
-3590 -3600 3605 0
-3601 3605 0
-3590 -3601 3606 0
-3602 3606 0
-3590 -3602 3607 0
-3603 3607 0
-3590 -3603 0
-3591 -3607 0
-3612 23 0
-23 3612 0
-3613 43 0
-43 3613 0
-3614 63 0
-63 3614 0
-3615 83 0
-83 3615 0
-3616 103 0
-103 3616 0
-3612 3617 0
-3613 3618 0
-3617 3618 0
-3613 -3617 0
-3614 3619 0
-3618 3619 0
-3614 -3618 0
-3615 3620 0
-3619 3620 0
-3615 -3619 0
-3616 -3620 0
-3622 23 24 0
-23 3622 0
-24 3622 0
-3623 43 44 0
-43 3623 0
-44 3623 0
-3624 63 64 0
-63 3624 0
-64 3624 0
-3625 83 84 0
-83 3625 0
-84 3625 0
-3626 103 104 0
-103 3626 0
-104 3626 0
-3622 3627 0
-3628 0
-3623 3629 0
-3627 3629 0
-3623 -3627 3630 0
-3628 3630 0
-3623 -3628 0
-3624 3631 0
-3629 3631 0
-3624 -3629 3632 0
-3630 3632 0
-3624 -3630 0
-3625 3633 0
-3631 3633 0
-3625 -3631 3634 0
-3632 3634 0
-3625 -3632 0
-3626 -3634 0
-3637 23 24 25 0
-23 3637 0
-24 3637 0
-25 3637 0
-3638 43 44 45 0
-43 3638 0
-44 3638 0
-45 3638 0
-3639 63 64 65 0
-63 3639 0
-64 3639 0
-65 3639 0
-3640 83 84 85 0
-83 3640 0
-84 3640 0
-85 3640 0
-3641 103 104 105 0
-103 3641 0
-104 3641 0
-105 3641 0
-3637 3642 0
-3643 0
-3644 0
-3638 3645 0
-3642 3645 0
-3638 -3642 3646 0
-3643 3646 0
-3638 -3643 3647 0
-3644 3647 0
-3638 -3644 0
-3639 3648 0
-3645 3648 0
-3639 -3645 3649 0
-3646 3649 0
-3639 -3646 3650 0
-3647 3650 0
-3639 -3647 0
-3640 3651 0
-3648 3651 0
-3640 -3648 3652 0
-3649 3652 0
-3640 -3649 3653 0
-3650 3653 0
-3640 -3650 0
-3641 -3653 0
-3657 24 0
-24 3657 0
-3658 44 0
-44 3658 0
-3659 64 0
-64 3659 0
-3660 84 0
-84 3660 0
-3661 104 0
-104 3661 0
-3657 3662 0
-3658 3663 0
-3662 3663 0
-3658 -3662 0
-3659 3664 0
-3663 3664 0
-3659 -3663 0
-3660 3665 0
-3664 3665 0
-3660 -3664 0
-3661 -3665 0
-3667 24 25 0
-24 3667 0
-25 3667 0
-3668 44 45 0
-44 3668 0
-45 3668 0
-3669 64 65 0
-64 3669 0
-65 3669 0
-3670 84 85 0
-84 3670 0
-85 3670 0
-3671 104 105 0
-104 3671 0
-105 3671 0
-3667 3672 0
-3673 0
-3668 3674 0
-3672 3674 0
-3668 -3672 3675 0
-3673 3675 0
-3668 -3673 0
-3669 3676 0
-3674 3676 0
-3669 -3674 3677 0
-3675 3677 0
-3669 -3675 0
-3670 3678 0
-3676 3678 0
-3670 -3676 3679 0
-3677 3679 0
-3670 -3677 0
-3671 -3679 0
-3682 25 0
-25 3682 0
-3683 45 0
-45 3683 0
-3684 65 0
-65 3684 0
-3685 85 0
-85 3685 0
-3686 105 0
-105 3686 0
-3682 3687 0
-3683 3688 0
-3687 3688 0
-3683 -3687 0
-3684 3689 0
-3688 3689 0
-3684 -3688 0
-3685 3690 0
-3689 3690 0
-3685 -3689 0
-3686 -3690 0
-3692 46 0
-46 3692 0
-3693 66 0
-66 3693 0
-3694 86 0
-86 3694 0
-3695 106 0
-106 3695 0
-3692 3696 0
-3693 3697 0
-3696 3697 0
-3693 -3696 0
-3694 3698 0
-3697 3698 0
-3694 -3697 0
-3695 -3698 0
-3700 46 47 0
-46 3700 0
-47 3700 0
-3701 66 67 0
-66 3701 0
-67 3701 0
-3702 86 87 0
-86 3702 0
-87 3702 0
-3703 106 107 0
-106 3703 0
-107 3703 0
-3700 3704 0
-3705 0
-3701 3706 0
-3704 3706 0
-3701 -3704 3707 0
-3705 3707 0
-3701 -3705 0
-3702 3708 0
-3706 3708 0
-3702 -3706 3709 0
-3707 3709 0
-3702 -3707 0
-3703 -3709 0
-3712 46 47 48 0
-46 3712 0
-47 3712 0
-48 3712 0
-3713 66 67 68 0
-66 3713 0
-67 3713 0
-68 3713 0
-3714 86 87 88 0
-86 3714 0
-87 3714 0
-88 3714 0
-3715 106 107 108 0
-106 3715 0
-107 3715 0
-108 3715 0
-3712 3716 0
-3717 0
-3718 0
-3713 3719 0
-3716 3719 0
-3713 -3716 3720 0
-3717 3720 0
-3713 -3717 3721 0
-3718 3721 0
-3713 -3718 0
-3714 3722 0
-3719 3722 0
-3714 -3719 3723 0
-3720 3723 0
-3714 -3720 3724 0
-3721 3724 0
-3714 -3721 0
-3715 -3724 0
-3728 46 47 48 49 0
-46 3728 0
-47 3728 0
-48 3728 0
-49 3728 0
-3729 66 67 68 69 0
-66 3729 0
-67 3729 0
-68 3729 0
-69 3729 0
-3730 86 87 88 89 0
-86 3730 0
-87 3730 0
-88 3730 0
-89 3730 0
-3731 106 107 108 109 0
-106 3731 0
-107 3731 0
-108 3731 0
-109 3731 0
-3732 47 0
-47 3732 0
-3733 67 0
-67 3733 0
-3734 87 0
-87 3734 0
-3735 107 0
-107 3735 0
-3732 3736 0
-3733 3737 0
-3736 3737 0
-3733 -3736 0
-3734 3738 0
-3737 3738 0
-3734 -3737 0
-3735 -3738 0
-3740 47 48 0
-47 3740 0
-48 3740 0
-3741 67 68 0
-67 3741 0
-68 3741 0
-3742 87 88 0
-87 3742 0
-88 3742 0
-3743 107 108 0
-107 3743 0
-108 3743 0
-3740 3744 0
-3745 0
-3741 3746 0
-3744 3746 0
-3741 -3744 3747 0
-3745 3747 0
-3741 -3745 0
-3742 3748 0
-3746 3748 0
-3742 -3746 3749 0
-3747 3749 0
-3742 -3747 0
-3743 -3749 0
-3752 47 48 49 0
-47 3752 0
-48 3752 0
-49 3752 0
-3753 67 68 69 0
-67 3753 0
-68 3753 0
-69 3753 0
-3754 87 88 89 0
-87 3754 0
-88 3754 0
-89 3754 0
-3755 107 108 109 0
-107 3755 0
-108 3755 0
-109 3755 0
-3752 3756 0
-3757 0
-3758 0
-3753 3759 0
-3756 3759 0
-3753 -3756 3760 0
-3757 3760 0
-3753 -3757 3761 0
-3758 3761 0
-3753 -3758 0
-3754 3762 0
-3759 3762 0
-3754 -3759 3763 0
-3760 3763 0
-3754 -3760 3764 0
-3761 3764 0
-3754 -3761 0
-3755 -3764 0
-3768 47 48 49 50 0
-47 3768 0
-48 3768 0
-49 3768 0
-50 3768 0
-3769 67 68 69 70 0
-67 3769 0
-68 3769 0
-69 3769 0
-70 3769 0
-3770 87 88 89 90 0
-87 3770 0
-88 3770 0
-89 3770 0
-90 3770 0
-3771 107 108 109 110 0
-107 3771 0
-108 3771 0
-109 3771 0
-110 3771 0
-3772 48 0
-48 3772 0
-3773 68 0
-68 3773 0
-3774 88 0
-88 3774 0
-3775 108 0
-108 3775 0
-3772 3776 0
-3773 3777 0
-3776 3777 0
-3773 -3776 0
-3774 3778 0
-3777 3778 0
-3774 -3777 0
-3775 -3778 0
-3780 48 49 0
-48 3780 0
-49 3780 0
-3781 68 69 0
-68 3781 0
-69 3781 0
-3782 88 89 0
-88 3782 0
-89 3782 0
-3783 108 109 0
-108 3783 0
-109 3783 0
-3780 3784 0
-3785 0
-3781 3786 0
-3784 3786 0
-3781 -3784 3787 0
-3785 3787 0
-3781 -3785 0
-3782 3788 0
-3786 3788 0
-3782 -3786 3789 0
-3787 3789 0
-3782 -3787 0
-3783 -3789 0
-3792 48 49 50 0
-48 3792 0
-49 3792 0
-50 3792 0
-3793 68 69 70 0
-68 3793 0
-69 3793 0
-70 3793 0
-3794 88 89 90 0
-88 3794 0
-89 3794 0
-90 3794 0
-3795 108 109 110 0
-108 3795 0
-109 3795 0
-110 3795 0
-3792 3796 0
-3797 0
-3798 0
-3793 3799 0
-3796 3799 0
-3793 -3796 3800 0
-3797 3800 0
-3793 -3797 3801 0
-3798 3801 0
-3793 -3798 0
-3794 3802 0
-3799 3802 0
-3794 -3799 3803 0
-3800 3803 0
-3794 -3800 3804 0
-3801 3804 0
-3794 -3801 0
-3795 -3804 0
-3808 49 0
-49 3808 0
-3809 69 0
-69 3809 0
-3810 89 0
-89 3810 0
-3811 109 0
-109 3811 0
-3808 3812 0
-3809 3813 0
-3812 3813 0
-3809 -3812 0
-3810 3814 0
-3813 3814 0
-3810 -3813 0
-3811 -3814 0
-3816 49 50 0
-49 3816 0
-50 3816 0
-3817 69 70 0
-69 3817 0
-70 3817 0
-3818 89 90 0
-89 3818 0
-90 3818 0
-3819 109 110 0
-109 3819 0
-110 3819 0
-3816 3820 0
-3821 0
-3817 3822 0
-3820 3822 0
-3817 -3820 3823 0
-3821 3823 0
-3817 -3821 0
-3818 3824 0
-3822 3824 0
-3818 -3822 3825 0
-3823 3825 0
-3818 -3823 0
-3819 -3825 0
-3828 50 0
-50 3828 0
-3829 70 0
-70 3829 0
-3830 90 0
-90 3830 0
-3831 110 0
-110 3831 0
-3828 3832 0
-3829 3833 0
-3832 3833 0
-3829 -3832 0
-3830 3834 0
-3833 3834 0
-3830 -3833 0
-3831 -3834 0
-3836 71 0
-71 3836 0
-3837 91 0
-91 3837 0
-3838 111 0
-111 3838 0
-3836 3839 0
-3837 3840 0
-3839 3840 0
-3837 -3839 0
-3838 -3840 0
-3842 71 72 0
-71 3842 0
-72 3842 0
-3843 91 92 0
-91 3843 0
-92 3843 0
-3844 111 112 0
-111 3844 0
-112 3844 0
-3842 3845 0
-3846 0
-3843 3847 0
-3845 3847 0
-3843 -3845 3848 0
-3846 3848 0
-3843 -3846 0
-3844 -3848 0
-3851 71 72 73 0
-71 3851 0
-72 3851 0
-73 3851 0
-3852 91 92 93 0
-91 3852 0
-92 3852 0
-93 3852 0
-3853 111 112 113 0
-111 3853 0
-112 3853 0
-113 3853 0
-3854 72 0
-72 3854 0
-3855 92 0
-92 3855 0
-3856 112 0
-112 3856 0
-3854 3857 0
-3855 3858 0
-3857 3858 0
-3855 -3857 0
-3856 -3858 0
-3860 72 73 0
-72 3860 0
-73 3860 0
-3861 92 93 0
-92 3861 0
-93 3861 0
-3862 112 113 0
-112 3862 0
-113 3862 0
-3860 3863 0
-3864 0
-3861 3865 0
-3863 3865 0
-3861 -3863 3866 0
-3864 3866 0
-3861 -3864 0
-3862 -3866 0
-3869 72 73 74 0
-72 3869 0
-73 3869 0
-74 3869 0
-3870 92 93 94 0
-92 3870 0
-93 3870 0
-94 3870 0
-3871 112 113 114 0
-112 3871 0
-113 3871 0
-114 3871 0
-3872 73 0
-73 3872 0
-3873 93 0
-93 3873 0
-3874 113 0
-113 3874 0
-3872 3875 0
-3873 3876 0
-3875 3876 0
-3873 -3875 0
-3874 -3876 0
-3878 73 74 0
-73 3878 0
-74 3878 0
-3879 93 94 0
-93 3879 0
-94 3879 0
-3880 113 114 0
-113 3880 0
-114 3880 0
-3878 3881 0
-3882 0
-3879 3883 0
-3881 3883 0
-3879 -3881 3884 0
-3882 3884 0
-3879 -3882 0
-3880 -3884 0
-3887 73 74 75 0
-73 3887 0
-74 3887 0
-75 3887 0
-3888 93 94 95 0
-93 3888 0
-94 3888 0
-95 3888 0
-3889 113 114 115 0
-113 3889 0
-114 3889 0
-115 3889 0
-3890 74 0
-74 3890 0
-3891 94 0
-94 3891 0
-3892 114 0
-114 3892 0
-3890 3893 0
-3891 3894 0
-3893 3894 0
-3891 -3893 0
-3892 -3894 0
-3896 74 75 0
-74 3896 0
-75 3896 0
-3897 94 95 0
-94 3897 0
-95 3897 0
-3898 114 115 0
-114 3898 0
-115 3898 0
-3896 3899 0
-3900 0
-3897 3901 0
-3899 3901 0
-3897 -3899 3902 0
-3900 3902 0
-3897 -3900 0
-3898 -3902 0
-3905 75 0
-75 3905 0
-3906 95 0
-95 3906 0
-3907 115 0
-115 3907 0
-3905 3908 0
-3906 3909 0
-3908 3909 0
-3906 -3908 0
-3907 -3909 0
-3911 96 0
-96 3911 0
-3912 116 0
-116 3912 0
-3911 3913 0
-3912 -3913 0
-3915 96 97 0
-96 3915 0
-97 3915 0
-3916 116 117 0
-116 3916 0
-117 3916 0
-3917 97 0
-97 3917 0
-3918 117 0
-117 3918 0
-3917 3919 0
-3918 -3919 0
-3921 97 98 0
-97 3921 0
-98 3921 0
-3922 117 118 0
-117 3922 0
-118 3922 0
-3923 98 0
-98 3923 0
-3924 118 0
-118 3924 0
-3923 3925 0
-3924 -3925 0
-3927 98 99 0
-98 3927 0
-99 3927 0
-3928 118 119 0
-118 3928 0
-119 3928 0
-3929 99 0
-99 3929 0
-3930 119 0
-119 3930 0
-3929 3931 0
-3930 -3931 0
-3933 99 100 0
-99 3933 0
-100 3933 0
-3934 119 120 0
-119 3934 0
-120 3934 0
-3935 100 0
-100 3935 0
-3936 120 0
-120 3936 0
-3935 3937 0
-3936 -3937 0
