p cnf 8840 20244
-1 217 0
-2 218 0
-217 218 0
-2 -217 0
-3 219 0
-218 219 0
-3 -218 0
-4 220 0
-219 220 0
-4 -219 0
-5 221 0
-220 221 0
-5 -220 0
-6 -221 0
1 2 3 4 5 6 0
-7 223 0
-8 224 0
-223 224 0
-8 -223 0
-9 225 0
-224 225 0
-9 -224 0
-10 226 0
-225 226 0
-10 -225 0
-11 227 0
-226 227 0
-11 -226 0
-12 -227 0
7 8 9 10 11 12 0
-13 229 0
-14 230 0
-229 230 0
-14 -229 0
-15 231 0
-230 231 0
-15 -230 0
-16 232 0
-231 232 0
-16 -231 0
-17 233 0
-232 233 0
-17 -232 0
-18 -233 0
13 14 15 16 17 18 0
-19 235 0
-20 236 0
-235 236 0
-20 -235 0
-21 237 0
-236 237 0
-21 -236 0
-22 238 0
-237 238 0
-22 -237 0
-23 239 0
-238 239 0
-23 -238 0
-24 -239 0
19 20 21 22 23 24 0
-25 241 0
-26 242 0
-241 242 0
-26 -241 0
-27 243 0
-242 243 0
-27 -242 0
-28 244 0
-243 244 0
-28 -243 0
-29 245 0
-244 245 0
-29 -244 0
-30 -245 0
25 26 27 28 29 30 0
-31 247 0
-32 248 0
-247 248 0
-32 -247 0
-33 249 0
-248 249 0
-33 -248 0
-34 250 0
-249 250 0
-34 -249 0
-35 251 0
-250 251 0
-35 -250 0
-36 -251 0
31 32 33 34 35 36 0
-37 253 0
-38 254 0
-253 254 0
-38 -253 0
-39 255 0
-254 255 0
-39 -254 0
-40 256 0
-255 256 0
-40 -255 0
-41 257 0
-256 257 0
-41 -256 0
-42 -257 0
37 38 39 40 41 42 0
-43 259 0
-44 260 0
-259 260 0
-44 -259 0
-45 261 0
-260 261 0
-45 -260 0
-46 262 0
-261 262 0
-46 -261 0
-47 263 0
-262 263 0
-47 -262 0
-48 -263 0
43 44 45 46 47 48 0
-49 265 0
-50 266 0
-265 266 0
-50 -265 0
-51 267 0
-266 267 0
-51 -266 0
-52 268 0
-267 268 0
-52 -267 0
-53 269 0
-268 269 0
-53 -268 0
-54 -269 0
49 50 51 52 53 54 0
-55 271 0
-56 272 0
-271 272 0
-56 -271 0
-57 273 0
-272 273 0
-57 -272 0
-58 274 0
-273 274 0
-58 -273 0
-59 275 0
-274 275 0
-59 -274 0
-60 -275 0
55 56 57 58 59 60 0
-61 277 0
-62 278 0
-277 278 0
-62 -277 0
-63 279 0
-278 279 0
-63 -278 0
-64 280 0
-279 280 0
-64 -279 0
-65 281 0
-280 281 0
-65 -280 0
-66 -281 0
61 62 63 64 65 66 0
-67 283 0
-68 284 0
-283 284 0
-68 -283 0
-69 285 0
-284 285 0
-69 -284 0
-70 286 0
-285 286 0
-70 -285 0
-71 287 0
-286 287 0
-71 -286 0
-72 -287 0
67 68 69 70 71 72 0
-73 289 0
-74 290 0
-289 290 0
-74 -289 0
-75 291 0
-290 291 0
-75 -290 0
-76 292 0
-291 292 0
-76 -291 0
-77 293 0
-292 293 0
-77 -292 0
-78 -293 0
73 74 75 76 77 78 0
-79 295 0
-80 296 0
-295 296 0
-80 -295 0
-81 297 0
-296 297 0
-81 -296 0
-82 298 0
-297 298 0
-82 -297 0
-83 299 0
-298 299 0
-83 -298 0
-84 -299 0
79 80 81 82 83 84 0
-85 301 0
-86 302 0
-301 302 0
-86 -301 0
-87 303 0
-302 303 0
-87 -302 0
-88 304 0
-303 304 0
-88 -303 0
-89 305 0
-304 305 0
-89 -304 0
-90 -305 0
85 86 87 88 89 90 0
-91 307 0
-92 308 0
-307 308 0
-92 -307 0
-93 309 0
-308 309 0
-93 -308 0
-94 310 0
-309 310 0
-94 -309 0
-95 311 0
-310 311 0
-95 -310 0
-96 -311 0
91 92 93 94 95 96 0
-97 313 0
-98 314 0
-313 314 0
-98 -313 0
-99 315 0
-314 315 0
-99 -314 0
-100 316 0
-315 316 0
-100 -315 0
-101 317 0
-316 317 0
-101 -316 0
-102 -317 0
97 98 99 100 101 102 0
-103 319 0
-104 320 0
-319 320 0
-104 -319 0
-105 321 0
-320 321 0
-105 -320 0
-106 322 0
-321 322 0
-106 -321 0
-107 323 0
-322 323 0
-107 -322 0
-108 -323 0
103 104 105 106 107 108 0
-109 325 0
-110 326 0
-325 326 0
-110 -325 0
-111 327 0
-326 327 0
-111 -326 0
-112 328 0
-327 328 0
-112 -327 0
-113 329 0
-328 329 0
-113 -328 0
-114 -329 0
109 110 111 112 113 114 0
-115 331 0
-116 332 0
-331 332 0
-116 -331 0
-117 333 0
-332 333 0
-117 -332 0
-118 334 0
-333 334 0
-118 -333 0
-119 335 0
-334 335 0
-119 -334 0
-120 -335 0
115 116 117 118 119 120 0
-121 337 0
-122 338 0
-337 338 0
-122 -337 0
-123 339 0
-338 339 0
-123 -338 0
-124 340 0
-339 340 0
-124 -339 0
-125 341 0
-340 341 0
-125 -340 0
-126 -341 0
121 122 123 124 125 126 0
-127 343 0
-128 344 0
-343 344 0
-128 -343 0
-129 345 0
-344 345 0
-129 -344 0
-130 346 0
-345 346 0
-130 -345 0
-131 347 0
-346 347 0
-131 -346 0
-132 -347 0
127 128 129 130 131 132 0
-133 349 0
-134 350 0
-349 350 0
-134 -349 0
-135 351 0
-350 351 0
-135 -350 0
-136 352 0
-351 352 0
-136 -351 0
-137 353 0
-352 353 0
-137 -352 0
-138 -353 0
133 134 135 136 137 138 0
-139 355 0
-140 356 0
-355 356 0
-140 -355 0
-141 357 0
-356 357 0
-141 -356 0
-142 358 0
-357 358 0
-142 -357 0
-143 359 0
-358 359 0
-143 -358 0
-144 -359 0
139 140 141 142 143 144 0
-145 361 0
-146 362 0
-361 362 0
-146 -361 0
-147 363 0
-362 363 0
-147 -362 0
-148 364 0
-363 364 0
-148 -363 0
-149 365 0
-364 365 0
-149 -364 0
-150 -365 0
145 146 147 148 149 150 0
-151 367 0
-152 368 0
-367 368 0
-152 -367 0
-153 369 0
-368 369 0
-153 -368 0
-154 370 0
-369 370 0
-154 -369 0
-155 371 0
-370 371 0
-155 -370 0
-156 -371 0
151 152 153 154 155 156 0
-157 373 0
-158 374 0
-373 374 0
-158 -373 0
-159 375 0
-374 375 0
-159 -374 0
-160 376 0
-375 376 0
-160 -375 0
-161 377 0
-376 377 0
-161 -376 0
-162 -377 0
157 158 159 160 161 162 0
-163 379 0
-164 380 0
-379 380 0
-164 -379 0
-165 381 0
-380 381 0
-165 -380 0
-166 382 0
-381 382 0
-166 -381 0
-167 383 0
-382 383 0
-167 -382 0
-168 -383 0
163 164 165 166 167 168 0
-169 385 0
-170 386 0
-385 386 0
-170 -385 0
-171 387 0
-386 387 0
-171 -386 0
-172 388 0
-387 388 0
-172 -387 0
-173 389 0
-388 389 0
-173 -388 0
-174 -389 0
169 170 171 172 173 174 0
-175 391 0
-176 392 0
-391 392 0
-176 -391 0
-177 393 0
-392 393 0
-177 -392 0
-178 394 0
-393 394 0
-178 -393 0
-179 395 0
-394 395 0
-179 -394 0
-180 -395 0
175 176 177 178 179 180 0
-181 397 0
-182 398 0
-397 398 0
-182 -397 0
-183 399 0
-398 399 0
-183 -398 0
-184 400 0
-399 400 0
-184 -399 0
-185 401 0
-400 401 0
-185 -400 0
-186 -401 0
181 182 183 184 185 186 0
-187 403 0
-188 404 0
-403 404 0
-188 -403 0
-189 405 0
-404 405 0
-189 -404 0
-190 406 0
-405 406 0
-190 -405 0
-191 407 0
-406 407 0
-191 -406 0
-192 -407 0
187 188 189 190 191 192 0
-193 409 0
-194 410 0
-409 410 0
-194 -409 0
-195 411 0
-410 411 0
-195 -410 0
-196 412 0
-411 412 0
-196 -411 0
-197 413 0
-412 413 0
-197 -412 0
-198 -413 0
193 194 195 196 197 198 0
-199 415 0
-200 416 0
-415 416 0
-200 -415 0
-201 417 0
-416 417 0
-201 -416 0
-202 418 0
-417 418 0
-202 -417 0
-203 419 0
-418 419 0
-203 -418 0
-204 -419 0
199 200 201 202 203 204 0
-205 421 0
-206 422 0
-421 422 0
-206 -421 0
-207 423 0
-422 423 0
-207 -422 0
-208 424 0
-423 424 0
-208 -423 0
-209 425 0
-424 425 0
-209 -424 0
-210 -425 0
205 206 207 208 209 210 0
-211 427 0
-212 428 0
-427 428 0
-212 -427 0
-213 429 0
-428 429 0
-213 -428 0
-214 430 0
-429 430 0
-214 -429 0
-215 431 0
-430 431 0
-215 -430 0
-216 -431 0
211 212 213 214 215 216 0
-433 1 0
-1 433 0
-434 7 0
-7 434 0
-435 13 0
-13 435 0
-436 19 0
-19 436 0
-437 25 0
-25 437 0
-438 31 0
-31 438 0
-433 439 0
-434 440 0
-439 440 0
-434 -439 0
-435 441 0
-440 441 0
-435 -440 0
-436 442 0
-441 442 0
-436 -441 0
-437 443 0
-442 443 0
-437 -442 0
-438 -443 0
-445 1 2 0
-1 445 0
-2 445 0
-446 7 8 0
-7 446 0
-8 446 0
-447 13 14 0
-13 447 0
-14 447 0
-448 19 20 0
-19 448 0
-20 448 0
-449 25 26 0
-25 449 0
-26 449 0
-450 31 32 0
-31 450 0
-32 450 0
-445 451 0
-452 0
-446 453 0
-451 453 0
-446 -451 454 0
-452 454 0
-446 -452 0
-447 455 0
-453 455 0
-447 -453 456 0
-454 456 0
-447 -454 0
-448 457 0
-455 457 0
-448 -455 458 0
-456 458 0
-448 -456 0
-449 459 0
-457 459 0
-449 -457 460 0
-458 460 0
-449 -458 0
-450 -460 0
-463 1 2 3 0
-1 463 0
-2 463 0
-3 463 0
-464 7 8 9 0
-7 464 0
-8 464 0
-9 464 0
-465 13 14 15 0
-13 465 0
-14 465 0
-15 465 0
-466 19 20 21 0
-19 466 0
-20 466 0
-21 466 0
-467 25 26 27 0
-25 467 0
-26 467 0
-27 467 0
-468 31 32 33 0
-31 468 0
-32 468 0
-33 468 0
-463 469 0
-470 0
-471 0
-464 472 0
-469 472 0
-464 -469 473 0
-470 473 0
-464 -470 474 0
-471 474 0
-464 -471 0
-465 475 0
-472 475 0
-465 -472 476 0
-473 476 0
-465 -473 477 0
-474 477 0
-465 -474 0
-466 478 0
-475 478 0
-466 -475 479 0
-476 479 0
-466 -476 480 0
-477 480 0
-466 -477 0
-467 481 0
-478 481 0
-467 -478 482 0
-479 482 0
-467 -479 483 0
-480 483 0
-467 -480 0
-468 -483 0
-487 1 2 3 4 0
-1 487 0
-2 487 0
-3 487 0
-4 487 0
-488 7 8 9 10 0
-7 488 0
-8 488 0
-9 488 0
-10 488 0
-489 13 14 15 16 0
-13 489 0
-14 489 0
-15 489 0
-16 489 0
-490 19 20 21 22 0
-19 490 0
-20 490 0
-21 490 0
-22 490 0
-491 25 26 27 28 0
-25 491 0
-26 491 0
-27 491 0
-28 491 0
-492 31 32 33 34 0
-31 492 0
-32 492 0
-33 492 0
-34 492 0
-487 493 0
-494 0
-495 0
-496 0
-488 497 0
-493 497 0
-488 -493 498 0
-494 498 0
-488 -494 499 0
-495 499 0
-488 -495 500 0
-496 500 0
-488 -496 0
-489 501 0
-497 501 0
-489 -497 502 0
-498 502 0
-489 -498 503 0
-499 503 0
-489 -499 504 0
-500 504 0
-489 -500 0
-490 505 0
-501 505 0
-490 -501 506 0
-502 506 0
-490 -502 507 0
-503 507 0
-490 -503 508 0
-504 508 0
-490 -504 0
-491 509 0
-505 509 0
-491 -505 510 0
-506 510 0
-491 -506 511 0
-507 511 0
-491 -507 512 0
-508 512 0
-491 -508 0
-492 -512 0
-517 1 2 3 4 5 0
-1 517 0
-2 517 0
-3 517 0
-4 517 0
-5 517 0
-518 7 8 9 10 11 0
-7 518 0
-8 518 0
-9 518 0
-10 518 0
-11 518 0
-519 13 14 15 16 17 0
-13 519 0
-14 519 0
-15 519 0
-16 519 0
-17 519 0
-520 19 20 21 22 23 0
-19 520 0
-20 520 0
-21 520 0
-22 520 0
-23 520 0
-521 25 26 27 28 29 0
-25 521 0
-26 521 0
-27 521 0
-28 521 0
-29 521 0
-522 31 32 33 34 35 0
-31 522 0
-32 522 0
-33 522 0
-34 522 0
-35 522 0
-517 523 0
-524 0
-525 0
-526 0
-527 0
-518 528 0
-523 528 0
-518 -523 529 0
-524 529 0
-518 -524 530 0
-525 530 0
-518 -525 531 0
-526 531 0
-518 -526 532 0
-527 532 0
-518 -527 0
-519 533 0
-528 533 0
-519 -528 534 0
-529 534 0
-519 -529 535 0
-530 535 0
-519 -530 536 0
-531 536 0
-519 -531 537 0
-532 537 0
-519 -532 0
-520 538 0
-533 538 0
-520 -533 539 0
-534 539 0
-520 -534 540 0
-535 540 0
-520 -535 541 0
-536 541 0
-520 -536 542 0
-537 542 0
-520 -537 0
-521 543 0
-538 543 0
-521 -538 544 0
-539 544 0
-521 -539 545 0
-540 545 0
-521 -540 546 0
-541 546 0
-521 -541 547 0
-542 547 0
-521 -542 0
-522 -547 0
-553 1 2 3 4 5 6 0
-1 553 0
-2 553 0
-3 553 0
-4 553 0
-5 553 0
-6 553 0
-554 7 8 9 10 11 12 0
-7 554 0
-8 554 0
-9 554 0
-10 554 0
-11 554 0
-12 554 0
-555 13 14 15 16 17 18 0
-13 555 0
-14 555 0
-15 555 0
-16 555 0
-17 555 0
-18 555 0
-556 19 20 21 22 23 24 0
-19 556 0
-20 556 0
-21 556 0
-22 556 0
-23 556 0
-24 556 0
-557 25 26 27 28 29 30 0
-25 557 0
-26 557 0
-27 557 0
-28 557 0
-29 557 0
-30 557 0
-558 31 32 33 34 35 36 0
-31 558 0
-32 558 0
-33 558 0
-34 558 0
-35 558 0
-36 558 0
-559 2 0
-2 559 0
-560 8 0
-8 560 0
-561 14 0
-14 561 0
-562 20 0
-20 562 0
-563 26 0
-26 563 0
-564 32 0
-32 564 0
-559 565 0
-560 566 0
-565 566 0
-560 -565 0
-561 567 0
-566 567 0
-561 -566 0
-562 568 0
-567 568 0
-562 -567 0
-563 569 0
-568 569 0
-563 -568 0
-564 -569 0
-571 2 3 0
-2 571 0
-3 571 0
-572 8 9 0
-8 572 0
-9 572 0
-573 14 15 0
-14 573 0
-15 573 0
-574 20 21 0
-20 574 0
-21 574 0
-575 26 27 0
-26 575 0
-27 575 0
-576 32 33 0
-32 576 0
-33 576 0
-571 577 0
-578 0
-572 579 0
-577 579 0
-572 -577 580 0
-578 580 0
-572 -578 0
-573 581 0
-579 581 0
-573 -579 582 0
-580 582 0
-573 -580 0
-574 583 0
-581 583 0
-574 -581 584 0
-582 584 0
-574 -582 0
-575 585 0
-583 585 0
-575 -583 586 0
-584 586 0
-575 -584 0
-576 -586 0
-589 2 3 4 0
-2 589 0
-3 589 0
-4 589 0
-590 8 9 10 0
-8 590 0
-9 590 0
-10 590 0
-591 14 15 16 0
-14 591 0
-15 591 0
-16 591 0
-592 20 21 22 0
-20 592 0
-21 592 0
-22 592 0
-593 26 27 28 0
-26 593 0
-27 593 0
-28 593 0
-594 32 33 34 0
-32 594 0
-33 594 0
-34 594 0
-589 595 0
-596 0
-597 0
-590 598 0
-595 598 0
-590 -595 599 0
-596 599 0
-590 -596 600 0
-597 600 0
-590 -597 0
-591 601 0
-598 601 0
-591 -598 602 0
-599 602 0
-591 -599 603 0
-600 603 0
-591 -600 0
-592 604 0
-601 604 0
-592 -601 605 0
-602 605 0
-592 -602 606 0
-603 606 0
-592 -603 0
-593 607 0
-604 607 0
-593 -604 608 0
-605 608 0
-593 -605 609 0
-606 609 0
-593 -606 0
-594 -609 0
-613 2 3 4 5 0
-2 613 0
-3 613 0
-4 613 0
-5 613 0
-614 8 9 10 11 0
-8 614 0
-9 614 0
-10 614 0
-11 614 0
-615 14 15 16 17 0
-14 615 0
-15 615 0
-16 615 0
-17 615 0
-616 20 21 22 23 0
-20 616 0
-21 616 0
-22 616 0
-23 616 0
-617 26 27 28 29 0
-26 617 0
-27 617 0
-28 617 0
-29 617 0
-618 32 33 34 35 0
-32 618 0
-33 618 0
-34 618 0
-35 618 0
-613 619 0
-620 0
-621 0
-622 0
-614 623 0
-619 623 0
-614 -619 624 0
-620 624 0
-614 -620 625 0
-621 625 0
-614 -621 626 0
-622 626 0
-614 -622 0
-615 627 0
-623 627 0
-615 -623 628 0
-624 628 0
-615 -624 629 0
-625 629 0
-615 -625 630 0
-626 630 0
-615 -626 0
-616 631 0
-627 631 0
-616 -627 632 0
-628 632 0
-616 -628 633 0
-629 633 0
-616 -629 634 0
-630 634 0
-616 -630 0
-617 635 0
-631 635 0
-617 -631 636 0
-632 636 0
-617 -632 637 0
-633 637 0
-617 -633 638 0
-634 638 0
-617 -634 0
-618 -638 0
-643 2 3 4 5 6 0
-2 643 0
-3 643 0
-4 643 0
-5 643 0
-6 643 0
-644 8 9 10 11 12 0
-8 644 0
-9 644 0
-10 644 0
-11 644 0
-12 644 0
-645 14 15 16 17 18 0
-14 645 0
-15 645 0
-16 645 0
-17 645 0
-18 645 0
-646 20 21 22 23 24 0
-20 646 0
-21 646 0
-22 646 0
-23 646 0
-24 646 0
-647 26 27 28 29 30 0
-26 647 0
-27 647 0
-28 647 0
-29 647 0
-30 647 0
-648 32 33 34 35 36 0
-32 648 0
-33 648 0
-34 648 0
-35 648 0
-36 648 0
-643 649 0
-650 0
-651 0
-652 0
-653 0
-644 654 0
-649 654 0
-644 -649 655 0
-650 655 0
-644 -650 656 0
-651 656 0
-644 -651 657 0
-652 657 0
-644 -652 658 0
-653 658 0
-644 -653 0
-645 659 0
-654 659 0
-645 -654 660 0
-655 660 0
-645 -655 661 0
-656 661 0
-645 -656 662 0
-657 662 0
-645 -657 663 0
-658 663 0
-645 -658 0
-646 664 0
-659 664 0
-646 -659 665 0
-660 665 0
-646 -660 666 0
-661 666 0
-646 -661 667 0
-662 667 0
-646 -662 668 0
-663 668 0
-646 -663 0
-647 669 0
-664 669 0
-647 -664 670 0
-665 670 0
-647 -665 671 0
-666 671 0
-647 -666 672 0
-667 672 0
-647 -667 673 0
-668 673 0
-647 -668 0
-648 -673 0
-679 3 0
-3 679 0
-680 9 0
-9 680 0
-681 15 0
-15 681 0
-682 21 0
-21 682 0
-683 27 0
-27 683 0
-684 33 0
-33 684 0
-679 685 0
-680 686 0
-685 686 0
-680 -685 0
-681 687 0
-686 687 0
-681 -686 0
-682 688 0
-687 688 0
-682 -687 0
-683 689 0
-688 689 0
-683 -688 0
-684 -689 0
-691 3 4 0
-3 691 0
-4 691 0
-692 9 10 0
-9 692 0
-10 692 0
-693 15 16 0
-15 693 0
-16 693 0
-694 21 22 0
-21 694 0
-22 694 0
-695 27 28 0
-27 695 0
-28 695 0
-696 33 34 0
-33 696 0
-34 696 0
-691 697 0
-698 0
-692 699 0
-697 699 0
-692 -697 700 0
-698 700 0
-692 -698 0
-693 701 0
-699 701 0
-693 -699 702 0
-700 702 0
-693 -700 0
-694 703 0
-701 703 0
-694 -701 704 0
-702 704 0
-694 -702 0
-695 705 0
-703 705 0
-695 -703 706 0
-704 706 0
-695 -704 0
-696 -706 0
-709 3 4 5 0
-3 709 0
-4 709 0
-5 709 0
-710 9 10 11 0
-9 710 0
-10 710 0
-11 710 0
-711 15 16 17 0
-15 711 0
-16 711 0
-17 711 0
-712 21 22 23 0
-21 712 0
-22 712 0
-23 712 0
-713 27 28 29 0
-27 713 0
-28 713 0
-29 713 0
-714 33 34 35 0
-33 714 0
-34 714 0
-35 714 0
-709 715 0
-716 0
-717 0
-710 718 0
-715 718 0
-710 -715 719 0
-716 719 0
-710 -716 720 0
-717 720 0
-710 -717 0
-711 721 0
-718 721 0
-711 -718 722 0
-719 722 0
-711 -719 723 0
-720 723 0
-711 -720 0
-712 724 0
-721 724 0
-712 -721 725 0
-722 725 0
-712 -722 726 0
-723 726 0
-712 -723 0
-713 727 0
-724 727 0
-713 -724 728 0
-725 728 0
-713 -725 729 0
-726 729 0
-713 -726 0
-714 -729 0
-733 3 4 5 6 0
-3 733 0
-4 733 0
-5 733 0
-6 733 0
-734 9 10 11 12 0
-9 734 0
-10 734 0
-11 734 0
-12 734 0
-735 15 16 17 18 0
-15 735 0
-16 735 0
-17 735 0
-18 735 0
-736 21 22 23 24 0
-21 736 0
-22 736 0
-23 736 0
-24 736 0
-737 27 28 29 30 0
-27 737 0
-28 737 0
-29 737 0
-30 737 0
-738 33 34 35 36 0
-33 738 0
-34 738 0
-35 738 0
-36 738 0
-733 739 0
-740 0
-741 0
-742 0
-734 743 0
-739 743 0
-734 -739 744 0
-740 744 0
-734 -740 745 0
-741 745 0
-734 -741 746 0
-742 746 0
-734 -742 0
-735 747 0
-743 747 0
-735 -743 748 0
-744 748 0
-735 -744 749 0
-745 749 0
-735 -745 750 0
-746 750 0
-735 -746 0
-736 751 0
-747 751 0
-736 -747 752 0
-748 752 0
-736 -748 753 0
-749 753 0
-736 -749 754 0
-750 754 0
-736 -750 0
-737 755 0
-751 755 0
-737 -751 756 0
-752 756 0
-737 -752 757 0
-753 757 0
-737 -753 758 0
-754 758 0
-737 -754 0
-738 -758 0
-763 4 0
-4 763 0
-764 10 0
-10 764 0
-765 16 0
-16 765 0
-766 22 0
-22 766 0
-767 28 0
-28 767 0
-768 34 0
-34 768 0
-763 769 0
-764 770 0
-769 770 0
-764 -769 0
-765 771 0
-770 771 0
-765 -770 0
-766 772 0
-771 772 0
-766 -771 0
-767 773 0
-772 773 0
-767 -772 0
-768 -773 0
-775 4 5 0
-4 775 0
-5 775 0
-776 10 11 0
-10 776 0
-11 776 0
-777 16 17 0
-16 777 0
-17 777 0
-778 22 23 0
-22 778 0
-23 778 0
-779 28 29 0
-28 779 0
-29 779 0
-780 34 35 0
-34 780 0
-35 780 0
-775 781 0
-782 0
-776 783 0
-781 783 0
-776 -781 784 0
-782 784 0
-776 -782 0
-777 785 0
-783 785 0
-777 -783 786 0
-784 786 0
-777 -784 0
-778 787 0
-785 787 0
-778 -785 788 0
-786 788 0
-778 -786 0
-779 789 0
-787 789 0
-779 -787 790 0
-788 790 0
-779 -788 0
-780 -790 0
-793 4 5 6 0
-4 793 0
-5 793 0
-6 793 0
-794 10 11 12 0
-10 794 0
-11 794 0
-12 794 0
-795 16 17 18 0
-16 795 0
-17 795 0
-18 795 0
-796 22 23 24 0
-22 796 0
-23 796 0
-24 796 0
-797 28 29 30 0
-28 797 0
-29 797 0
-30 797 0
-798 34 35 36 0
-34 798 0
-35 798 0
-36 798 0
-793 799 0
-800 0
-801 0
-794 802 0
-799 802 0
-794 -799 803 0
-800 803 0
-794 -800 804 0
-801 804 0
-794 -801 0
-795 805 0
-802 805 0
-795 -802 806 0
-803 806 0
-795 -803 807 0
-804 807 0
-795 -804 0
-796 808 0
-805 808 0
-796 -805 809 0
-806 809 0
-796 -806 810 0
-807 810 0
-796 -807 0
-797 811 0
-808 811 0
-797 -808 812 0
-809 812 0
-797 -809 813 0
-810 813 0
-797 -810 0
-798 -813 0
-817 5 0
-5 817 0
-818 11 0
-11 818 0
-819 17 0
-17 819 0
-820 23 0
-23 820 0
-821 29 0
-29 821 0
-822 35 0
-35 822 0
-817 823 0
-818 824 0
-823 824 0
-818 -823 0
-819 825 0
-824 825 0
-819 -824 0
-820 826 0
-825 826 0
-820 -825 0
-821 827 0
-826 827 0
-821 -826 0
-822 -827 0
-829 5 6 0
-5 829 0
-6 829 0
-830 11 12 0
-11 830 0
-12 830 0
-831 17 18 0
-17 831 0
-18 831 0
-832 23 24 0
-23 832 0
-24 832 0
-833 29 30 0
-29 833 0
-30 833 0
-834 35 36 0
-35 834 0
-36 834 0
-829 835 0
-836 0
-830 837 0
-835 837 0
-830 -835 838 0
-836 838 0
-830 -836 0
-831 839 0
-837 839 0
-831 -837 840 0
-838 840 0
-831 -838 0
-832 841 0
-839 841 0
-832 -839 842 0
-840 842 0
-832 -840 0
-833 843 0
-841 843 0
-833 -841 844 0
-842 844 0
-833 -842 0
-834 -844 0
-847 6 0
-6 847 0
-848 12 0
-12 848 0
-849 18 0
-18 849 0
-850 24 0
-24 850 0
-851 30 0
-30 851 0
-852 36 0
-36 852 0
-847 853 0
-848 854 0
-853 854 0
-848 -853 0
-849 855 0
-854 855 0
-849 -854 0
-850 856 0
-855 856 0
-850 -855 0
-851 857 0
-856 857 0
-851 -856 0
-852 -857 0
-859 37 0
-37 859 0
-860 43 0
-43 860 0
-861 49 0
-49 861 0
-862 55 0
-55 862 0
-863 61 0
-61 863 0
-864 67 0
-67 864 0
-859 865 0
-860 866 0
-865 866 0
-860 -865 0
-861 867 0
-866 867 0
-861 -866 0
-862 868 0
-867 868 0
-862 -867 0
-863 869 0
-868 869 0
-863 -868 0
-864 -869 0
-871 37 38 0
-37 871 0
-38 871 0
-872 43 44 0
-43 872 0
-44 872 0
-873 49 50 0
-49 873 0
-50 873 0
-874 55 56 0
-55 874 0
-56 874 0
-875 61 62 0
-61 875 0
-62 875 0
-876 67 68 0
-67 876 0
-68 876 0
-871 877 0
-878 0
-872 879 0
-877 879 0
-872 -877 880 0
-878 880 0
-872 -878 0
-873 881 0
-879 881 0
-873 -879 882 0
-880 882 0
-873 -880 0
-874 883 0
-881 883 0
-874 -881 884 0
-882 884 0
-874 -882 0
-875 885 0
-883 885 0
-875 -883 886 0
-884 886 0
-875 -884 0
-876 -886 0
-889 37 38 39 0
-37 889 0
-38 889 0
-39 889 0
-890 43 44 45 0
-43 890 0
-44 890 0
-45 890 0
-891 49 50 51 0
-49 891 0
-50 891 0
-51 891 0
-892 55 56 57 0
-55 892 0
-56 892 0
-57 892 0
-893 61 62 63 0
-61 893 0
-62 893 0
-63 893 0
-894 67 68 69 0
-67 894 0
-68 894 0
-69 894 0
-889 895 0
-896 0
-897 0
-890 898 0
-895 898 0
-890 -895 899 0
-896 899 0
-890 -896 900 0
-897 900 0
-890 -897 0
-891 901 0
-898 901 0
-891 -898 902 0
-899 902 0
-891 -899 903 0
-900 903 0
-891 -900 0
-892 904 0
-901 904 0
-892 -901 905 0
-902 905 0
-892 -902 906 0
-903 906 0
-892 -903 0
-893 907 0
-904 907 0
-893 -904 908 0
-905 908 0
-893 -905 909 0
-906 909 0
-893 -906 0
-894 -909 0
-913 37 38 39 40 0
-37 913 0
-38 913 0
-39 913 0
-40 913 0
-914 43 44 45 46 0
-43 914 0
-44 914 0
-45 914 0
-46 914 0
-915 49 50 51 52 0
-49 915 0
-50 915 0
-51 915 0
-52 915 0
-916 55 56 57 58 0
-55 916 0
-56 916 0
-57 916 0
-58 916 0
-917 61 62 63 64 0
-61 917 0
-62 917 0
-63 917 0
-64 917 0
-918 67 68 69 70 0
-67 918 0
-68 918 0
-69 918 0
-70 918 0
-913 919 0
-920 0
-921 0
-922 0
-914 923 0
-919 923 0
-914 -919 924 0
-920 924 0
-914 -920 925 0
-921 925 0
-914 -921 926 0
-922 926 0
-914 -922 0
-915 927 0
-923 927 0
-915 -923 928 0
-924 928 0
-915 -924 929 0
-925 929 0
-915 -925 930 0
-926 930 0
-915 -926 0
-916 931 0
-927 931 0
-916 -927 932 0
-928 932 0
-916 -928 933 0
-929 933 0
-916 -929 934 0
-930 934 0
-916 -930 0
-917 935 0
-931 935 0
-917 -931 936 0
-932 936 0
-917 -932 937 0
-933 937 0
-917 -933 938 0
-934 938 0
-917 -934 0
-918 -938 0
-943 37 38 39 40 41 0
-37 943 0
-38 943 0
-39 943 0
-40 943 0
-41 943 0
-944 43 44 45 46 47 0
-43 944 0
-44 944 0
-45 944 0
-46 944 0
-47 944 0
-945 49 50 51 52 53 0
-49 945 0
-50 945 0
-51 945 0
-52 945 0
-53 945 0
-946 55 56 57 58 59 0
-55 946 0
-56 946 0
-57 946 0
-58 946 0
-59 946 0
-947 61 62 63 64 65 0
-61 947 0
-62 947 0
-63 947 0
-64 947 0
-65 947 0
-948 67 68 69 70 71 0
-67 948 0
-68 948 0
-69 948 0
-70 948 0
-71 948 0
-943 949 0
-950 0
-951 0
-952 0
-953 0
-944 954 0
-949 954 0
-944 -949 955 0
-950 955 0
-944 -950 956 0
-951 956 0
-944 -951 957 0
-952 957 0
-944 -952 958 0
-953 958 0
-944 -953 0
-945 959 0
-954 959 0
-945 -954 960 0
-955 960 0
-945 -955 961 0
-956 961 0
-945 -956 962 0
-957 962 0
-945 -957 963 0
-958 963 0
-945 -958 0
-946 964 0
-959 964 0
-946 -959 965 0
-960 965 0
-946 -960 966 0
-961 966 0
-946 -961 967 0
-962 967 0
-946 -962 968 0
-963 968 0
-946 -963 0
-947 969 0
-964 969 0
-947 -964 970 0
-965 970 0
-947 -965 971 0
-966 971 0
-947 -966 972 0
-967 972 0
-947 -967 973 0
-968 973 0
-947 -968 0
-948 -973 0
-979 37 38 39 40 41 42 0
-37 979 0
-38 979 0
-39 979 0
-40 979 0
-41 979 0
-42 979 0
-980 43 44 45 46 47 48 0
-43 980 0
-44 980 0
-45 980 0
-46 980 0
-47 980 0
-48 980 0
-981 49 50 51 52 53 54 0
-49 981 0
-50 981 0
-51 981 0
-52 981 0
-53 981 0
-54 981 0
-982 55 56 57 58 59 60 0
-55 982 0
-56 982 0
-57 982 0
-58 982 0
-59 982 0
-60 982 0
-983 61 62 63 64 65 66 0
-61 983 0
-62 983 0
-63 983 0
-64 983 0
-65 983 0
-66 983 0
-984 67 68 69 70 71 72 0
-67 984 0
-68 984 0
-69 984 0
-70 984 0
-71 984 0
-72 984 0
-985 38 0
-38 985 0
-986 44 0
-44 986 0
-987 50 0
-50 987 0
-988 56 0
-56 988 0
-989 62 0
-62 989 0
-990 68 0
-68 990 0
-985 991 0
-986 992 0
-991 992 0
-986 -991 0
-987 993 0
-992 993 0
-987 -992 0
-988 994 0
-993 994 0
-988 -993 0
-989 995 0
-994 995 0
-989 -994 0
-990 -995 0
-997 38 39 0
-38 997 0
-39 997 0
-998 44 45 0
-44 998 0
-45 998 0
-999 50 51 0
-50 999 0
-51 999 0
-1000 56 57 0
-56 1000 0
-57 1000 0
-1001 62 63 0
-62 1001 0
-63 1001 0
-1002 68 69 0
-68 1002 0
-69 1002 0
-997 1003 0
-1004 0
-998 1005 0
-1003 1005 0
-998 -1003 1006 0
-1004 1006 0
-998 -1004 0
-999 1007 0
-1005 1007 0
-999 -1005 1008 0
-1006 1008 0
-999 -1006 0
-1000 1009 0
-1007 1009 0
-1000 -1007 1010 0
-1008 1010 0
-1000 -1008 0
-1001 1011 0
-1009 1011 0
-1001 -1009 1012 0
-1010 1012 0
-1001 -1010 0
-1002 -1012 0
-1015 38 39 40 0
-38 1015 0
-39 1015 0
-40 1015 0
-1016 44 45 46 0
-44 1016 0
-45 1016 0
-46 1016 0
-1017 50 51 52 0
-50 1017 0
-51 1017 0
-52 1017 0
-1018 56 57 58 0
-56 1018 0
-57 1018 0
-58 1018 0
-1019 62 63 64 0
-62 1019 0
-63 1019 0
-64 1019 0
-1020 68 69 70 0
-68 1020 0
-69 1020 0
-70 1020 0
-1015 1021 0
-1022 0
-1023 0
-1016 1024 0
-1021 1024 0
-1016 -1021 1025 0
-1022 1025 0
-1016 -1022 1026 0
-1023 1026 0
-1016 -1023 0
-1017 1027 0
-1024 1027 0
-1017 -1024 1028 0
-1025 1028 0
-1017 -1025 1029 0
-1026 1029 0
-1017 -1026 0
-1018 1030 0
-1027 1030 0
-1018 -1027 1031 0
-1028 1031 0
-1018 -1028 1032 0
-1029 1032 0
-1018 -1029 0
-1019 1033 0
-1030 1033 0
-1019 -1030 1034 0
-1031 1034 0
-1019 -1031 1035 0
-1032 1035 0
-1019 -1032 0
-1020 -1035 0
-1039 38 39 40 41 0
-38 1039 0
-39 1039 0
-40 1039 0
-41 1039 0
-1040 44 45 46 47 0
-44 1040 0
-45 1040 0
-46 1040 0
-47 1040 0
-1041 50 51 52 53 0
-50 1041 0
-51 1041 0
-52 1041 0
-53 1041 0
-1042 56 57 58 59 0
-56 1042 0
-57 1042 0
-58 1042 0
-59 1042 0
-1043 62 63 64 65 0
-62 1043 0
-63 1043 0
-64 1043 0
-65 1043 0
-1044 68 69 70 71 0
-68 1044 0
-69 1044 0
-70 1044 0
-71 1044 0
-1039 1045 0
-1046 0
-1047 0
-1048 0
-1040 1049 0
-1045 1049 0
-1040 -1045 1050 0
-1046 1050 0
-1040 -1046 1051 0
-1047 1051 0
-1040 -1047 1052 0
-1048 1052 0
-1040 -1048 0
-1041 1053 0
-1049 1053 0
-1041 -1049 1054 0
-1050 1054 0
-1041 -1050 1055 0
-1051 1055 0
-1041 -1051 1056 0
-1052 1056 0
-1041 -1052 0
-1042 1057 0
-1053 1057 0
-1042 -1053 1058 0
-1054 1058 0
-1042 -1054 1059 0
-1055 1059 0
-1042 -1055 1060 0
-1056 1060 0
-1042 -1056 0
-1043 1061 0
-1057 1061 0
-1043 -1057 1062 0
-1058 1062 0
-1043 -1058 1063 0
-1059 1063 0
-1043 -1059 1064 0
-1060 1064 0
-1043 -1060 0
-1044 -1064 0
-1069 38 39 40 41 42 0
-38 1069 0
-39 1069 0
-40 1069 0
-41 1069 0
-42 1069 0
-1070 44 45 46 47 48 0
-44 1070 0
-45 1070 0
-46 1070 0
-47 1070 0
-48 1070 0
-1071 50 51 52 53 54 0
-50 1071 0
-51 1071 0
-52 1071 0
-53 1071 0
-54 1071 0
-1072 56 57 58 59 60 0
-56 1072 0
-57 1072 0
-58 1072 0
-59 1072 0
-60 1072 0
-1073 62 63 64 65 66 0
-62 1073 0
-63 1073 0
-64 1073 0
-65 1073 0
-66 1073 0
-1074 68 69 70 71 72 0
-68 1074 0
-69 1074 0
-70 1074 0
-71 1074 0
-72 1074 0
-1069 1075 0
-1076 0
-1077 0
-1078 0
-1079 0
-1070 1080 0
-1075 1080 0
-1070 -1075 1081 0
-1076 1081 0
-1070 -1076 1082 0
-1077 1082 0
-1070 -1077 1083 0
-1078 1083 0
-1070 -1078 1084 0
-1079 1084 0
-1070 -1079 0
-1071 1085 0
-1080 1085 0
-1071 -1080 1086 0
-1081 1086 0
-1071 -1081 1087 0
-1082 1087 0
-1071 -1082 1088 0
-1083 1088 0
-1071 -1083 1089 0
-1084 1089 0
-1071 -1084 0
-1072 1090 0
-1085 1090 0
-1072 -1085 1091 0
-1086 1091 0
-1072 -1086 1092 0
-1087 1092 0
-1072 -1087 1093 0
-1088 1093 0
-1072 -1088 1094 0
-1089 1094 0
-1072 -1089 0
-1073 1095 0
-1090 1095 0
-1073 -1090 1096 0
-1091 1096 0
-1073 -1091 1097 0
-1092 1097 0
-1073 -1092 1098 0
-1093 1098 0
-1073 -1093 1099 0
-1094 1099 0
-1073 -1094 0
-1074 -1099 0
-1105 39 0
-39 1105 0
-1106 45 0
-45 1106 0
-1107 51 0
-51 1107 0
-1108 57 0
-57 1108 0
-1109 63 0
-63 1109 0
-1110 69 0
-69 1110 0
-1105 1111 0
-1106 1112 0
-1111 1112 0
-1106 -1111 0
-1107 1113 0
-1112 1113 0
-1107 -1112 0
-1108 1114 0
-1113 1114 0
-1108 -1113 0
-1109 1115 0
-1114 1115 0
-1109 -1114 0
-1110 -1115 0
-1117 39 40 0
-39 1117 0
-40 1117 0
-1118 45 46 0
-45 1118 0
-46 1118 0
-1119 51 52 0
-51 1119 0
-52 1119 0
-1120 57 58 0
-57 1120 0
-58 1120 0
-1121 63 64 0
-63 1121 0
-64 1121 0
-1122 69 70 0
-69 1122 0
-70 1122 0
-1117 1123 0
-1124 0
-1118 1125 0
-1123 1125 0
-1118 -1123 1126 0
-1124 1126 0
-1118 -1124 0
-1119 1127 0
-1125 1127 0
-1119 -1125 1128 0
-1126 1128 0
-1119 -1126 0
-1120 1129 0
-1127 1129 0
-1120 -1127 1130 0
-1128 1130 0
-1120 -1128 0
-1121 1131 0
-1129 1131 0
-1121 -1129 1132 0
-1130 1132 0
-1121 -1130 0
-1122 -1132 0
-1135 39 40 41 0
-39 1135 0
-40 1135 0
-41 1135 0
-1136 45 46 47 0
-45 1136 0
-46 1136 0
-47 1136 0
-1137 51 52 53 0
-51 1137 0
-52 1137 0
-53 1137 0
-1138 57 58 59 0
-57 1138 0
-58 1138 0
-59 1138 0
-1139 63 64 65 0
-63 1139 0
-64 1139 0
-65 1139 0
-1140 69 70 71 0
-69 1140 0
-70 1140 0
-71 1140 0
-1135 1141 0
-1142 0
-1143 0
-1136 1144 0
-1141 1144 0
-1136 -1141 1145 0
-1142 1145 0
-1136 -1142 1146 0
-1143 1146 0
-1136 -1143 0
-1137 1147 0
-1144 1147 0
-1137 -1144 1148 0
-1145 1148 0
-1137 -1145 1149 0
-1146 1149 0
-1137 -1146 0
-1138 1150 0
-1147 1150 0
-1138 -1147 1151 0
-1148 1151 0
-1138 -1148 1152 0
-1149 1152 0
-1138 -1149 0
-1139 1153 0
-1150 1153 0
-1139 -1150 1154 0
-1151 1154 0
-1139 -1151 1155 0
-1152 1155 0
-1139 -1152 0
-1140 -1155 0
-1159 39 40 41 42 0
-39 1159 0
-40 1159 0
-41 1159 0
-42 1159 0
-1160 45 46 47 48 0
-45 1160 0
-46 1160 0
-47 1160 0
-48 1160 0
-1161 51 52 53 54 0
-51 1161 0
-52 1161 0
-53 1161 0
-54 1161 0
-1162 57 58 59 60 0
-57 1162 0
-58 1162 0
-59 1162 0
-60 1162 0
-1163 63 64 65 66 0
-63 1163 0
-64 1163 0
-65 1163 0
-66 1163 0
-1164 69 70 71 72 0
-69 1164 0
-70 1164 0
-71 1164 0
-72 1164 0
-1159 1165 0
-1166 0
-1167 0
-1168 0
-1160 1169 0
-1165 1169 0
-1160 -1165 1170 0
-1166 1170 0
-1160 -1166 1171 0
-1167 1171 0
-1160 -1167 1172 0
-1168 1172 0
-1160 -1168 0
-1161 1173 0
-1169 1173 0
-1161 -1169 1174 0
-1170 1174 0
-1161 -1170 1175 0
-1171 1175 0
-1161 -1171 1176 0
-1172 1176 0
-1161 -1172 0
-1162 1177 0
-1173 1177 0
-1162 -1173 1178 0
-1174 1178 0
-1162 -1174 1179 0
-1175 1179 0
-1162 -1175 1180 0
-1176 1180 0
-1162 -1176 0
-1163 1181 0
-1177 1181 0
-1163 -1177 1182 0
-1178 1182 0
-1163 -1178 1183 0
-1179 1183 0
-1163 -1179 1184 0
-1180 1184 0
-1163 -1180 0
-1164 -1184 0
-1189 40 0
-40 1189 0
-1190 46 0
-46 1190 0
-1191 52 0
-52 1191 0
-1192 58 0
-58 1192 0
-1193 64 0
-64 1193 0
-1194 70 0
-70 1194 0
-1189 1195 0
-1190 1196 0
-1195 1196 0
-1190 -1195 0
-1191 1197 0
-1196 1197 0
-1191 -1196 0
-1192 1198 0
-1197 1198 0
-1192 -1197 0
-1193 1199 0
-1198 1199 0
-1193 -1198 0
-1194 -1199 0
-1201 40 41 0
-40 1201 0
-41 1201 0
-1202 46 47 0
-46 1202 0
-47 1202 0
-1203 52 53 0
-52 1203 0
-53 1203 0
-1204 58 59 0
-58 1204 0
-59 1204 0
-1205 64 65 0
-64 1205 0
-65 1205 0
-1206 70 71 0
-70 1206 0
-71 1206 0
-1201 1207 0
-1208 0
-1202 1209 0
-1207 1209 0
-1202 -1207 1210 0
-1208 1210 0
-1202 -1208 0
-1203 1211 0
-1209 1211 0
-1203 -1209 1212 0
-1210 1212 0
-1203 -1210 0
-1204 1213 0
-1211 1213 0
-1204 -1211 1214 0
-1212 1214 0
-1204 -1212 0
-1205 1215 0
-1213 1215 0
-1205 -1213 1216 0
-1214 1216 0
-1205 -1214 0
-1206 -1216 0
-1219 40 41 42 0
-40 1219 0
-41 1219 0
-42 1219 0
-1220 46 47 48 0
-46 1220 0
-47 1220 0
-48 1220 0
-1221 52 53 54 0
-52 1221 0
-53 1221 0
-54 1221 0
-1222 58 59 60 0
-58 1222 0
-59 1222 0
-60 1222 0
-1223 64 65 66 0
-64 1223 0
-65 1223 0
-66 1223 0
-1224 70 71 72 0
-70 1224 0
-71 1224 0
-72 1224 0
-1219 1225 0
-1226 0
-1227 0
-1220 1228 0
-1225 1228 0
-1220 -1225 1229 0
-1226 1229 0
-1220 -1226 1230 0
-1227 1230 0
-1220 -1227 0
-1221 1231 0
-1228 1231 0
-1221 -1228 1232 0
-1229 1232 0
-1221 -1229 1233 0
-1230 1233 0
-1221 -1230 0
-1222 1234 0
-1231 1234 0
-1222 -1231 1235 0
-1232 1235 0
-1222 -1232 1236 0
-1233 1236 0
-1222 -1233 0
-1223 1237 0
-1234 1237 0
-1223 -1234 1238 0
-1235 1238 0
-1223 -1235 1239 0
-1236 1239 0
-1223 -1236 0
-1224 -1239 0
-1243 41 0
-41 1243 0
-1244 47 0
-47 1244 0
-1245 53 0
-53 1245 0
-1246 59 0
-59 1246 0
-1247 65 0
-65 1247 0
-1248 71 0
-71 1248 0
-1243 1249 0
-1244 1250 0
-1249 1250 0
-1244 -1249 0
-1245 1251 0
-1250 1251 0
-1245 -1250 0
-1246 1252 0
-1251 1252 0
-1246 -1251 0
-1247 1253 0
-1252 1253 0
-1247 -1252 0
-1248 -1253 0
-1255 41 42 0
-41 1255 0
-42 1255 0
-1256 47 48 0
-47 1256 0
-48 1256 0
-1257 53 54 0
-53 1257 0
-54 1257 0
-1258 59 60 0
-59 1258 0
-60 1258 0
-1259 65 66 0
-65 1259 0
-66 1259 0
-1260 71 72 0
-71 1260 0
-72 1260 0
-1255 1261 0
-1262 0
-1256 1263 0
-1261 1263 0
-1256 -1261 1264 0
-1262 1264 0
-1256 -1262 0
-1257 1265 0
-1263 1265 0
-1257 -1263 1266 0
-1264 1266 0
-1257 -1264 0
-1258 1267 0
-1265 1267 0
-1258 -1265 1268 0
-1266 1268 0
-1258 -1266 0
-1259 1269 0
-1267 1269 0
-1259 -1267 1270 0
-1268 1270 0
-1259 -1268 0
-1260 -1270 0
-1273 42 0
-42 1273 0
-1274 48 0
-48 1274 0
-1275 54 0
-54 1275 0
-1276 60 0
-60 1276 0
-1277 66 0
-66 1277 0
-1278 72 0
-72 1278 0
-1273 1279 0
-1274 1280 0
-1279 1280 0
-1274 -1279 0
-1275 1281 0
-1280 1281 0
-1275 -1280 0
-1276 1282 0
-1281 1282 0
-1276 -1281 0
-1277 1283 0
-1282 1283 0
-1277 -1282 0
-1278 -1283 0
-1285 73 0
-73 1285 0
-1286 79 0
-79 1286 0
-1287 85 0
-85 1287 0
-1288 91 0
-91 1288 0
-1289 97 0
-97 1289 0
-1290 103 0
-103 1290 0
-1285 1291 0
-1286 1292 0
-1291 1292 0
-1286 -1291 0
-1287 1293 0
-1292 1293 0
-1287 -1292 0
-1288 1294 0
-1293 1294 0
-1288 -1293 0
-1289 1295 0
-1294 1295 0
-1289 -1294 0
-1290 -1295 0
-1297 73 74 0
-73 1297 0
-74 1297 0
-1298 79 80 0
-79 1298 0
-80 1298 0
-1299 85 86 0
-85 1299 0
-86 1299 0
-1300 91 92 0
-91 1300 0
-92 1300 0
-1301 97 98 0
-97 1301 0
-98 1301 0
-1302 103 104 0
-103 1302 0
-104 1302 0
-1297 1303 0
-1304 0
-1298 1305 0
-1303 1305 0
-1298 -1303 1306 0
-1304 1306 0
-1298 -1304 0
-1299 1307 0
-1305 1307 0
-1299 -1305 1308 0
-1306 1308 0
-1299 -1306 0
-1300 1309 0
-1307 1309 0
-1300 -1307 1310 0
-1308 1310 0
-1300 -1308 0
-1301 1311 0
-1309 1311 0
-1301 -1309 1312 0
-1310 1312 0
-1301 -1310 0
-1302 -1312 0
-1315 73 74 75 0
-73 1315 0
-74 1315 0
-75 1315 0
-1316 79 80 81 0
-79 1316 0
-80 1316 0
-81 1316 0
-1317 85 86 87 0
-85 1317 0
-86 1317 0
-87 1317 0
-1318 91 92 93 0
-91 1318 0
-92 1318 0
-93 1318 0
-1319 97 98 99 0
-97 1319 0
-98 1319 0
-99 1319 0
-1320 103 104 105 0
-103 1320 0
-104 1320 0
-105 1320 0
-1315 1321 0
-1322 0
-1323 0
-1316 1324 0
-1321 1324 0
-1316 -1321 1325 0
-1322 1325 0
-1316 -1322 1326 0
-1323 1326 0
-1316 -1323 0
-1317 1327 0
-1324 1327 0
-1317 -1324 1328 0
-1325 1328 0
-1317 -1325 1329 0
-1326 1329 0
-1317 -1326 0
-1318 1330 0
-1327 1330 0
-1318 -1327 1331 0
-1328 1331 0
-1318 -1328 1332 0
-1329 1332 0
-1318 -1329 0
-1319 1333 0
-1330 1333 0
-1319 -1330 1334 0
-1331 1334 0
-1319 -1331 1335 0
-1332 1335 0
-1319 -1332 0
-1320 -1335 0
-1339 73 74 75 76 0
-73 1339 0
-74 1339 0
-75 1339 0
-76 1339 0
-1340 79 80 81 82 0
-79 1340 0
-80 1340 0
-81 1340 0
-82 1340 0
-1341 85 86 87 88 0
-85 1341 0
-86 1341 0
-87 1341 0
-88 1341 0
-1342 91 92 93 94 0
-91 1342 0
-92 1342 0
-93 1342 0
-94 1342 0
-1343 97 98 99 100 0
-97 1343 0
-98 1343 0
-99 1343 0
-100 1343 0
-1344 103 104 105 106 0
-103 1344 0
-104 1344 0
-105 1344 0
-106 1344 0
-1339 1345 0
-1346 0
-1347 0
-1348 0
-1340 1349 0
-1345 1349 0
-1340 -1345 1350 0
-1346 1350 0
-1340 -1346 1351 0
-1347 1351 0
-1340 -1347 1352 0
-1348 1352 0
-1340 -1348 0
-1341 1353 0
-1349 1353 0
-1341 -1349 1354 0
-1350 1354 0
-1341 -1350 1355 0
-1351 1355 0
-1341 -1351 1356 0
-1352 1356 0
-1341 -1352 0
-1342 1357 0
-1353 1357 0
-1342 -1353 1358 0
-1354 1358 0
-1342 -1354 1359 0
-1355 1359 0
-1342 -1355 1360 0
-1356 1360 0
-1342 -1356 0
-1343 1361 0
-1357 1361 0
-1343 -1357 1362 0
-1358 1362 0
-1343 -1358 1363 0
-1359 1363 0
-1343 -1359 1364 0
-1360 1364 0
-1343 -1360 0
-1344 -1364 0
-1369 73 74 75 76 77 0
-73 1369 0
-74 1369 0
-75 1369 0
-76 1369 0
-77 1369 0
-1370 79 80 81 82 83 0
-79 1370 0
-80 1370 0
-81 1370 0
-82 1370 0
-83 1370 0
-1371 85 86 87 88 89 0
-85 1371 0
-86 1371 0
-87 1371 0
-88 1371 0
-89 1371 0
-1372 91 92 93 94 95 0
-91 1372 0
-92 1372 0
-93 1372 0
-94 1372 0
-95 1372 0
-1373 97 98 99 100 101 0
-97 1373 0
-98 1373 0
-99 1373 0
-100 1373 0
-101 1373 0
-1374 103 104 105 106 107 0
-103 1374 0
-104 1374 0
-105 1374 0
-106 1374 0
-107 1374 0
-1369 1375 0
-1376 0
-1377 0
-1378 0
-1379 0
-1370 1380 0
-1375 1380 0
-1370 -1375 1381 0
-1376 1381 0
-1370 -1376 1382 0
-1377 1382 0
-1370 -1377 1383 0
-1378 1383 0
-1370 -1378 1384 0
-1379 1384 0
-1370 -1379 0
-1371 1385 0
-1380 1385 0
-1371 -1380 1386 0
-1381 1386 0
-1371 -1381 1387 0
-1382 1387 0
-1371 -1382 1388 0
-1383 1388 0
-1371 -1383 1389 0
-1384 1389 0
-1371 -1384 0
-1372 1390 0
-1385 1390 0
-1372 -1385 1391 0
-1386 1391 0
-1372 -1386 1392 0
-1387 1392 0
-1372 -1387 1393 0
-1388 1393 0
-1372 -1388 1394 0
-1389 1394 0
-1372 -1389 0
-1373 1395 0
-1390 1395 0
-1373 -1390 1396 0
-1391 1396 0
-1373 -1391 1397 0
-1392 1397 0
-1373 -1392 1398 0
-1393 1398 0
-1373 -1393 1399 0
-1394 1399 0
-1373 -1394 0
-1374 -1399 0
-1405 73 74 75 76 77 78 0
-73 1405 0
-74 1405 0
-75 1405 0
-76 1405 0
-77 1405 0
-78 1405 0
-1406 79 80 81 82 83 84 0
-79 1406 0
-80 1406 0
-81 1406 0
-82 1406 0
-83 1406 0
-84 1406 0
-1407 85 86 87 88 89 90 0
-85 1407 0
-86 1407 0
-87 1407 0
-88 1407 0
-89 1407 0
-90 1407 0
-1408 91 92 93 94 95 96 0
-91 1408 0
-92 1408 0
-93 1408 0
-94 1408 0
-95 1408 0
-96 1408 0
-1409 97 98 99 100 101 102 0
-97 1409 0
-98 1409 0
-99 1409 0
-100 1409 0
-101 1409 0
-102 1409 0
-1410 103 104 105 106 107 108 0
-103 1410 0
-104 1410 0
-105 1410 0
-106 1410 0
-107 1410 0
-108 1410 0
-1411 74 0
-74 1411 0
-1412 80 0
-80 1412 0
-1413 86 0
-86 1413 0
-1414 92 0
-92 1414 0
-1415 98 0
-98 1415 0
-1416 104 0
-104 1416 0
-1411 1417 0
-1412 1418 0
-1417 1418 0
-1412 -1417 0
-1413 1419 0
-1418 1419 0
-1413 -1418 0
-1414 1420 0
-1419 1420 0
-1414 -1419 0
-1415 1421 0
-1420 1421 0
-1415 -1420 0
-1416 -1421 0
-1423 74 75 0
-74 1423 0
-75 1423 0
-1424 80 81 0
-80 1424 0
-81 1424 0
-1425 86 87 0
-86 1425 0
-87 1425 0
-1426 92 93 0
-92 1426 0
-93 1426 0
-1427 98 99 0
-98 1427 0
-99 1427 0
-1428 104 105 0
-104 1428 0
-105 1428 0
-1423 1429 0
-1430 0
-1424 1431 0
-1429 1431 0
-1424 -1429 1432 0
-1430 1432 0
-1424 -1430 0
-1425 1433 0
-1431 1433 0
-1425 -1431 1434 0
-1432 1434 0
-1425 -1432 0
-1426 1435 0
-1433 1435 0
-1426 -1433 1436 0
-1434 1436 0
-1426 -1434 0
-1427 1437 0
-1435 1437 0
-1427 -1435 1438 0
-1436 1438 0
-1427 -1436 0
-1428 -1438 0
-1441 74 75 76 0
-74 1441 0
-75 1441 0
-76 1441 0
-1442 80 81 82 0
-80 1442 0
-81 1442 0
-82 1442 0
-1443 86 87 88 0
-86 1443 0
-87 1443 0
-88 1443 0
-1444 92 93 94 0
-92 1444 0
-93 1444 0
-94 1444 0
-1445 98 99 100 0
-98 1445 0
-99 1445 0
-100 1445 0
-1446 104 105 106 0
-104 1446 0
-105 1446 0
-106 1446 0
-1441 1447 0
-1448 0
-1449 0
-1442 1450 0
-1447 1450 0
-1442 -1447 1451 0
-1448 1451 0
-1442 -1448 1452 0
-1449 1452 0
-1442 -1449 0
-1443 1453 0
-1450 1453 0
-1443 -1450 1454 0
-1451 1454 0
-1443 -1451 1455 0
-1452 1455 0
-1443 -1452 0
-1444 1456 0
-1453 1456 0
-1444 -1453 1457 0
-1454 1457 0
-1444 -1454 1458 0
-1455 1458 0
-1444 -1455 0
-1445 1459 0
-1456 1459 0
-1445 -1456 1460 0
-1457 1460 0
-1445 -1457 1461 0
-1458 1461 0
-1445 -1458 0
-1446 -1461 0
-1465 74 75 76 77 0
-74 1465 0
-75 1465 0
-76 1465 0
-77 1465 0
-1466 80 81 82 83 0
-80 1466 0
-81 1466 0
-82 1466 0
-83 1466 0
-1467 86 87 88 89 0
-86 1467 0
-87 1467 0
-88 1467 0
-89 1467 0
-1468 92 93 94 95 0
-92 1468 0
-93 1468 0
-94 1468 0
-95 1468 0
-1469 98 99 100 101 0
-98 1469 0
-99 1469 0
-100 1469 0
-101 1469 0
-1470 104 105 106 107 0
-104 1470 0
-105 1470 0
-106 1470 0
-107 1470 0
-1465 1471 0
-1472 0
-1473 0
-1474 0
-1466 1475 0
-1471 1475 0
-1466 -1471 1476 0
-1472 1476 0
-1466 -1472 1477 0
-1473 1477 0
-1466 -1473 1478 0
-1474 1478 0
-1466 -1474 0
-1467 1479 0
-1475 1479 0
-1467 -1475 1480 0
-1476 1480 0
-1467 -1476 1481 0
-1477 1481 0
-1467 -1477 1482 0
-1478 1482 0
-1467 -1478 0
-1468 1483 0
-1479 1483 0
-1468 -1479 1484 0
-1480 1484 0
-1468 -1480 1485 0
-1481 1485 0
-1468 -1481 1486 0
-1482 1486 0
-1468 -1482 0
-1469 1487 0
-1483 1487 0
-1469 -1483 1488 0
-1484 1488 0
-1469 -1484 1489 0
-1485 1489 0
-1469 -1485 1490 0
-1486 1490 0
-1469 -1486 0
-1470 -1490 0
-1495 74 75 76 77 78 0
-74 1495 0
-75 1495 0
-76 1495 0
-77 1495 0
-78 1495 0
-1496 80 81 82 83 84 0
-80 1496 0
-81 1496 0
-82 1496 0
-83 1496 0
-84 1496 0
-1497 86 87 88 89 90 0
-86 1497 0
-87 1497 0
-88 1497 0
-89 1497 0
-90 1497 0
-1498 92 93 94 95 96 0
-92 1498 0
-93 1498 0
-94 1498 0
-95 1498 0
-96 1498 0
-1499 98 99 100 101 102 0
-98 1499 0
-99 1499 0
-100 1499 0
-101 1499 0
-102 1499 0
-1500 104 105 106 107 108 0
-104 1500 0
-105 1500 0
-106 1500 0
-107 1500 0
-108 1500 0
-1495 1501 0
-1502 0
-1503 0
-1504 0
-1505 0
-1496 1506 0
-1501 1506 0
-1496 -1501 1507 0
-1502 1507 0
-1496 -1502 1508 0
-1503 1508 0
-1496 -1503 1509 0
-1504 1509 0
-1496 -1504 1510 0
-1505 1510 0
-1496 -1505 0
-1497 1511 0
-1506 1511 0
-1497 -1506 1512 0
-1507 1512 0
-1497 -1507 1513 0
-1508 1513 0
-1497 -1508 1514 0
-1509 1514 0
-1497 -1509 1515 0
-1510 1515 0
-1497 -1510 0
-1498 1516 0
-1511 1516 0
-1498 -1511 1517 0
-1512 1517 0
-1498 -1512 1518 0
-1513 1518 0
-1498 -1513 1519 0
-1514 1519 0
-1498 -1514 1520 0
-1515 1520 0
-1498 -1515 0
-1499 1521 0
-1516 1521 0
-1499 -1516 1522 0
-1517 1522 0
-1499 -1517 1523 0
-1518 1523 0
-1499 -1518 1524 0
-1519 1524 0
-1499 -1519 1525 0
-1520 1525 0
-1499 -1520 0
-1500 -1525 0
-1531 75 0
-75 1531 0
-1532 81 0
-81 1532 0
-1533 87 0
-87 1533 0
-1534 93 0
-93 1534 0
-1535 99 0
-99 1535 0
-1536 105 0
-105 1536 0
-1531 1537 0
-1532 1538 0
-1537 1538 0
-1532 -1537 0
-1533 1539 0
-1538 1539 0
-1533 -1538 0
-1534 1540 0
-1539 1540 0
-1534 -1539 0
-1535 1541 0
-1540 1541 0
-1535 -1540 0
-1536 -1541 0
-1543 75 76 0
-75 1543 0
-76 1543 0
-1544 81 82 0
-81 1544 0
-82 1544 0
-1545 87 88 0
-87 1545 0
-88 1545 0
-1546 93 94 0
-93 1546 0
-94 1546 0
-1547 99 100 0
-99 1547 0
-100 1547 0
-1548 105 106 0
-105 1548 0
-106 1548 0
-1543 1549 0
-1550 0
-1544 1551 0
-1549 1551 0
-1544 -1549 1552 0
-1550 1552 0
-1544 -1550 0
-1545 1553 0
-1551 1553 0
-1545 -1551 1554 0
-1552 1554 0
-1545 -1552 0
-1546 1555 0
-1553 1555 0
-1546 -1553 1556 0
-1554 1556 0
-1546 -1554 0
-1547 1557 0
-1555 1557 0
-1547 -1555 1558 0
-1556 1558 0
-1547 -1556 0
-1548 -1558 0
-1561 75 76 77 0
-75 1561 0
-76 1561 0
-77 1561 0
-1562 81 82 83 0
-81 1562 0
-82 1562 0
-83 1562 0
-1563 87 88 89 0
-87 1563 0
-88 1563 0
-89 1563 0
-1564 93 94 95 0
-93 1564 0
-94 1564 0
-95 1564 0
-1565 99 100 101 0
-99 1565 0
-100 1565 0
-101 1565 0
-1566 105 106 107 0
-105 1566 0
-106 1566 0
-107 1566 0
-1561 1567 0
-1568 0
-1569 0
-1562 1570 0
-1567 1570 0
-1562 -1567 1571 0
-1568 1571 0
-1562 -1568 1572 0
-1569 1572 0
-1562 -1569 0
-1563 1573 0
-1570 1573 0
-1563 -1570 1574 0
-1571 1574 0
-1563 -1571 1575 0
-1572 1575 0
-1563 -1572 0
-1564 1576 0
-1573 1576 0
-1564 -1573 1577 0
-1574 1577 0
-1564 -1574 1578 0
-1575 1578 0
-1564 -1575 0
-1565 1579 0
-1576 1579 0
-1565 -1576 1580 0
-1577 1580 0
-1565 -1577 1581 0
-1578 1581 0
-1565 -1578 0
-1566 -1581 0
-1585 75 76 77 78 0
-75 1585 0
-76 1585 0
-77 1585 0
-78 1585 0
-1586 81 82 83 84 0
-81 1586 0
-82 1586 0
-83 1586 0
-84 1586 0
-1587 87 88 89 90 0
-87 1587 0
-88 1587 0
-89 1587 0
-90 1587 0
-1588 93 94 95 96 0
-93 1588 0
-94 1588 0
-95 1588 0
-96 1588 0
-1589 99 100 101 102 0
-99 1589 0
-100 1589 0
-101 1589 0
-102 1589 0
-1590 105 106 107 108 0
-105 1590 0
-106 1590 0
-107 1590 0
-108 1590 0
-1585 1591 0
-1592 0
-1593 0
-1594 0
-1586 1595 0
-1591 1595 0
-1586 -1591 1596 0
-1592 1596 0
-1586 -1592 1597 0
-1593 1597 0
-1586 -1593 1598 0
-1594 1598 0
-1586 -1594 0
-1587 1599 0
-1595 1599 0
-1587 -1595 1600 0
-1596 1600 0
-1587 -1596 1601 0
-1597 1601 0
-1587 -1597 1602 0
-1598 1602 0
-1587 -1598 0
-1588 1603 0
-1599 1603 0
-1588 -1599 1604 0
-1600 1604 0
-1588 -1600 1605 0
-1601 1605 0
-1588 -1601 1606 0
-1602 1606 0
-1588 -1602 0
-1589 1607 0
-1603 1607 0
-1589 -1603 1608 0
-1604 1608 0
-1589 -1604 1609 0
-1605 1609 0
-1589 -1605 1610 0
-1606 1610 0
-1589 -1606 0
-1590 -1610 0
-1615 76 0
-76 1615 0
-1616 82 0
-82 1616 0
-1617 88 0
-88 1617 0
-1618 94 0
-94 1618 0
-1619 100 0
-100 1619 0
-1620 106 0
-106 1620 0
-1615 1621 0
-1616 1622 0
-1621 1622 0
-1616 -1621 0
-1617 1623 0
-1622 1623 0
-1617 -1622 0
-1618 1624 0
-1623 1624 0
-1618 -1623 0
-1619 1625 0
-1624 1625 0
-1619 -1624 0
-1620 -1625 0
-1627 76 77 0
-76 1627 0
-77 1627 0
-1628 82 83 0
-82 1628 0
-83 1628 0
-1629 88 89 0
-88 1629 0
-89 1629 0
-1630 94 95 0
-94 1630 0
-95 1630 0
-1631 100 101 0
-100 1631 0
-101 1631 0
-1632 106 107 0
-106 1632 0
-107 1632 0
-1627 1633 0
-1634 0
-1628 1635 0
-1633 1635 0
-1628 -1633 1636 0
-1634 1636 0
-1628 -1634 0
-1629 1637 0
-1635 1637 0
-1629 -1635 1638 0
-1636 1638 0
-1629 -1636 0
-1630 1639 0
-1637 1639 0
-1630 -1637 1640 0
-1638 1640 0
-1630 -1638 0
-1631 1641 0
-1639 1641 0
-1631 -1639 1642 0
-1640 1642 0
-1631 -1640 0
-1632 -1642 0
-1645 76 77 78 0
-76 1645 0
-77 1645 0
-78 1645 0
-1646 82 83 84 0
-82 1646 0
-83 1646 0
-84 1646 0
-1647 88 89 90 0
-88 1647 0
-89 1647 0
-90 1647 0
-1648 94 95 96 0
-94 1648 0
-95 1648 0
-96 1648 0
-1649 100 101 102 0
-100 1649 0
-101 1649 0
-102 1649 0
-1650 106 107 108 0
-106 1650 0
-107 1650 0
-108 1650 0
-1645 1651 0
-1652 0
-1653 0
-1646 1654 0
-1651 1654 0
-1646 -1651 1655 0
-1652 1655 0
-1646 -1652 1656 0
-1653 1656 0
-1646 -1653 0
-1647 1657 0
-1654 1657 0
-1647 -1654 1658 0
-1655 1658 0
-1647 -1655 1659 0
-1656 1659 0
-1647 -1656 0
-1648 1660 0
-1657 1660 0
-1648 -1657 1661 0
-1658 1661 0
-1648 -1658 1662 0
-1659 1662 0
-1648 -1659 0
-1649 1663 0
-1660 1663 0
-1649 -1660 1664 0
-1661 1664 0
-1649 -1661 1665 0
-1662 1665 0
-1649 -1662 0
-1650 -1665 0
-1669 77 0
-77 1669 0
-1670 83 0
-83 1670 0
-1671 89 0
-89 1671 0
-1672 95 0
-95 1672 0
-1673 101 0
-101 1673 0
-1674 107 0
-107 1674 0
-1669 1675 0
-1670 1676 0
-1675 1676 0
-1670 -1675 0
-1671 1677 0
-1676 1677 0
-1671 -1676 0
-1672 1678 0
-1677 1678 0
-1672 -1677 0
-1673 1679 0
-1678 1679 0
-1673 -1678 0
-1674 -1679 0
-1681 77 78 0
-77 1681 0
-78 1681 0
-1682 83 84 0
-83 1682 0
-84 1682 0
-1683 89 90 0
-89 1683 0
-90 1683 0
-1684 95 96 0
-95 1684 0
-96 1684 0
-1685 101 102 0
-101 1685 0
-102 1685 0
-1686 107 108 0
-107 1686 0
-108 1686 0
-1681 1687 0
-1688 0
-1682 1689 0
-1687 1689 0
-1682 -1687 1690 0
-1688 1690 0
-1682 -1688 0
-1683 1691 0
-1689 1691 0
-1683 -1689 1692 0
-1690 1692 0
-1683 -1690 0
-1684 1693 0
-1691 1693 0
-1684 -1691 1694 0
-1692 1694 0
-1684 -1692 0
-1685 1695 0
-1693 1695 0
-1685 -1693 1696 0
-1694 1696 0
-1685 -1694 0
-1686 -1696 0
-1699 78 0
-78 1699 0
-1700 84 0
-84 1700 0
-1701 90 0
-90 1701 0
-1702 96 0
-96 1702 0
-1703 102 0
-102 1703 0
-1704 108 0
-108 1704 0
-1699 1705 0
-1700 1706 0
-1705 1706 0
-1700 -1705 0
-1701 1707 0
-1706 1707 0
-1701 -1706 0
-1702 1708 0
-1707 1708 0
-1702 -1707 0
-1703 1709 0
-1708 1709 0
-1703 -1708 0
-1704 -1709 0
-1711 109 0
-109 1711 0
-1712 115 0
-115 1712 0
-1713 121 0
-121 1713 0
-1714 127 0
-127 1714 0
-1715 133 0
-133 1715 0
-1716 139 0
-139 1716 0
-1711 1717 0
-1712 1718 0
-1717 1718 0
-1712 -1717 0
-1713 1719 0
-1718 1719 0
-1713 -1718 0
-1714 1720 0
-1719 1720 0
-1714 -1719 0
-1715 1721 0
-1720 1721 0
-1715 -1720 0
-1716 -1721 0
-1723 109 110 0
-109 1723 0
-110 1723 0
-1724 115 116 0
-115 1724 0
-116 1724 0
-1725 121 122 0
-121 1725 0
-122 1725 0
-1726 127 128 0
-127 1726 0
-128 1726 0
-1727 133 134 0
-133 1727 0
-134 1727 0
-1728 139 140 0
-139 1728 0
-140 1728 0
-1723 1729 0
-1730 0
-1724 1731 0
-1729 1731 0
-1724 -1729 1732 0
-1730 1732 0
-1724 -1730 0
-1725 1733 0
-1731 1733 0
-1725 -1731 1734 0
-1732 1734 0
-1725 -1732 0
-1726 1735 0
-1733 1735 0
-1726 -1733 1736 0
-1734 1736 0
-1726 -1734 0
-1727 1737 0
-1735 1737 0
-1727 -1735 1738 0
-1736 1738 0
-1727 -1736 0
-1728 -1738 0
-1741 109 110 111 0
-109 1741 0
-110 1741 0
-111 1741 0
-1742 115 116 117 0
-115 1742 0
-116 1742 0
-117 1742 0
-1743 121 122 123 0
-121 1743 0
-122 1743 0
-123 1743 0
-1744 127 128 129 0
-127 1744 0
-128 1744 0
-129 1744 0
-1745 133 134 135 0
-133 1745 0
-134 1745 0
-135 1745 0
-1746 139 140 141 0
-139 1746 0
-140 1746 0
-141 1746 0
-1741 1747 0
-1748 0
-1749 0
-1742 1750 0
-1747 1750 0
-1742 -1747 1751 0
-1748 1751 0
-1742 -1748 1752 0
-1749 1752 0
-1742 -1749 0
-1743 1753 0
-1750 1753 0
-1743 -1750 1754 0
-1751 1754 0
-1743 -1751 1755 0
-1752 1755 0
-1743 -1752 0
-1744 1756 0
-1753 1756 0
-1744 -1753 1757 0
-1754 1757 0
-1744 -1754 1758 0
-1755 1758 0
-1744 -1755 0
-1745 1759 0
-1756 1759 0
-1745 -1756 1760 0
-1757 1760 0
-1745 -1757 1761 0
-1758 1761 0
-1745 -1758 0
-1746 -1761 0
-1765 109 110 111 112 0
-109 1765 0
-110 1765 0
-111 1765 0
-112 1765 0
-1766 115 116 117 118 0
-115 1766 0
-116 1766 0
-117 1766 0
-118 1766 0
-1767 121 122 123 124 0
-121 1767 0
-122 1767 0
-123 1767 0
-124 1767 0
-1768 127 128 129 130 0
-127 1768 0
-128 1768 0
-129 1768 0
-130 1768 0
-1769 133 134 135 136 0
-133 1769 0
-134 1769 0
-135 1769 0
-136 1769 0
-1770 139 140 141 142 0
-139 1770 0
-140 1770 0
-141 1770 0
-142 1770 0
-1765 1771 0
-1772 0
-1773 0
-1774 0
-1766 1775 0
-1771 1775 0
-1766 -1771 1776 0
-1772 1776 0
-1766 -1772 1777 0
-1773 1777 0
-1766 -1773 1778 0
-1774 1778 0
-1766 -1774 0
-1767 1779 0
-1775 1779 0
-1767 -1775 1780 0
-1776 1780 0
-1767 -1776 1781 0
-1777 1781 0
-1767 -1777 1782 0
-1778 1782 0
-1767 -1778 0
-1768 1783 0
-1779 1783 0
-1768 -1779 1784 0
-1780 1784 0
-1768 -1780 1785 0
-1781 1785 0
-1768 -1781 1786 0
-1782 1786 0
-1768 -1782 0
-1769 1787 0
-1783 1787 0
-1769 -1783 1788 0
-1784 1788 0
-1769 -1784 1789 0
-1785 1789 0
-1769 -1785 1790 0
-1786 1790 0
-1769 -1786 0
-1770 -1790 0
-1795 109 110 111 112 113 0
-109 1795 0
-110 1795 0
-111 1795 0
-112 1795 0
-113 1795 0
-1796 115 116 117 118 119 0
-115 1796 0
-116 1796 0
-117 1796 0
-118 1796 0
-119 1796 0
-1797 121 122 123 124 125 0
-121 1797 0
-122 1797 0
-123 1797 0
-124 1797 0
-125 1797 0
-1798 127 128 129 130 131 0
-127 1798 0
-128 1798 0
-129 1798 0
-130 1798 0
-131 1798 0
-1799 133 134 135 136 137 0
-133 1799 0
-134 1799 0
-135 1799 0
-136 1799 0
-137 1799 0
-1800 139 140 141 142 143 0
-139 1800 0
-140 1800 0
-141 1800 0
-142 1800 0
-143 1800 0
-1795 1801 0
-1802 0
-1803 0
-1804 0
-1805 0
-1796 1806 0
-1801 1806 0
-1796 -1801 1807 0
-1802 1807 0
-1796 -1802 1808 0
-1803 1808 0
-1796 -1803 1809 0
-1804 1809 0
-1796 -1804 1810 0
-1805 1810 0
-1796 -1805 0
-1797 1811 0
-1806 1811 0
-1797 -1806 1812 0
-1807 1812 0
-1797 -1807 1813 0
-1808 1813 0
-1797 -1808 1814 0
-1809 1814 0
-1797 -1809 1815 0
-1810 1815 0
-1797 -1810 0
-1798 1816 0
-1811 1816 0
-1798 -1811 1817 0
-1812 1817 0
-1798 -1812 1818 0
-1813 1818 0
-1798 -1813 1819 0
-1814 1819 0
-1798 -1814 1820 0
-1815 1820 0
-1798 -1815 0
-1799 1821 0
-1816 1821 0
-1799 -1816 1822 0
-1817 1822 0
-1799 -1817 1823 0
-1818 1823 0
-1799 -1818 1824 0
-1819 1824 0
-1799 -1819 1825 0
-1820 1825 0
-1799 -1820 0
-1800 -1825 0
-1831 109 110 111 112 113 114 0
-109 1831 0
-110 1831 0
-111 1831 0
-112 1831 0
-113 1831 0
-114 1831 0
-1832 115 116 117 118 119 120 0
-115 1832 0
-116 1832 0
-117 1832 0
-118 1832 0
-119 1832 0
-120 1832 0
-1833 121 122 123 124 125 126 0
-121 1833 0
-122 1833 0
-123 1833 0
-124 1833 0
-125 1833 0
-126 1833 0
-1834 127 128 129 130 131 132 0
-127 1834 0
-128 1834 0
-129 1834 0
-130 1834 0
-131 1834 0
-132 1834 0
-1835 133 134 135 136 137 138 0
-133 1835 0
-134 1835 0
-135 1835 0
-136 1835 0
-137 1835 0
-138 1835 0
-1836 139 140 141 142 143 144 0
-139 1836 0
-140 1836 0
-141 1836 0
-142 1836 0
-143 1836 0
-144 1836 0
-1837 110 0
-110 1837 0
-1838 116 0
-116 1838 0
-1839 122 0
-122 1839 0
-1840 128 0
-128 1840 0
-1841 134 0
-134 1841 0
-1842 140 0
-140 1842 0
-1837 1843 0
-1838 1844 0
-1843 1844 0
-1838 -1843 0
-1839 1845 0
-1844 1845 0
-1839 -1844 0
-1840 1846 0
-1845 1846 0
-1840 -1845 0
-1841 1847 0
-1846 1847 0
-1841 -1846 0
-1842 -1847 0
-1849 110 111 0
-110 1849 0
-111 1849 0
-1850 116 117 0
-116 1850 0
-117 1850 0
-1851 122 123 0
-122 1851 0
-123 1851 0
-1852 128 129 0
-128 1852 0
-129 1852 0
-1853 134 135 0
-134 1853 0
-135 1853 0
-1854 140 141 0
-140 1854 0
-141 1854 0
-1849 1855 0
-1856 0
-1850 1857 0
-1855 1857 0
-1850 -1855 1858 0
-1856 1858 0
-1850 -1856 0
-1851 1859 0
-1857 1859 0
-1851 -1857 1860 0
-1858 1860 0
-1851 -1858 0
-1852 1861 0
-1859 1861 0
-1852 -1859 1862 0
-1860 1862 0
-1852 -1860 0
-1853 1863 0
-1861 1863 0
-1853 -1861 1864 0
-1862 1864 0
-1853 -1862 0
-1854 -1864 0
-1867 110 111 112 0
-110 1867 0
-111 1867 0
-112 1867 0
-1868 116 117 118 0
-116 1868 0
-117 1868 0
-118 1868 0
-1869 122 123 124 0
-122 1869 0
-123 1869 0
-124 1869 0
-1870 128 129 130 0
-128 1870 0
-129 1870 0
-130 1870 0
-1871 134 135 136 0
-134 1871 0
-135 1871 0
-136 1871 0
-1872 140 141 142 0
-140 1872 0
-141 1872 0
-142 1872 0
-1867 1873 0
-1874 0
-1875 0
-1868 1876 0
-1873 1876 0
-1868 -1873 1877 0
-1874 1877 0
-1868 -1874 1878 0
-1875 1878 0
-1868 -1875 0
-1869 1879 0
-1876 1879 0
-1869 -1876 1880 0
-1877 1880 0
-1869 -1877 1881 0
-1878 1881 0
-1869 -1878 0
-1870 1882 0
-1879 1882 0
-1870 -1879 1883 0
-1880 1883 0
-1870 -1880 1884 0
-1881 1884 0
-1870 -1881 0
-1871 1885 0
-1882 1885 0
-1871 -1882 1886 0
-1883 1886 0
-1871 -1883 1887 0
-1884 1887 0
-1871 -1884 0
-1872 -1887 0
-1891 110 111 112 113 0
-110 1891 0
-111 1891 0
-112 1891 0
-113 1891 0
-1892 116 117 118 119 0
-116 1892 0
-117 1892 0
-118 1892 0
-119 1892 0
-1893 122 123 124 125 0
-122 1893 0
-123 1893 0
-124 1893 0
-125 1893 0
-1894 128 129 130 131 0
-128 1894 0
-129 1894 0
-130 1894 0
-131 1894 0
-1895 134 135 136 137 0
-134 1895 0
-135 1895 0
-136 1895 0
-137 1895 0
-1896 140 141 142 143 0
-140 1896 0
-141 1896 0
-142 1896 0
-143 1896 0
-1891 1897 0
-1898 0
-1899 0
-1900 0
-1892 1901 0
-1897 1901 0
-1892 -1897 1902 0
-1898 1902 0
-1892 -1898 1903 0
-1899 1903 0
-1892 -1899 1904 0
-1900 1904 0
-1892 -1900 0
-1893 1905 0
-1901 1905 0
-1893 -1901 1906 0
-1902 1906 0
-1893 -1902 1907 0
-1903 1907 0
-1893 -1903 1908 0
-1904 1908 0
-1893 -1904 0
-1894 1909 0
-1905 1909 0
-1894 -1905 1910 0
-1906 1910 0
-1894 -1906 1911 0
-1907 1911 0
-1894 -1907 1912 0
-1908 1912 0
-1894 -1908 0
-1895 1913 0
-1909 1913 0
-1895 -1909 1914 0
-1910 1914 0
-1895 -1910 1915 0
-1911 1915 0
-1895 -1911 1916 0
-1912 1916 0
-1895 -1912 0
-1896 -1916 0
-1921 110 111 112 113 114 0
-110 1921 0
-111 1921 0
-112 1921 0
-113 1921 0
-114 1921 0
-1922 116 117 118 119 120 0
-116 1922 0
-117 1922 0
-118 1922 0
-119 1922 0
-120 1922 0
-1923 122 123 124 125 126 0
-122 1923 0
-123 1923 0
-124 1923 0
-125 1923 0
-126 1923 0
-1924 128 129 130 131 132 0
-128 1924 0
-129 1924 0
-130 1924 0
-131 1924 0
-132 1924 0
-1925 134 135 136 137 138 0
-134 1925 0
-135 1925 0
-136 1925 0
-137 1925 0
-138 1925 0
-1926 140 141 142 143 144 0
-140 1926 0
-141 1926 0
-142 1926 0
-143 1926 0
-144 1926 0
-1921 1927 0
-1928 0
-1929 0
-1930 0
-1931 0
-1922 1932 0
-1927 1932 0
-1922 -1927 1933 0
-1928 1933 0
-1922 -1928 1934 0
-1929 1934 0
-1922 -1929 1935 0
-1930 1935 0
-1922 -1930 1936 0
-1931 1936 0
-1922 -1931 0
-1923 1937 0
-1932 1937 0
-1923 -1932 1938 0
-1933 1938 0
-1923 -1933 1939 0
-1934 1939 0
-1923 -1934 1940 0
-1935 1940 0
-1923 -1935 1941 0
-1936 1941 0
-1923 -1936 0
-1924 1942 0
-1937 1942 0
-1924 -1937 1943 0
-1938 1943 0
-1924 -1938 1944 0
-1939 1944 0
-1924 -1939 1945 0
-1940 1945 0
-1924 -1940 1946 0
-1941 1946 0
-1924 -1941 0
-1925 1947 0
-1942 1947 0
-1925 -1942 1948 0
-1943 1948 0
-1925 -1943 1949 0
-1944 1949 0
-1925 -1944 1950 0
-1945 1950 0
-1925 -1945 1951 0
-1946 1951 0
-1925 -1946 0
-1926 -1951 0
-1957 111 0
-111 1957 0
-1958 117 0
-117 1958 0
-1959 123 0
-123 1959 0
-1960 129 0
-129 1960 0
-1961 135 0
-135 1961 0
-1962 141 0
-141 1962 0
-1957 1963 0
-1958 1964 0
-1963 1964 0
-1958 -1963 0
-1959 1965 0
-1964 1965 0
-1959 -1964 0
-1960 1966 0
-1965 1966 0
-1960 -1965 0
-1961 1967 0
-1966 1967 0
-1961 -1966 0
-1962 -1967 0
-1969 111 112 0
-111 1969 0
-112 1969 0
-1970 117 118 0
-117 1970 0
-118 1970 0
-1971 123 124 0
-123 1971 0
-124 1971 0
-1972 129 130 0
-129 1972 0
-130 1972 0
-1973 135 136 0
-135 1973 0
-136 1973 0
-1974 141 142 0
-141 1974 0
-142 1974 0
-1969 1975 0
-1976 0
-1970 1977 0
-1975 1977 0
-1970 -1975 1978 0
-1976 1978 0
-1970 -1976 0
-1971 1979 0
-1977 1979 0
-1971 -1977 1980 0
-1978 1980 0
-1971 -1978 0
-1972 1981 0
-1979 1981 0
-1972 -1979 1982 0
-1980 1982 0
-1972 -1980 0
-1973 1983 0
-1981 1983 0
-1973 -1981 1984 0
-1982 1984 0
-1973 -1982 0
-1974 -1984 0
-1987 111 112 113 0
-111 1987 0
-112 1987 0
-113 1987 0
-1988 117 118 119 0
-117 1988 0
-118 1988 0
-119 1988 0
-1989 123 124 125 0
-123 1989 0
-124 1989 0
-125 1989 0
-1990 129 130 131 0
-129 1990 0
-130 1990 0
-131 1990 0
-1991 135 136 137 0
-135 1991 0
-136 1991 0
-137 1991 0
-1992 141 142 143 0
-141 1992 0
-142 1992 0
-143 1992 0
-1987 1993 0
-1994 0
-1995 0
-1988 1996 0
-1993 1996 0
-1988 -1993 1997 0
-1994 1997 0
-1988 -1994 1998 0
-1995 1998 0
-1988 -1995 0
-1989 1999 0
-1996 1999 0
-1989 -1996 2000 0
-1997 2000 0
-1989 -1997 2001 0
-1998 2001 0
-1989 -1998 0
-1990 2002 0
-1999 2002 0
-1990 -1999 2003 0
-2000 2003 0
-1990 -2000 2004 0
-2001 2004 0
-1990 -2001 0
-1991 2005 0
-2002 2005 0
-1991 -2002 2006 0
-2003 2006 0
-1991 -2003 2007 0
-2004 2007 0
-1991 -2004 0
-1992 -2007 0
-2011 111 112 113 114 0
-111 2011 0
-112 2011 0
-113 2011 0
-114 2011 0
-2012 117 118 119 120 0
-117 2012 0
-118 2012 0
-119 2012 0
-120 2012 0
-2013 123 124 125 126 0
-123 2013 0
-124 2013 0
-125 2013 0
-126 2013 0
-2014 129 130 131 132 0
-129 2014 0
-130 2014 0
-131 2014 0
-132 2014 0
-2015 135 136 137 138 0
-135 2015 0
-136 2015 0
-137 2015 0
-138 2015 0
-2016 141 142 143 144 0
-141 2016 0
-142 2016 0
-143 2016 0
-144 2016 0
-2011 2017 0
-2018 0
-2019 0
-2020 0
-2012 2021 0
-2017 2021 0
-2012 -2017 2022 0
-2018 2022 0
-2012 -2018 2023 0
-2019 2023 0
-2012 -2019 2024 0
-2020 2024 0
-2012 -2020 0
-2013 2025 0
-2021 2025 0
-2013 -2021 2026 0
-2022 2026 0
-2013 -2022 2027 0
-2023 2027 0
-2013 -2023 2028 0
-2024 2028 0
-2013 -2024 0
-2014 2029 0
-2025 2029 0
-2014 -2025 2030 0
-2026 2030 0
-2014 -2026 2031 0
-2027 2031 0
-2014 -2027 2032 0
-2028 2032 0
-2014 -2028 0
-2015 2033 0
-2029 2033 0
-2015 -2029 2034 0
-2030 2034 0
-2015 -2030 2035 0
-2031 2035 0
-2015 -2031 2036 0
-2032 2036 0
-2015 -2032 0
-2016 -2036 0
-2041 112 0
-112 2041 0
-2042 118 0
-118 2042 0
-2043 124 0
-124 2043 0
-2044 130 0
-130 2044 0
-2045 136 0
-136 2045 0
-2046 142 0
-142 2046 0
-2041 2047 0
-2042 2048 0
-2047 2048 0
-2042 -2047 0
-2043 2049 0
-2048 2049 0
-2043 -2048 0
-2044 2050 0
-2049 2050 0
-2044 -2049 0
-2045 2051 0
-2050 2051 0
-2045 -2050 0
-2046 -2051 0
-2053 112 113 0
-112 2053 0
-113 2053 0
-2054 118 119 0
-118 2054 0
-119 2054 0
-2055 124 125 0
-124 2055 0
-125 2055 0
-2056 130 131 0
-130 2056 0
-131 2056 0
-2057 136 137 0
-136 2057 0
-137 2057 0
-2058 142 143 0
-142 2058 0
-143 2058 0
-2053 2059 0
-2060 0
-2054 2061 0
-2059 2061 0
-2054 -2059 2062 0
-2060 2062 0
-2054 -2060 0
-2055 2063 0
-2061 2063 0
-2055 -2061 2064 0
-2062 2064 0
-2055 -2062 0
-2056 2065 0
-2063 2065 0
-2056 -2063 2066 0
-2064 2066 0
-2056 -2064 0
-2057 2067 0
-2065 2067 0
-2057 -2065 2068 0
-2066 2068 0
-2057 -2066 0
-2058 -2068 0
-2071 112 113 114 0
-112 2071 0
-113 2071 0
-114 2071 0
-2072 118 119 120 0
-118 2072 0
-119 2072 0
-120 2072 0
-2073 124 125 126 0
-124 2073 0
-125 2073 0
-126 2073 0
-2074 130 131 132 0
-130 2074 0
-131 2074 0
-132 2074 0
-2075 136 137 138 0
-136 2075 0
-137 2075 0
-138 2075 0
-2076 142 143 144 0
-142 2076 0
-143 2076 0
-144 2076 0
-2071 2077 0
-2078 0
-2079 0
-2072 2080 0
-2077 2080 0
-2072 -2077 2081 0
-2078 2081 0
-2072 -2078 2082 0
-2079 2082 0
-2072 -2079 0
-2073 2083 0
-2080 2083 0
-2073 -2080 2084 0
-2081 2084 0
-2073 -2081 2085 0
-2082 2085 0
-2073 -2082 0
-2074 2086 0
-2083 2086 0
-2074 -2083 2087 0
-2084 2087 0
-2074 -2084 2088 0
-2085 2088 0
-2074 -2085 0
-2075 2089 0
-2086 2089 0
-2075 -2086 2090 0
-2087 2090 0
-2075 -2087 2091 0
-2088 2091 0
-2075 -2088 0
-2076 -2091 0
-2095 113 0
-113 2095 0
-2096 119 0
-119 2096 0
-2097 125 0
-125 2097 0
-2098 131 0
-131 2098 0
-2099 137 0
-137 2099 0
-2100 143 0
-143 2100 0
-2095 2101 0
-2096 2102 0
-2101 2102 0
-2096 -2101 0
-2097 2103 0
-2102 2103 0
-2097 -2102 0
-2098 2104 0
-2103 2104 0
-2098 -2103 0
-2099 2105 0
-2104 2105 0
-2099 -2104 0
-2100 -2105 0
-2107 113 114 0
-113 2107 0
-114 2107 0
-2108 119 120 0
-119 2108 0
-120 2108 0
-2109 125 126 0
-125 2109 0
-126 2109 0
-2110 131 132 0
-131 2110 0
-132 2110 0
-2111 137 138 0
-137 2111 0
-138 2111 0
-2112 143 144 0
-143 2112 0
-144 2112 0
-2107 2113 0
-2114 0
-2108 2115 0
-2113 2115 0
-2108 -2113 2116 0
-2114 2116 0
-2108 -2114 0
-2109 2117 0
-2115 2117 0
-2109 -2115 2118 0
-2116 2118 0
-2109 -2116 0
-2110 2119 0
-2117 2119 0
-2110 -2117 2120 0
-2118 2120 0
-2110 -2118 0
-2111 2121 0
-2119 2121 0
-2111 -2119 2122 0
-2120 2122 0
-2111 -2120 0
-2112 -2122 0
-2125 114 0
-114 2125 0
-2126 120 0
-120 2126 0
-2127 126 0
-126 2127 0
-2128 132 0
-132 2128 0
-2129 138 0
-138 2129 0
-2130 144 0
-144 2130 0
-2125 2131 0
-2126 2132 0
-2131 2132 0
-2126 -2131 0
-2127 2133 0
-2132 2133 0
-2127 -2132 0
-2128 2134 0
-2133 2134 0
-2128 -2133 0
-2129 2135 0
-2134 2135 0
-2129 -2134 0
-2130 -2135 0
-2137 145 0
-145 2137 0
-2138 151 0
-151 2138 0
-2139 157 0
-157 2139 0
-2140 163 0
-163 2140 0
-2141 169 0
-169 2141 0
-2142 175 0
-175 2142 0
-2137 2143 0
-2138 2144 0
-2143 2144 0
-2138 -2143 0
-2139 2145 0
-2144 2145 0
-2139 -2144 0
-2140 2146 0
-2145 2146 0
-2140 -2145 0
-2141 2147 0
-2146 2147 0
-2141 -2146 0
-2142 -2147 0
-2149 145 146 0
-145 2149 0
-146 2149 0
-2150 151 152 0
-151 2150 0
-152 2150 0
-2151 157 158 0
-157 2151 0
-158 2151 0
-2152 163 164 0
-163 2152 0
-164 2152 0
-2153 169 170 0
-169 2153 0
-170 2153 0
-2154 175 176 0
-175 2154 0
-176 2154 0
-2149 2155 0
-2156 0
-2150 2157 0
-2155 2157 0
-2150 -2155 2158 0
-2156 2158 0
-2150 -2156 0
-2151 2159 0
-2157 2159 0
-2151 -2157 2160 0
-2158 2160 0
-2151 -2158 0
-2152 2161 0
-2159 2161 0
-2152 -2159 2162 0
-2160 2162 0
-2152 -2160 0
-2153 2163 0
-2161 2163 0
-2153 -2161 2164 0
-2162 2164 0
-2153 -2162 0
-2154 -2164 0
-2167 145 146 147 0
-145 2167 0
-146 2167 0
-147 2167 0
-2168 151 152 153 0
-151 2168 0
-152 2168 0
-153 2168 0
-2169 157 158 159 0
-157 2169 0
-158 2169 0
-159 2169 0
-2170 163 164 165 0
-163 2170 0
-164 2170 0
-165 2170 0
-2171 169 170 171 0
-169 2171 0
-170 2171 0
-171 2171 0
-2172 175 176 177 0
-175 2172 0
-176 2172 0
-177 2172 0
-2167 2173 0
-2174 0
-2175 0
-2168 2176 0
-2173 2176 0
-2168 -2173 2177 0
-2174 2177 0
-2168 -2174 2178 0
-2175 2178 0
-2168 -2175 0
-2169 2179 0
-2176 2179 0
-2169 -2176 2180 0
-2177 2180 0
-2169 -2177 2181 0
-2178 2181 0
-2169 -2178 0
-2170 2182 0
-2179 2182 0
-2170 -2179 2183 0
-2180 2183 0
-2170 -2180 2184 0
-2181 2184 0
-2170 -2181 0
-2171 2185 0
-2182 2185 0
-2171 -2182 2186 0
-2183 2186 0
-2171 -2183 2187 0
-2184 2187 0
-2171 -2184 0
-2172 -2187 0
-2191 145 146 147 148 0
-145 2191 0
-146 2191 0
-147 2191 0
-148 2191 0
-2192 151 152 153 154 0
-151 2192 0
-152 2192 0
-153 2192 0
-154 2192 0
-2193 157 158 159 160 0
-157 2193 0
-158 2193 0
-159 2193 0
-160 2193 0
-2194 163 164 165 166 0
-163 2194 0
-164 2194 0
-165 2194 0
-166 2194 0
-2195 169 170 171 172 0
-169 2195 0
-170 2195 0
-171 2195 0
-172 2195 0
-2196 175 176 177 178 0
-175 2196 0
-176 2196 0
-177 2196 0
-178 2196 0
-2191 2197 0
-2198 0
-2199 0
-2200 0
-2192 2201 0
-2197 2201 0
-2192 -2197 2202 0
-2198 2202 0
-2192 -2198 2203 0
-2199 2203 0
-2192 -2199 2204 0
-2200 2204 0
-2192 -2200 0
-2193 2205 0
-2201 2205 0
-2193 -2201 2206 0
-2202 2206 0
-2193 -2202 2207 0
-2203 2207 0
-2193 -2203 2208 0
-2204 2208 0
-2193 -2204 0
-2194 2209 0
-2205 2209 0
-2194 -2205 2210 0
-2206 2210 0
-2194 -2206 2211 0
-2207 2211 0
-2194 -2207 2212 0
-2208 2212 0
-2194 -2208 0
-2195 2213 0
-2209 2213 0
-2195 -2209 2214 0
-2210 2214 0
-2195 -2210 2215 0
-2211 2215 0
-2195 -2211 2216 0
-2212 2216 0
-2195 -2212 0
-2196 -2216 0
-2221 145 146 147 148 149 0
-145 2221 0
-146 2221 0
-147 2221 0
-148 2221 0
-149 2221 0
-2222 151 152 153 154 155 0
-151 2222 0
-152 2222 0
-153 2222 0
-154 2222 0
-155 2222 0
-2223 157 158 159 160 161 0
-157 2223 0
-158 2223 0
-159 2223 0
-160 2223 0
-161 2223 0
-2224 163 164 165 166 167 0
-163 2224 0
-164 2224 0
-165 2224 0
-166 2224 0
-167 2224 0
-2225 169 170 171 172 173 0
-169 2225 0
-170 2225 0
-171 2225 0
-172 2225 0
-173 2225 0
-2226 175 176 177 178 179 0
-175 2226 0
-176 2226 0
-177 2226 0
-178 2226 0
-179 2226 0
-2221 2227 0
-2228 0
-2229 0
-2230 0
-2231 0
-2222 2232 0
-2227 2232 0
-2222 -2227 2233 0
-2228 2233 0
-2222 -2228 2234 0
-2229 2234 0
-2222 -2229 2235 0
-2230 2235 0
-2222 -2230 2236 0
-2231 2236 0
-2222 -2231 0
-2223 2237 0
-2232 2237 0
-2223 -2232 2238 0
-2233 2238 0
-2223 -2233 2239 0
-2234 2239 0
-2223 -2234 2240 0
-2235 2240 0
-2223 -2235 2241 0
-2236 2241 0
-2223 -2236 0
-2224 2242 0
-2237 2242 0
-2224 -2237 2243 0
-2238 2243 0
-2224 -2238 2244 0
-2239 2244 0
-2224 -2239 2245 0
-2240 2245 0
-2224 -2240 2246 0
-2241 2246 0
-2224 -2241 0
-2225 2247 0
-2242 2247 0
-2225 -2242 2248 0
-2243 2248 0
-2225 -2243 2249 0
-2244 2249 0
-2225 -2244 2250 0
-2245 2250 0
-2225 -2245 2251 0
-2246 2251 0
-2225 -2246 0
-2226 -2251 0
-2257 145 146 147 148 149 150 0
-145 2257 0
-146 2257 0
-147 2257 0
-148 2257 0
-149 2257 0
-150 2257 0
-2258 151 152 153 154 155 156 0
-151 2258 0
-152 2258 0
-153 2258 0
-154 2258 0
-155 2258 0
-156 2258 0
-2259 157 158 159 160 161 162 0
-157 2259 0
-158 2259 0
-159 2259 0
-160 2259 0
-161 2259 0
-162 2259 0
-2260 163 164 165 166 167 168 0
-163 2260 0
-164 2260 0
-165 2260 0
-166 2260 0
-167 2260 0
-168 2260 0
-2261 169 170 171 172 173 174 0
-169 2261 0
-170 2261 0
-171 2261 0
-172 2261 0
-173 2261 0
-174 2261 0
-2262 175 176 177 178 179 180 0
-175 2262 0
-176 2262 0
-177 2262 0
-178 2262 0
-179 2262 0
-180 2262 0
-2263 146 0
-146 2263 0
-2264 152 0
-152 2264 0
-2265 158 0
-158 2265 0
-2266 164 0
-164 2266 0
-2267 170 0
-170 2267 0
-2268 176 0
-176 2268 0
-2263 2269 0
-2264 2270 0
-2269 2270 0
-2264 -2269 0
-2265 2271 0
-2270 2271 0
-2265 -2270 0
-2266 2272 0
-2271 2272 0
-2266 -2271 0
-2267 2273 0
-2272 2273 0
-2267 -2272 0
-2268 -2273 0
-2275 146 147 0
-146 2275 0
-147 2275 0
-2276 152 153 0
-152 2276 0
-153 2276 0
-2277 158 159 0
-158 2277 0
-159 2277 0
-2278 164 165 0
-164 2278 0
-165 2278 0
-2279 170 171 0
-170 2279 0
-171 2279 0
-2280 176 177 0
-176 2280 0
-177 2280 0
-2275 2281 0
-2282 0
-2276 2283 0
-2281 2283 0
-2276 -2281 2284 0
-2282 2284 0
-2276 -2282 0
-2277 2285 0
-2283 2285 0
-2277 -2283 2286 0
-2284 2286 0
-2277 -2284 0
-2278 2287 0
-2285 2287 0
-2278 -2285 2288 0
-2286 2288 0
-2278 -2286 0
-2279 2289 0
-2287 2289 0
-2279 -2287 2290 0
-2288 2290 0
-2279 -2288 0
-2280 -2290 0
-2293 146 147 148 0
-146 2293 0
-147 2293 0
-148 2293 0
-2294 152 153 154 0
-152 2294 0
-153 2294 0
-154 2294 0
-2295 158 159 160 0
-158 2295 0
-159 2295 0
-160 2295 0
-2296 164 165 166 0
-164 2296 0
-165 2296 0
-166 2296 0
-2297 170 171 172 0
-170 2297 0
-171 2297 0
-172 2297 0
-2298 176 177 178 0
-176 2298 0
-177 2298 0
-178 2298 0
-2293 2299 0
-2300 0
-2301 0
-2294 2302 0
-2299 2302 0
-2294 -2299 2303 0
-2300 2303 0
-2294 -2300 2304 0
-2301 2304 0
-2294 -2301 0
-2295 2305 0
-2302 2305 0
-2295 -2302 2306 0
-2303 2306 0
-2295 -2303 2307 0
-2304 2307 0
-2295 -2304 0
-2296 2308 0
-2305 2308 0
-2296 -2305 2309 0
-2306 2309 0
-2296 -2306 2310 0
-2307 2310 0
-2296 -2307 0
-2297 2311 0
-2308 2311 0
-2297 -2308 2312 0
-2309 2312 0
-2297 -2309 2313 0
-2310 2313 0
-2297 -2310 0
-2298 -2313 0
-2317 146 147 148 149 0
-146 2317 0
-147 2317 0
-148 2317 0
-149 2317 0
-2318 152 153 154 155 0
-152 2318 0
-153 2318 0
-154 2318 0
-155 2318 0
-2319 158 159 160 161 0
-158 2319 0
-159 2319 0
-160 2319 0
-161 2319 0
-2320 164 165 166 167 0
-164 2320 0
-165 2320 0
-166 2320 0
-167 2320 0
-2321 170 171 172 173 0
-170 2321 0
-171 2321 0
-172 2321 0
-173 2321 0
-2322 176 177 178 179 0
-176 2322 0
-177 2322 0
-178 2322 0
-179 2322 0
-2317 2323 0
-2324 0
-2325 0
-2326 0
-2318 2327 0
-2323 2327 0
-2318 -2323 2328 0
-2324 2328 0
-2318 -2324 2329 0
-2325 2329 0
-2318 -2325 2330 0
-2326 2330 0
-2318 -2326 0
-2319 2331 0
-2327 2331 0
-2319 -2327 2332 0
-2328 2332 0
-2319 -2328 2333 0
-2329 2333 0
-2319 -2329 2334 0
-2330 2334 0
-2319 -2330 0
-2320 2335 0
-2331 2335 0
-2320 -2331 2336 0
-2332 2336 0
-2320 -2332 2337 0
-2333 2337 0
-2320 -2333 2338 0
-2334 2338 0
-2320 -2334 0
-2321 2339 0
-2335 2339 0
-2321 -2335 2340 0
-2336 2340 0
-2321 -2336 2341 0
-2337 2341 0
-2321 -2337 2342 0
-2338 2342 0
-2321 -2338 0
-2322 -2342 0
-2347 146 147 148 149 150 0
-146 2347 0
-147 2347 0
-148 2347 0
-149 2347 0
-150 2347 0
-2348 152 153 154 155 156 0
-152 2348 0
-153 2348 0
-154 2348 0
-155 2348 0
-156 2348 0
-2349 158 159 160 161 162 0
-158 2349 0
-159 2349 0
-160 2349 0
-161 2349 0
-162 2349 0
-2350 164 165 166 167 168 0
-164 2350 0
-165 2350 0
-166 2350 0
-167 2350 0
-168 2350 0
-2351 170 171 172 173 174 0
-170 2351 0
-171 2351 0
-172 2351 0
-173 2351 0
-174 2351 0
-2352 176 177 178 179 180 0
-176 2352 0
-177 2352 0
-178 2352 0
-179 2352 0
-180 2352 0
-2347 2353 0
-2354 0
-2355 0
-2356 0
-2357 0
-2348 2358 0
-2353 2358 0
-2348 -2353 2359 0
-2354 2359 0
-2348 -2354 2360 0
-2355 2360 0
-2348 -2355 2361 0
-2356 2361 0
-2348 -2356 2362 0
-2357 2362 0
-2348 -2357 0
-2349 2363 0
-2358 2363 0
-2349 -2358 2364 0
-2359 2364 0
-2349 -2359 2365 0
-2360 2365 0
-2349 -2360 2366 0
-2361 2366 0
-2349 -2361 2367 0
-2362 2367 0
-2349 -2362 0
-2350 2368 0
-2363 2368 0
-2350 -2363 2369 0
-2364 2369 0
-2350 -2364 2370 0
-2365 2370 0
-2350 -2365 2371 0
-2366 2371 0
-2350 -2366 2372 0
-2367 2372 0
-2350 -2367 0
-2351 2373 0
-2368 2373 0
-2351 -2368 2374 0
-2369 2374 0
-2351 -2369 2375 0
-2370 2375 0
-2351 -2370 2376 0
-2371 2376 0
-2351 -2371 2377 0
-2372 2377 0
-2351 -2372 0
-2352 -2377 0
-2383 147 0
-147 2383 0
-2384 153 0
-153 2384 0
-2385 159 0
-159 2385 0
-2386 165 0
-165 2386 0
-2387 171 0
-171 2387 0
-2388 177 0
-177 2388 0
-2383 2389 0
-2384 2390 0
-2389 2390 0
-2384 -2389 0
-2385 2391 0
-2390 2391 0
-2385 -2390 0
-2386 2392 0
-2391 2392 0
-2386 -2391 0
-2387 2393 0
-2392 2393 0
-2387 -2392 0
-2388 -2393 0
-2395 147 148 0
-147 2395 0
-148 2395 0
-2396 153 154 0
-153 2396 0
-154 2396 0
-2397 159 160 0
-159 2397 0
-160 2397 0
-2398 165 166 0
-165 2398 0
-166 2398 0
-2399 171 172 0
-171 2399 0
-172 2399 0
-2400 177 178 0
-177 2400 0
-178 2400 0
-2395 2401 0
-2402 0
-2396 2403 0
-2401 2403 0
-2396 -2401 2404 0
-2402 2404 0
-2396 -2402 0
-2397 2405 0
-2403 2405 0
-2397 -2403 2406 0
-2404 2406 0
-2397 -2404 0
-2398 2407 0
-2405 2407 0
-2398 -2405 2408 0
-2406 2408 0
-2398 -2406 0
-2399 2409 0
-2407 2409 0
-2399 -2407 2410 0
-2408 2410 0
-2399 -2408 0
-2400 -2410 0
-2413 147 148 149 0
-147 2413 0
-148 2413 0
-149 2413 0
-2414 153 154 155 0
-153 2414 0
-154 2414 0
-155 2414 0
-2415 159 160 161 0
-159 2415 0
-160 2415 0
-161 2415 0
-2416 165 166 167 0
-165 2416 0
-166 2416 0
-167 2416 0
-2417 171 172 173 0
-171 2417 0
-172 2417 0
-173 2417 0
-2418 177 178 179 0
-177 2418 0
-178 2418 0
-179 2418 0
-2413 2419 0
-2420 0
-2421 0
-2414 2422 0
-2419 2422 0
-2414 -2419 2423 0
-2420 2423 0
-2414 -2420 2424 0
-2421 2424 0
-2414 -2421 0
-2415 2425 0
-2422 2425 0
-2415 -2422 2426 0
-2423 2426 0
-2415 -2423 2427 0
-2424 2427 0
-2415 -2424 0
-2416 2428 0
-2425 2428 0
-2416 -2425 2429 0
-2426 2429 0
-2416 -2426 2430 0
-2427 2430 0
-2416 -2427 0
-2417 2431 0
-2428 2431 0
-2417 -2428 2432 0
-2429 2432 0
-2417 -2429 2433 0
-2430 2433 0
-2417 -2430 0
-2418 -2433 0
-2437 147 148 149 150 0
-147 2437 0
-148 2437 0
-149 2437 0
-150 2437 0
-2438 153 154 155 156 0
-153 2438 0
-154 2438 0
-155 2438 0
-156 2438 0
-2439 159 160 161 162 0
-159 2439 0
-160 2439 0
-161 2439 0
-162 2439 0
-2440 165 166 167 168 0
-165 2440 0
-166 2440 0
-167 2440 0
-168 2440 0
-2441 171 172 173 174 0
-171 2441 0
-172 2441 0
-173 2441 0
-174 2441 0
-2442 177 178 179 180 0
-177 2442 0
-178 2442 0
-179 2442 0
-180 2442 0
-2437 2443 0
-2444 0
-2445 0
-2446 0
-2438 2447 0
-2443 2447 0
-2438 -2443 2448 0
-2444 2448 0
-2438 -2444 2449 0
-2445 2449 0
-2438 -2445 2450 0
-2446 2450 0
-2438 -2446 0
-2439 2451 0
-2447 2451 0
-2439 -2447 2452 0
-2448 2452 0
-2439 -2448 2453 0
-2449 2453 0
-2439 -2449 2454 0
-2450 2454 0
-2439 -2450 0
-2440 2455 0
-2451 2455 0
-2440 -2451 2456 0
-2452 2456 0
-2440 -2452 2457 0
-2453 2457 0
-2440 -2453 2458 0
-2454 2458 0
-2440 -2454 0
-2441 2459 0
-2455 2459 0
-2441 -2455 2460 0
-2456 2460 0
-2441 -2456 2461 0
-2457 2461 0
-2441 -2457 2462 0
-2458 2462 0
-2441 -2458 0
-2442 -2462 0
-2467 148 0
-148 2467 0
-2468 154 0
-154 2468 0
-2469 160 0
-160 2469 0
-2470 166 0
-166 2470 0
-2471 172 0
-172 2471 0
-2472 178 0
-178 2472 0
-2467 2473 0
-2468 2474 0
-2473 2474 0
-2468 -2473 0
-2469 2475 0
-2474 2475 0
-2469 -2474 0
-2470 2476 0
-2475 2476 0
-2470 -2475 0
-2471 2477 0
-2476 2477 0
-2471 -2476 0
-2472 -2477 0
-2479 148 149 0
-148 2479 0
-149 2479 0
-2480 154 155 0
-154 2480 0
-155 2480 0
-2481 160 161 0
-160 2481 0
-161 2481 0
-2482 166 167 0
-166 2482 0
-167 2482 0
-2483 172 173 0
-172 2483 0
-173 2483 0
-2484 178 179 0
-178 2484 0
-179 2484 0
-2479 2485 0
-2486 0
-2480 2487 0
-2485 2487 0
-2480 -2485 2488 0
-2486 2488 0
-2480 -2486 0
-2481 2489 0
-2487 2489 0
-2481 -2487 2490 0
-2488 2490 0
-2481 -2488 0
-2482 2491 0
-2489 2491 0
-2482 -2489 2492 0
-2490 2492 0
-2482 -2490 0
-2483 2493 0
-2491 2493 0
-2483 -2491 2494 0
-2492 2494 0
-2483 -2492 0
-2484 -2494 0
-2497 148 149 150 0
-148 2497 0
-149 2497 0
-150 2497 0
-2498 154 155 156 0
-154 2498 0
-155 2498 0
-156 2498 0
-2499 160 161 162 0
-160 2499 0
-161 2499 0
-162 2499 0
-2500 166 167 168 0
-166 2500 0
-167 2500 0
-168 2500 0
-2501 172 173 174 0
-172 2501 0
-173 2501 0
-174 2501 0
-2502 178 179 180 0
-178 2502 0
-179 2502 0
-180 2502 0
-2497 2503 0
-2504 0
-2505 0
-2498 2506 0
-2503 2506 0
-2498 -2503 2507 0
-2504 2507 0
-2498 -2504 2508 0
-2505 2508 0
-2498 -2505 0
-2499 2509 0
-2506 2509 0
-2499 -2506 2510 0
-2507 2510 0
-2499 -2507 2511 0
-2508 2511 0
-2499 -2508 0
-2500 2512 0
-2509 2512 0
-2500 -2509 2513 0
-2510 2513 0
-2500 -2510 2514 0
-2511 2514 0
-2500 -2511 0
-2501 2515 0
-2512 2515 0
-2501 -2512 2516 0
-2513 2516 0
-2501 -2513 2517 0
-2514 2517 0
-2501 -2514 0
-2502 -2517 0
-2521 149 0
-149 2521 0
-2522 155 0
-155 2522 0
-2523 161 0
-161 2523 0
-2524 167 0
-167 2524 0
-2525 173 0
-173 2525 0
-2526 179 0
-179 2526 0
-2521 2527 0
-2522 2528 0
-2527 2528 0
-2522 -2527 0
-2523 2529 0
-2528 2529 0
-2523 -2528 0
-2524 2530 0
-2529 2530 0
-2524 -2529 0
-2525 2531 0
-2530 2531 0
-2525 -2530 0
-2526 -2531 0
-2533 149 150 0
-149 2533 0
-150 2533 0
-2534 155 156 0
-155 2534 0
-156 2534 0
-2535 161 162 0
-161 2535 0
-162 2535 0
-2536 167 168 0
-167 2536 0
-168 2536 0
-2537 173 174 0
-173 2537 0
-174 2537 0
-2538 179 180 0
-179 2538 0
-180 2538 0
-2533 2539 0
-2540 0
-2534 2541 0
-2539 2541 0
-2534 -2539 2542 0
-2540 2542 0
-2534 -2540 0
-2535 2543 0
-2541 2543 0
-2535 -2541 2544 0
-2542 2544 0
-2535 -2542 0
-2536 2545 0
-2543 2545 0
-2536 -2543 2546 0
-2544 2546 0
-2536 -2544 0
-2537 2547 0
-2545 2547 0
-2537 -2545 2548 0
-2546 2548 0
-2537 -2546 0
-2538 -2548 0
-2551 150 0
-150 2551 0
-2552 156 0
-156 2552 0
-2553 162 0
-162 2553 0
-2554 168 0
-168 2554 0
-2555 174 0
-174 2555 0
-2556 180 0
-180 2556 0
-2551 2557 0
-2552 2558 0
-2557 2558 0
-2552 -2557 0
-2553 2559 0
-2558 2559 0
-2553 -2558 0
-2554 2560 0
-2559 2560 0
-2554 -2559 0
-2555 2561 0
-2560 2561 0
-2555 -2560 0
-2556 -2561 0
-2563 181 0
-181 2563 0
-2564 187 0
-187 2564 0
-2565 193 0
-193 2565 0
-2566 199 0
-199 2566 0
-2567 205 0
-205 2567 0
-2568 211 0
-211 2568 0
-2563 2569 0
-2564 2570 0
-2569 2570 0
-2564 -2569 0
-2565 2571 0
-2570 2571 0
-2565 -2570 0
-2566 2572 0
-2571 2572 0
-2566 -2571 0
-2567 2573 0
-2572 2573 0
-2567 -2572 0
-2568 -2573 0
-2575 181 182 0
-181 2575 0
-182 2575 0
-2576 187 188 0
-187 2576 0
-188 2576 0
-2577 193 194 0
-193 2577 0
-194 2577 0
-2578 199 200 0
-199 2578 0
-200 2578 0
-2579 205 206 0
-205 2579 0
-206 2579 0
-2580 211 212 0
-211 2580 0
-212 2580 0
-2575 2581 0
-2582 0
-2576 2583 0
-2581 2583 0
-2576 -2581 2584 0
-2582 2584 0
-2576 -2582 0
-2577 2585 0
-2583 2585 0
-2577 -2583 2586 0
-2584 2586 0
-2577 -2584 0
-2578 2587 0
-2585 2587 0
-2578 -2585 2588 0
-2586 2588 0
-2578 -2586 0
-2579 2589 0
-2587 2589 0
-2579 -2587 2590 0
-2588 2590 0
-2579 -2588 0
-2580 -2590 0
-2593 181 182 183 0
-181 2593 0
-182 2593 0
-183 2593 0
-2594 187 188 189 0
-187 2594 0
-188 2594 0
-189 2594 0
-2595 193 194 195 0
-193 2595 0
-194 2595 0
-195 2595 0
-2596 199 200 201 0
-199 2596 0
-200 2596 0
-201 2596 0
-2597 205 206 207 0
-205 2597 0
-206 2597 0
-207 2597 0
-2598 211 212 213 0
-211 2598 0
-212 2598 0
-213 2598 0
-2593 2599 0
-2600 0
-2601 0
-2594 2602 0
-2599 2602 0
-2594 -2599 2603 0
-2600 2603 0
-2594 -2600 2604 0
-2601 2604 0
-2594 -2601 0
-2595 2605 0
-2602 2605 0
-2595 -2602 2606 0
-2603 2606 0
-2595 -2603 2607 0
-2604 2607 0
-2595 -2604 0
-2596 2608 0
-2605 2608 0
-2596 -2605 2609 0
-2606 2609 0
-2596 -2606 2610 0
-2607 2610 0
-2596 -2607 0
-2597 2611 0
-2608 2611 0
-2597 -2608 2612 0
-2609 2612 0
-2597 -2609 2613 0
-2610 2613 0
-2597 -2610 0
-2598 -2613 0
-2617 181 182 183 184 0
-181 2617 0
-182 2617 0
-183 2617 0
-184 2617 0
-2618 187 188 189 190 0
-187 2618 0
-188 2618 0
-189 2618 0
-190 2618 0
-2619 193 194 195 196 0
-193 2619 0
-194 2619 0
-195 2619 0
-196 2619 0
-2620 199 200 201 202 0
-199 2620 0
-200 2620 0
-201 2620 0
-202 2620 0
-2621 205 206 207 208 0
-205 2621 0
-206 2621 0
-207 2621 0
-208 2621 0
-2622 211 212 213 214 0
-211 2622 0
-212 2622 0
-213 2622 0
-214 2622 0
-2617 2623 0
-2624 0
-2625 0
-2626 0
-2618 2627 0
-2623 2627 0
-2618 -2623 2628 0
-2624 2628 0
-2618 -2624 2629 0
-2625 2629 0
-2618 -2625 2630 0
-2626 2630 0
-2618 -2626 0
-2619 2631 0
-2627 2631 0
-2619 -2627 2632 0
-2628 2632 0
-2619 -2628 2633 0
-2629 2633 0
-2619 -2629 2634 0
-2630 2634 0
-2619 -2630 0
-2620 2635 0
-2631 2635 0
-2620 -2631 2636 0
-2632 2636 0
-2620 -2632 2637 0
-2633 2637 0
-2620 -2633 2638 0
-2634 2638 0
-2620 -2634 0
-2621 2639 0
-2635 2639 0
-2621 -2635 2640 0
-2636 2640 0
-2621 -2636 2641 0
-2637 2641 0
-2621 -2637 2642 0
-2638 2642 0
-2621 -2638 0
-2622 -2642 0
-2647 181 182 183 184 185 0
-181 2647 0
-182 2647 0
-183 2647 0
-184 2647 0
-185 2647 0
-2648 187 188 189 190 191 0
-187 2648 0
-188 2648 0
-189 2648 0
-190 2648 0
-191 2648 0
-2649 193 194 195 196 197 0
-193 2649 0
-194 2649 0
-195 2649 0
-196 2649 0
-197 2649 0
-2650 199 200 201 202 203 0
-199 2650 0
-200 2650 0
-201 2650 0
-202 2650 0
-203 2650 0
-2651 205 206 207 208 209 0
-205 2651 0
-206 2651 0
-207 2651 0
-208 2651 0
-209 2651 0
-2652 211 212 213 214 215 0
-211 2652 0
-212 2652 0
-213 2652 0
-214 2652 0
-215 2652 0
-2647 2653 0
-2654 0
-2655 0
-2656 0
-2657 0
-2648 2658 0
-2653 2658 0
-2648 -2653 2659 0
-2654 2659 0
-2648 -2654 2660 0
-2655 2660 0
-2648 -2655 2661 0
-2656 2661 0
-2648 -2656 2662 0
-2657 2662 0
-2648 -2657 0
-2649 2663 0
-2658 2663 0
-2649 -2658 2664 0
-2659 2664 0
-2649 -2659 2665 0
-2660 2665 0
-2649 -2660 2666 0
-2661 2666 0
-2649 -2661 2667 0
-2662 2667 0
-2649 -2662 0
-2650 2668 0
-2663 2668 0
-2650 -2663 2669 0
-2664 2669 0
-2650 -2664 2670 0
-2665 2670 0
-2650 -2665 2671 0
-2666 2671 0
-2650 -2666 2672 0
-2667 2672 0
-2650 -2667 0
-2651 2673 0
-2668 2673 0
-2651 -2668 2674 0
-2669 2674 0
-2651 -2669 2675 0
-2670 2675 0
-2651 -2670 2676 0
-2671 2676 0
-2651 -2671 2677 0
-2672 2677 0
-2651 -2672 0
-2652 -2677 0
-2683 181 182 183 184 185 186 0
-181 2683 0
-182 2683 0
-183 2683 0
-184 2683 0
-185 2683 0
-186 2683 0
-2684 187 188 189 190 191 192 0
-187 2684 0
-188 2684 0
-189 2684 0
-190 2684 0
-191 2684 0
-192 2684 0
-2685 193 194 195 196 197 198 0
-193 2685 0
-194 2685 0
-195 2685 0
-196 2685 0
-197 2685 0
-198 2685 0
-2686 199 200 201 202 203 204 0
-199 2686 0
-200 2686 0
-201 2686 0
-202 2686 0
-203 2686 0
-204 2686 0
-2687 205 206 207 208 209 210 0
-205 2687 0
-206 2687 0
-207 2687 0
-208 2687 0
-209 2687 0
-210 2687 0
-2688 211 212 213 214 215 216 0
-211 2688 0
-212 2688 0
-213 2688 0
-214 2688 0
-215 2688 0
-216 2688 0
-2689 182 0
-182 2689 0
-2690 188 0
-188 2690 0
-2691 194 0
-194 2691 0
-2692 200 0
-200 2692 0
-2693 206 0
-206 2693 0
-2694 212 0
-212 2694 0
-2689 2695 0
-2690 2696 0
-2695 2696 0
-2690 -2695 0
-2691 2697 0
-2696 2697 0
-2691 -2696 0
-2692 2698 0
-2697 2698 0
-2692 -2697 0
-2693 2699 0
-2698 2699 0
-2693 -2698 0
-2694 -2699 0
-2701 182 183 0
-182 2701 0
-183 2701 0
-2702 188 189 0
-188 2702 0
-189 2702 0
-2703 194 195 0
-194 2703 0
-195 2703 0
-2704 200 201 0
-200 2704 0
-201 2704 0
-2705 206 207 0
-206 2705 0
-207 2705 0
-2706 212 213 0
-212 2706 0
-213 2706 0
-2701 2707 0
-2708 0
-2702 2709 0
-2707 2709 0
-2702 -2707 2710 0
-2708 2710 0
-2702 -2708 0
-2703 2711 0
-2709 2711 0
-2703 -2709 2712 0
-2710 2712 0
-2703 -2710 0
-2704 2713 0
-2711 2713 0
-2704 -2711 2714 0
-2712 2714 0
-2704 -2712 0
-2705 2715 0
-2713 2715 0
-2705 -2713 2716 0
-2714 2716 0
-2705 -2714 0
-2706 -2716 0
-2719 182 183 184 0
-182 2719 0
-183 2719 0
-184 2719 0
-2720 188 189 190 0
-188 2720 0
-189 2720 0
-190 2720 0
-2721 194 195 196 0
-194 2721 0
-195 2721 0
-196 2721 0
-2722 200 201 202 0
-200 2722 0
-201 2722 0
-202 2722 0
-2723 206 207 208 0
-206 2723 0
-207 2723 0
-208 2723 0
-2724 212 213 214 0
-212 2724 0
-213 2724 0
-214 2724 0
-2719 2725 0
-2726 0
-2727 0
-2720 2728 0
-2725 2728 0
-2720 -2725 2729 0
-2726 2729 0
-2720 -2726 2730 0
-2727 2730 0
-2720 -2727 0
-2721 2731 0
-2728 2731 0
-2721 -2728 2732 0
-2729 2732 0
-2721 -2729 2733 0
-2730 2733 0
-2721 -2730 0
-2722 2734 0
-2731 2734 0
-2722 -2731 2735 0
-2732 2735 0
-2722 -2732 2736 0
-2733 2736 0
-2722 -2733 0
-2723 2737 0
-2734 2737 0
-2723 -2734 2738 0
-2735 2738 0
-2723 -2735 2739 0
-2736 2739 0
-2723 -2736 0
-2724 -2739 0
-2743 182 183 184 185 0
-182 2743 0
-183 2743 0
-184 2743 0
-185 2743 0
-2744 188 189 190 191 0
-188 2744 0
-189 2744 0
-190 2744 0
-191 2744 0
-2745 194 195 196 197 0
-194 2745 0
-195 2745 0
-196 2745 0
-197 2745 0
-2746 200 201 202 203 0
-200 2746 0
-201 2746 0
-202 2746 0
-203 2746 0
-2747 206 207 208 209 0
-206 2747 0
-207 2747 0
-208 2747 0
-209 2747 0
-2748 212 213 214 215 0
-212 2748 0
-213 2748 0
-214 2748 0
-215 2748 0
-2743 2749 0
-2750 0
-2751 0
-2752 0
-2744 2753 0
-2749 2753 0
-2744 -2749 2754 0
-2750 2754 0
-2744 -2750 2755 0
-2751 2755 0
-2744 -2751 2756 0
-2752 2756 0
-2744 -2752 0
-2745 2757 0
-2753 2757 0
-2745 -2753 2758 0
-2754 2758 0
-2745 -2754 2759 0
-2755 2759 0
-2745 -2755 2760 0
-2756 2760 0
-2745 -2756 0
-2746 2761 0
-2757 2761 0
-2746 -2757 2762 0
-2758 2762 0
-2746 -2758 2763 0
-2759 2763 0
-2746 -2759 2764 0
-2760 2764 0
-2746 -2760 0
-2747 2765 0
-2761 2765 0
-2747 -2761 2766 0
-2762 2766 0
-2747 -2762 2767 0
-2763 2767 0
-2747 -2763 2768 0
-2764 2768 0
-2747 -2764 0
-2748 -2768 0
-2773 182 183 184 185 186 0
-182 2773 0
-183 2773 0
-184 2773 0
-185 2773 0
-186 2773 0
-2774 188 189 190 191 192 0
-188 2774 0
-189 2774 0
-190 2774 0
-191 2774 0
-192 2774 0
-2775 194 195 196 197 198 0
-194 2775 0
-195 2775 0
-196 2775 0
-197 2775 0
-198 2775 0
-2776 200 201 202 203 204 0
-200 2776 0
-201 2776 0
-202 2776 0
-203 2776 0
-204 2776 0
-2777 206 207 208 209 210 0
-206 2777 0
-207 2777 0
-208 2777 0
-209 2777 0
-210 2777 0
-2778 212 213 214 215 216 0
-212 2778 0
-213 2778 0
-214 2778 0
-215 2778 0
-216 2778 0
-2773 2779 0
-2780 0
-2781 0
-2782 0
-2783 0
-2774 2784 0
-2779 2784 0
-2774 -2779 2785 0
-2780 2785 0
-2774 -2780 2786 0
-2781 2786 0
-2774 -2781 2787 0
-2782 2787 0
-2774 -2782 2788 0
-2783 2788 0
-2774 -2783 0
-2775 2789 0
-2784 2789 0
-2775 -2784 2790 0
-2785 2790 0
-2775 -2785 2791 0
-2786 2791 0
-2775 -2786 2792 0
-2787 2792 0
-2775 -2787 2793 0
-2788 2793 0
-2775 -2788 0
-2776 2794 0
-2789 2794 0
-2776 -2789 2795 0
-2790 2795 0
-2776 -2790 2796 0
-2791 2796 0
-2776 -2791 2797 0
-2792 2797 0
-2776 -2792 2798 0
-2793 2798 0
-2776 -2793 0
-2777 2799 0
-2794 2799 0
-2777 -2794 2800 0
-2795 2800 0
-2777 -2795 2801 0
-2796 2801 0
-2777 -2796 2802 0
-2797 2802 0
-2777 -2797 2803 0
-2798 2803 0
-2777 -2798 0
-2778 -2803 0
-2809 183 0
-183 2809 0
-2810 189 0
-189 2810 0
-2811 195 0
-195 2811 0
-2812 201 0
-201 2812 0
-2813 207 0
-207 2813 0
-2814 213 0
-213 2814 0
-2809 2815 0
-2810 2816 0
-2815 2816 0
-2810 -2815 0
-2811 2817 0
-2816 2817 0
-2811 -2816 0
-2812 2818 0
-2817 2818 0
-2812 -2817 0
-2813 2819 0
-2818 2819 0
-2813 -2818 0
-2814 -2819 0
-2821 183 184 0
-183 2821 0
-184 2821 0
-2822 189 190 0
-189 2822 0
-190 2822 0
-2823 195 196 0
-195 2823 0
-196 2823 0
-2824 201 202 0
-201 2824 0
-202 2824 0
-2825 207 208 0
-207 2825 0
-208 2825 0
-2826 213 214 0
-213 2826 0
-214 2826 0
-2821 2827 0
-2828 0
-2822 2829 0
-2827 2829 0
-2822 -2827 2830 0
-2828 2830 0
-2822 -2828 0
-2823 2831 0
-2829 2831 0
-2823 -2829 2832 0
-2830 2832 0
-2823 -2830 0
-2824 2833 0
-2831 2833 0
-2824 -2831 2834 0
-2832 2834 0
-2824 -2832 0
-2825 2835 0
-2833 2835 0
-2825 -2833 2836 0
-2834 2836 0
-2825 -2834 0
-2826 -2836 0
-2839 183 184 185 0
-183 2839 0
-184 2839 0
-185 2839 0
-2840 189 190 191 0
-189 2840 0
-190 2840 0
-191 2840 0
-2841 195 196 197 0
-195 2841 0
-196 2841 0
-197 2841 0
-2842 201 202 203 0
-201 2842 0
-202 2842 0
-203 2842 0
-2843 207 208 209 0
-207 2843 0
-208 2843 0
-209 2843 0
-2844 213 214 215 0
-213 2844 0
-214 2844 0
-215 2844 0
-2839 2845 0
-2846 0
-2847 0
-2840 2848 0
-2845 2848 0
-2840 -2845 2849 0
-2846 2849 0
-2840 -2846 2850 0
-2847 2850 0
-2840 -2847 0
-2841 2851 0
-2848 2851 0
-2841 -2848 2852 0
-2849 2852 0
-2841 -2849 2853 0
-2850 2853 0
-2841 -2850 0
-2842 2854 0
-2851 2854 0
-2842 -2851 2855 0
-2852 2855 0
-2842 -2852 2856 0
-2853 2856 0
-2842 -2853 0
-2843 2857 0
-2854 2857 0
-2843 -2854 2858 0
-2855 2858 0
-2843 -2855 2859 0
-2856 2859 0
-2843 -2856 0
-2844 -2859 0
-2863 183 184 185 186 0
-183 2863 0
-184 2863 0
-185 2863 0
-186 2863 0
-2864 189 190 191 192 0
-189 2864 0
-190 2864 0
-191 2864 0
-192 2864 0
-2865 195 196 197 198 0
-195 2865 0
-196 2865 0
-197 2865 0
-198 2865 0
-2866 201 202 203 204 0
-201 2866 0
-202 2866 0
-203 2866 0
-204 2866 0
-2867 207 208 209 210 0
-207 2867 0
-208 2867 0
-209 2867 0
-210 2867 0
-2868 213 214 215 216 0
-213 2868 0
-214 2868 0
-215 2868 0
-216 2868 0
-2863 2869 0
-2870 0
-2871 0
-2872 0
-2864 2873 0
-2869 2873 0
-2864 -2869 2874 0
-2870 2874 0
-2864 -2870 2875 0
-2871 2875 0
-2864 -2871 2876 0
-2872 2876 0
-2864 -2872 0
-2865 2877 0
-2873 2877 0
-2865 -2873 2878 0
-2874 2878 0
-2865 -2874 2879 0
-2875 2879 0
-2865 -2875 2880 0
-2876 2880 0
-2865 -2876 0
-2866 2881 0
-2877 2881 0
-2866 -2877 2882 0
-2878 2882 0
-2866 -2878 2883 0
-2879 2883 0
-2866 -2879 2884 0
-2880 2884 0
-2866 -2880 0
-2867 2885 0
-2881 2885 0
-2867 -2881 2886 0
-2882 2886 0
-2867 -2882 2887 0
-2883 2887 0
-2867 -2883 2888 0
-2884 2888 0
-2867 -2884 0
-2868 -2888 0
-2893 184 0
-184 2893 0
-2894 190 0
-190 2894 0
-2895 196 0
-196 2895 0
-2896 202 0
-202 2896 0
-2897 208 0
-208 2897 0
-2898 214 0
-214 2898 0
-2893 2899 0
-2894 2900 0
-2899 2900 0
-2894 -2899 0
-2895 2901 0
-2900 2901 0
-2895 -2900 0
-2896 2902 0
-2901 2902 0
-2896 -2901 0
-2897 2903 0
-2902 2903 0
-2897 -2902 0
-2898 -2903 0
-2905 184 185 0
-184 2905 0
-185 2905 0
-2906 190 191 0
-190 2906 0
-191 2906 0
-2907 196 197 0
-196 2907 0
-197 2907 0
-2908 202 203 0
-202 2908 0
-203 2908 0
-2909 208 209 0
-208 2909 0
-209 2909 0
-2910 214 215 0
-214 2910 0
-215 2910 0
-2905 2911 0
-2912 0
-2906 2913 0
-2911 2913 0
-2906 -2911 2914 0
-2912 2914 0
-2906 -2912 0
-2907 2915 0
-2913 2915 0
-2907 -2913 2916 0
-2914 2916 0
-2907 -2914 0
-2908 2917 0
-2915 2917 0
-2908 -2915 2918 0
-2916 2918 0
-2908 -2916 0
-2909 2919 0
-2917 2919 0
-2909 -2917 2920 0
-2918 2920 0
-2909 -2918 0
-2910 -2920 0
-2923 184 185 186 0
-184 2923 0
-185 2923 0
-186 2923 0
-2924 190 191 192 0
-190 2924 0
-191 2924 0
-192 2924 0
-2925 196 197 198 0
-196 2925 0
-197 2925 0
-198 2925 0
-2926 202 203 204 0
-202 2926 0
-203 2926 0
-204 2926 0
-2927 208 209 210 0
-208 2927 0
-209 2927 0
-210 2927 0
-2928 214 215 216 0
-214 2928 0
-215 2928 0
-216 2928 0
-2923 2929 0
-2930 0
-2931 0
-2924 2932 0
-2929 2932 0
-2924 -2929 2933 0
-2930 2933 0
-2924 -2930 2934 0
-2931 2934 0
-2924 -2931 0
-2925 2935 0
-2932 2935 0
-2925 -2932 2936 0
-2933 2936 0
-2925 -2933 2937 0
-2934 2937 0
-2925 -2934 0
-2926 2938 0
-2935 2938 0
-2926 -2935 2939 0
-2936 2939 0
-2926 -2936 2940 0
-2937 2940 0
-2926 -2937 0
-2927 2941 0
-2938 2941 0
-2927 -2938 2942 0
-2939 2942 0
-2927 -2939 2943 0
-2940 2943 0
-2927 -2940 0
-2928 -2943 0
-2947 185 0
-185 2947 0
-2948 191 0
-191 2948 0
-2949 197 0
-197 2949 0
-2950 203 0
-203 2950 0
-2951 209 0
-209 2951 0
-2952 215 0
-215 2952 0
-2947 2953 0
-2948 2954 0
-2953 2954 0
-2948 -2953 0
-2949 2955 0
-2954 2955 0
-2949 -2954 0
-2950 2956 0
-2955 2956 0
-2950 -2955 0
-2951 2957 0
-2956 2957 0
-2951 -2956 0
-2952 -2957 0
-2959 185 186 0
-185 2959 0
-186 2959 0
-2960 191 192 0
-191 2960 0
-192 2960 0
-2961 197 198 0
-197 2961 0
-198 2961 0
-2962 203 204 0
-203 2962 0
-204 2962 0
-2963 209 210 0
-209 2963 0
-210 2963 0
-2964 215 216 0
-215 2964 0
-216 2964 0
-2959 2965 0
-2966 0
-2960 2967 0
-2965 2967 0
-2960 -2965 2968 0
-2966 2968 0
-2960 -2966 0
-2961 2969 0
-2967 2969 0
-2961 -2967 2970 0
-2968 2970 0
-2961 -2968 0
-2962 2971 0
-2969 2971 0
-2962 -2969 2972 0
-2970 2972 0
-2962 -2970 0
-2963 2973 0
-2971 2973 0
-2963 -2971 2974 0
-2972 2974 0
-2963 -2972 0
-2964 -2974 0
-2977 186 0
-186 2977 0
-2978 192 0
-192 2978 0
-2979 198 0
-198 2979 0
-2980 204 0
-204 2980 0
-2981 210 0
-210 2981 0
-2982 216 0
-216 2982 0
-2977 2983 0
-2978 2984 0
-2983 2984 0
-2978 -2983 0
-2979 2985 0
-2984 2985 0
-2979 -2984 0
-2980 2986 0
-2985 2986 0
-2980 -2985 0
-2981 2987 0
-2986 2987 0
-2981 -2986 0
-2982 -2987 0
-2989 1 0
-1 2989 0
-2990 37 0
-37 2990 0
-2991 73 0
-73 2991 0
-2992 109 0
-109 2992 0
-2993 145 0
-145 2993 0
-2994 181 0
-181 2994 0
-2989 2995 0
-2990 2996 0
-2995 2996 0
-2990 -2995 0
-2991 2997 0
-2996 2997 0
-2991 -2996 0
-2992 2998 0
-2997 2998 0
-2992 -2997 0
-2993 2999 0
-2998 2999 0
-2993 -2998 0
-2994 -2999 0
-3001 1 2 0
-1 3001 0
-2 3001 0
-3002 37 38 0
-37 3002 0
-38 3002 0
-3003 73 74 0
-73 3003 0
-74 3003 0
-3004 109 110 0
-109 3004 0
-110 3004 0
-3005 145 146 0
-145 3005 0
-146 3005 0
-3006 181 182 0
-181 3006 0
-182 3006 0
-3001 3007 0
-3008 0
-3002 3009 0
-3007 3009 0
-3002 -3007 3010 0
-3008 3010 0
-3002 -3008 0
-3003 3011 0
-3009 3011 0
-3003 -3009 3012 0
-3010 3012 0
-3003 -3010 0
-3004 3013 0
-3011 3013 0
-3004 -3011 3014 0
-3012 3014 0
-3004 -3012 0
-3005 3015 0
-3013 3015 0
-3005 -3013 3016 0
-3014 3016 0
-3005 -3014 0
-3006 -3016 0
-3019 1 2 3 0
-1 3019 0
-2 3019 0
-3 3019 0
-3020 37 38 39 0
-37 3020 0
-38 3020 0
-39 3020 0
-3021 73 74 75 0
-73 3021 0
-74 3021 0
-75 3021 0
-3022 109 110 111 0
-109 3022 0
-110 3022 0
-111 3022 0
-3023 145 146 147 0
-145 3023 0
-146 3023 0
-147 3023 0
-3024 181 182 183 0
-181 3024 0
-182 3024 0
-183 3024 0
-3019 3025 0
-3026 0
-3027 0
-3020 3028 0
-3025 3028 0
-3020 -3025 3029 0
-3026 3029 0
-3020 -3026 3030 0
-3027 3030 0
-3020 -3027 0
-3021 3031 0
-3028 3031 0
-3021 -3028 3032 0
-3029 3032 0
-3021 -3029 3033 0
-3030 3033 0
-3021 -3030 0
-3022 3034 0
-3031 3034 0
-3022 -3031 3035 0
-3032 3035 0
-3022 -3032 3036 0
-3033 3036 0
-3022 -3033 0
-3023 3037 0
-3034 3037 0
-3023 -3034 3038 0
-3035 3038 0
-3023 -3035 3039 0
-3036 3039 0
-3023 -3036 0
-3024 -3039 0
-3043 1 2 3 4 0
-1 3043 0
-2 3043 0
-3 3043 0
-4 3043 0
-3044 37 38 39 40 0
-37 3044 0
-38 3044 0
-39 3044 0
-40 3044 0
-3045 73 74 75 76 0
-73 3045 0
-74 3045 0
-75 3045 0
-76 3045 0
-3046 109 110 111 112 0
-109 3046 0
-110 3046 0
-111 3046 0
-112 3046 0
-3047 145 146 147 148 0
-145 3047 0
-146 3047 0
-147 3047 0
-148 3047 0
-3048 181 182 183 184 0
-181 3048 0
-182 3048 0
-183 3048 0
-184 3048 0
-3043 3049 0
-3050 0
-3051 0
-3052 0
-3044 3053 0
-3049 3053 0
-3044 -3049 3054 0
-3050 3054 0
-3044 -3050 3055 0
-3051 3055 0
-3044 -3051 3056 0
-3052 3056 0
-3044 -3052 0
-3045 3057 0
-3053 3057 0
-3045 -3053 3058 0
-3054 3058 0
-3045 -3054 3059 0
-3055 3059 0
-3045 -3055 3060 0
-3056 3060 0
-3045 -3056 0
-3046 3061 0
-3057 3061 0
-3046 -3057 3062 0
-3058 3062 0
-3046 -3058 3063 0
-3059 3063 0
-3046 -3059 3064 0
-3060 3064 0
-3046 -3060 0
-3047 3065 0
-3061 3065 0
-3047 -3061 3066 0
-3062 3066 0
-3047 -3062 3067 0
-3063 3067 0
-3047 -3063 3068 0
-3064 3068 0
-3047 -3064 0
-3048 -3068 0
-3073 1 2 3 4 5 0
-1 3073 0
-2 3073 0
-3 3073 0
-4 3073 0
-5 3073 0
-3074 37 38 39 40 41 0
-37 3074 0
-38 3074 0
-39 3074 0
-40 3074 0
-41 3074 0
-3075 73 74 75 76 77 0
-73 3075 0
-74 3075 0
-75 3075 0
-76 3075 0
-77 3075 0
-3076 109 110 111 112 113 0
-109 3076 0
-110 3076 0
-111 3076 0
-112 3076 0
-113 3076 0
-3077 145 146 147 148 149 0
-145 3077 0
-146 3077 0
-147 3077 0
-148 3077 0
-149 3077 0
-3078 181 182 183 184 185 0
-181 3078 0
-182 3078 0
-183 3078 0
-184 3078 0
-185 3078 0
-3073 3079 0
-3080 0
-3081 0
-3082 0
-3083 0
-3074 3084 0
-3079 3084 0
-3074 -3079 3085 0
-3080 3085 0
-3074 -3080 3086 0
-3081 3086 0
-3074 -3081 3087 0
-3082 3087 0
-3074 -3082 3088 0
-3083 3088 0
-3074 -3083 0
-3075 3089 0
-3084 3089 0
-3075 -3084 3090 0
-3085 3090 0
-3075 -3085 3091 0
-3086 3091 0
-3075 -3086 3092 0
-3087 3092 0
-3075 -3087 3093 0
-3088 3093 0
-3075 -3088 0
-3076 3094 0
-3089 3094 0
-3076 -3089 3095 0
-3090 3095 0
-3076 -3090 3096 0
-3091 3096 0
-3076 -3091 3097 0
-3092 3097 0
-3076 -3092 3098 0
-3093 3098 0
-3076 -3093 0
-3077 3099 0
-3094 3099 0
-3077 -3094 3100 0
-3095 3100 0
-3077 -3095 3101 0
-3096 3101 0
-3077 -3096 3102 0
-3097 3102 0
-3077 -3097 3103 0
-3098 3103 0
-3077 -3098 0
-3078 -3103 0
-3109 1 2 3 4 5 6 0
-1 3109 0
-2 3109 0
-3 3109 0
-4 3109 0
-5 3109 0
-6 3109 0
-3110 37 38 39 40 41 42 0
-37 3110 0
-38 3110 0
-39 3110 0
-40 3110 0
-41 3110 0
-42 3110 0
-3111 73 74 75 76 77 78 0
-73 3111 0
-74 3111 0
-75 3111 0
-76 3111 0
-77 3111 0
-78 3111 0
-3112 109 110 111 112 113 114 0
-109 3112 0
-110 3112 0
-111 3112 0
-112 3112 0
-113 3112 0
-114 3112 0
-3113 145 146 147 148 149 150 0
-145 3113 0
-146 3113 0
-147 3113 0
-148 3113 0
-149 3113 0
-150 3113 0
-3114 181 182 183 184 185 186 0
-181 3114 0
-182 3114 0
-183 3114 0
-184 3114 0
-185 3114 0
-186 3114 0
-3115 2 0
-2 3115 0
-3116 38 0
-38 3116 0
-3117 74 0
-74 3117 0
-3118 110 0
-110 3118 0
-3119 146 0
-146 3119 0
-3120 182 0
-182 3120 0
-3115 3121 0
-3116 3122 0
-3121 3122 0
-3116 -3121 0
-3117 3123 0
-3122 3123 0
-3117 -3122 0
-3118 3124 0
-3123 3124 0
-3118 -3123 0
-3119 3125 0
-3124 3125 0
-3119 -3124 0
-3120 -3125 0
-3127 2 3 0
-2 3127 0
-3 3127 0
-3128 38 39 0
-38 3128 0
-39 3128 0
-3129 74 75 0
-74 3129 0
-75 3129 0
-3130 110 111 0
-110 3130 0
-111 3130 0
-3131 146 147 0
-146 3131 0
-147 3131 0
-3132 182 183 0
-182 3132 0
-183 3132 0
-3127 3133 0
-3134 0
-3128 3135 0
-3133 3135 0
-3128 -3133 3136 0
-3134 3136 0
-3128 -3134 0
-3129 3137 0
-3135 3137 0
-3129 -3135 3138 0
-3136 3138 0
-3129 -3136 0
-3130 3139 0
-3137 3139 0
-3130 -3137 3140 0
-3138 3140 0
-3130 -3138 0
-3131 3141 0
-3139 3141 0
-3131 -3139 3142 0
-3140 3142 0
-3131 -3140 0
-3132 -3142 0
-3145 2 3 4 0
-2 3145 0
-3 3145 0
-4 3145 0
-3146 38 39 40 0
-38 3146 0
-39 3146 0
-40 3146 0
-3147 74 75 76 0
-74 3147 0
-75 3147 0
-76 3147 0
-3148 110 111 112 0
-110 3148 0
-111 3148 0
-112 3148 0
-3149 146 147 148 0
-146 3149 0
-147 3149 0
-148 3149 0
-3150 182 183 184 0
-182 3150 0
-183 3150 0
-184 3150 0
-3145 3151 0
-3152 0
-3153 0
-3146 3154 0
-3151 3154 0
-3146 -3151 3155 0
-3152 3155 0
-3146 -3152 3156 0
-3153 3156 0
-3146 -3153 0
-3147 3157 0
-3154 3157 0
-3147 -3154 3158 0
-3155 3158 0
-3147 -3155 3159 0
-3156 3159 0
-3147 -3156 0
-3148 3160 0
-3157 3160 0
-3148 -3157 3161 0
-3158 3161 0
-3148 -3158 3162 0
-3159 3162 0
-3148 -3159 0
-3149 3163 0
-3160 3163 0
-3149 -3160 3164 0
-3161 3164 0
-3149 -3161 3165 0
-3162 3165 0
-3149 -3162 0
-3150 -3165 0
-3169 2 3 4 5 0
-2 3169 0
-3 3169 0
-4 3169 0
-5 3169 0
-3170 38 39 40 41 0
-38 3170 0
-39 3170 0
-40 3170 0
-41 3170 0
-3171 74 75 76 77 0
-74 3171 0
-75 3171 0
-76 3171 0
-77 3171 0
-3172 110 111 112 113 0
-110 3172 0
-111 3172 0
-112 3172 0
-113 3172 0
-3173 146 147 148 149 0
-146 3173 0
-147 3173 0
-148 3173 0
-149 3173 0
-3174 182 183 184 185 0
-182 3174 0
-183 3174 0
-184 3174 0
-185 3174 0
-3169 3175 0
-3176 0
-3177 0
-3178 0
-3170 3179 0
-3175 3179 0
-3170 -3175 3180 0
-3176 3180 0
-3170 -3176 3181 0
-3177 3181 0
-3170 -3177 3182 0
-3178 3182 0
-3170 -3178 0
-3171 3183 0
-3179 3183 0
-3171 -3179 3184 0
-3180 3184 0
-3171 -3180 3185 0
-3181 3185 0
-3171 -3181 3186 0
-3182 3186 0
-3171 -3182 0
-3172 3187 0
-3183 3187 0
-3172 -3183 3188 0
-3184 3188 0
-3172 -3184 3189 0
-3185 3189 0
-3172 -3185 3190 0
-3186 3190 0
-3172 -3186 0
-3173 3191 0
-3187 3191 0
-3173 -3187 3192 0
-3188 3192 0
-3173 -3188 3193 0
-3189 3193 0
-3173 -3189 3194 0
-3190 3194 0
-3173 -3190 0
-3174 -3194 0
-3199 2 3 4 5 6 0
-2 3199 0
-3 3199 0
-4 3199 0
-5 3199 0
-6 3199 0
-3200 38 39 40 41 42 0
-38 3200 0
-39 3200 0
-40 3200 0
-41 3200 0
-42 3200 0
-3201 74 75 76 77 78 0
-74 3201 0
-75 3201 0
-76 3201 0
-77 3201 0
-78 3201 0
-3202 110 111 112 113 114 0
-110 3202 0
-111 3202 0
-112 3202 0
-113 3202 0
-114 3202 0
-3203 146 147 148 149 150 0
-146 3203 0
-147 3203 0
-148 3203 0
-149 3203 0
-150 3203 0
-3204 182 183 184 185 186 0
-182 3204 0
-183 3204 0
-184 3204 0
-185 3204 0
-186 3204 0
-3199 3205 0
-3206 0
-3207 0
-3208 0
-3209 0
-3200 3210 0
-3205 3210 0
-3200 -3205 3211 0
-3206 3211 0
-3200 -3206 3212 0
-3207 3212 0
-3200 -3207 3213 0
-3208 3213 0
-3200 -3208 3214 0
-3209 3214 0
-3200 -3209 0
-3201 3215 0
-3210 3215 0
-3201 -3210 3216 0
-3211 3216 0
-3201 -3211 3217 0
-3212 3217 0
-3201 -3212 3218 0
-3213 3218 0
-3201 -3213 3219 0
-3214 3219 0
-3201 -3214 0
-3202 3220 0
-3215 3220 0
-3202 -3215 3221 0
-3216 3221 0
-3202 -3216 3222 0
-3217 3222 0
-3202 -3217 3223 0
-3218 3223 0
-3202 -3218 3224 0
-3219 3224 0
-3202 -3219 0
-3203 3225 0
-3220 3225 0
-3203 -3220 3226 0
-3221 3226 0
-3203 -3221 3227 0
-3222 3227 0
-3203 -3222 3228 0
-3223 3228 0
-3203 -3223 3229 0
-3224 3229 0
-3203 -3224 0
-3204 -3229 0
-3235 3 0
-3 3235 0
-3236 39 0
-39 3236 0
-3237 75 0
-75 3237 0
-3238 111 0
-111 3238 0
-3239 147 0
-147 3239 0
-3240 183 0
-183 3240 0
-3235 3241 0
-3236 3242 0
-3241 3242 0
-3236 -3241 0
-3237 3243 0
-3242 3243 0
-3237 -3242 0
-3238 3244 0
-3243 3244 0
-3238 -3243 0
-3239 3245 0
-3244 3245 0
-3239 -3244 0
-3240 -3245 0
-3247 3 4 0
-3 3247 0
-4 3247 0
-3248 39 40 0
-39 3248 0
-40 3248 0
-3249 75 76 0
-75 3249 0
-76 3249 0
-3250 111 112 0
-111 3250 0
-112 3250 0
-3251 147 148 0
-147 3251 0
-148 3251 0
-3252 183 184 0
-183 3252 0
-184 3252 0
-3247 3253 0
-3254 0
-3248 3255 0
-3253 3255 0
-3248 -3253 3256 0
-3254 3256 0
-3248 -3254 0
-3249 3257 0
-3255 3257 0
-3249 -3255 3258 0
-3256 3258 0
-3249 -3256 0
-3250 3259 0
-3257 3259 0
-3250 -3257 3260 0
-3258 3260 0
-3250 -3258 0
-3251 3261 0
-3259 3261 0
-3251 -3259 3262 0
-3260 3262 0
-3251 -3260 0
-3252 -3262 0
-3265 3 4 5 0
-3 3265 0
-4 3265 0
-5 3265 0
-3266 39 40 41 0
-39 3266 0
-40 3266 0
-41 3266 0
-3267 75 76 77 0
-75 3267 0
-76 3267 0
-77 3267 0
-3268 111 112 113 0
-111 3268 0
-112 3268 0
-113 3268 0
-3269 147 148 149 0
-147 3269 0
-148 3269 0
-149 3269 0
-3270 183 184 185 0
-183 3270 0
-184 3270 0
-185 3270 0
-3265 3271 0
-3272 0
-3273 0
-3266 3274 0
-3271 3274 0
-3266 -3271 3275 0
-3272 3275 0
-3266 -3272 3276 0
-3273 3276 0
-3266 -3273 0
-3267 3277 0
-3274 3277 0
-3267 -3274 3278 0
-3275 3278 0
-3267 -3275 3279 0
-3276 3279 0
-3267 -3276 0
-3268 3280 0
-3277 3280 0
-3268 -3277 3281 0
-3278 3281 0
-3268 -3278 3282 0
-3279 3282 0
-3268 -3279 0
-3269 3283 0
-3280 3283 0
-3269 -3280 3284 0
-3281 3284 0
-3269 -3281 3285 0
-3282 3285 0
-3269 -3282 0
-3270 -3285 0
-3289 3 4 5 6 0
-3 3289 0
-4 3289 0
-5 3289 0
-6 3289 0
-3290 39 40 41 42 0
-39 3290 0
-40 3290 0
-41 3290 0
-42 3290 0
-3291 75 76 77 78 0
-75 3291 0
-76 3291 0
-77 3291 0
-78 3291 0
-3292 111 112 113 114 0
-111 3292 0
-112 3292 0
-113 3292 0
-114 3292 0
-3293 147 148 149 150 0
-147 3293 0
-148 3293 0
-149 3293 0
-150 3293 0
-3294 183 184 185 186 0
-183 3294 0
-184 3294 0
-185 3294 0
-186 3294 0
-3289 3295 0
-3296 0
-3297 0
-3298 0
-3290 3299 0
-3295 3299 0
-3290 -3295 3300 0
-3296 3300 0
-3290 -3296 3301 0
-3297 3301 0
-3290 -3297 3302 0
-3298 3302 0
-3290 -3298 0
-3291 3303 0
-3299 3303 0
-3291 -3299 3304 0
-3300 3304 0
-3291 -3300 3305 0
-3301 3305 0
-3291 -3301 3306 0
-3302 3306 0
-3291 -3302 0
-3292 3307 0
-3303 3307 0
-3292 -3303 3308 0
-3304 3308 0
-3292 -3304 3309 0
-3305 3309 0
-3292 -3305 3310 0
-3306 3310 0
-3292 -3306 0
-3293 3311 0
-3307 3311 0
-3293 -3307 3312 0
-3308 3312 0
-3293 -3308 3313 0
-3309 3313 0
-3293 -3309 3314 0
-3310 3314 0
-3293 -3310 0
-3294 -3314 0
-3319 4 0
-4 3319 0
-3320 40 0
-40 3320 0
-3321 76 0
-76 3321 0
-3322 112 0
-112 3322 0
-3323 148 0
-148 3323 0
-3324 184 0
-184 3324 0
-3319 3325 0
-3320 3326 0
-3325 3326 0
-3320 -3325 0
-3321 3327 0
-3326 3327 0
-3321 -3326 0
-3322 3328 0
-3327 3328 0
-3322 -3327 0
-3323 3329 0
-3328 3329 0
-3323 -3328 0
-3324 -3329 0
-3331 4 5 0
-4 3331 0
-5 3331 0
-3332 40 41 0
-40 3332 0
-41 3332 0
-3333 76 77 0
-76 3333 0
-77 3333 0
-3334 112 113 0
-112 3334 0
-113 3334 0
-3335 148 149 0
-148 3335 0
-149 3335 0
-3336 184 185 0
-184 3336 0
-185 3336 0
-3331 3337 0
-3338 0
-3332 3339 0
-3337 3339 0
-3332 -3337 3340 0
-3338 3340 0
-3332 -3338 0
-3333 3341 0
-3339 3341 0
-3333 -3339 3342 0
-3340 3342 0
-3333 -3340 0
-3334 3343 0
-3341 3343 0
-3334 -3341 3344 0
-3342 3344 0
-3334 -3342 0
-3335 3345 0
-3343 3345 0
-3335 -3343 3346 0
-3344 3346 0
-3335 -3344 0
-3336 -3346 0
-3349 4 5 6 0
-4 3349 0
-5 3349 0
-6 3349 0
-3350 40 41 42 0
-40 3350 0
-41 3350 0
-42 3350 0
-3351 76 77 78 0
-76 3351 0
-77 3351 0
-78 3351 0
-3352 112 113 114 0
-112 3352 0
-113 3352 0
-114 3352 0
-3353 148 149 150 0
-148 3353 0
-149 3353 0
-150 3353 0
-3354 184 185 186 0
-184 3354 0
-185 3354 0
-186 3354 0
-3349 3355 0
-3356 0
-3357 0
-3350 3358 0
-3355 3358 0
-3350 -3355 3359 0
-3356 3359 0
-3350 -3356 3360 0
-3357 3360 0
-3350 -3357 0
-3351 3361 0
-3358 3361 0
-3351 -3358 3362 0
-3359 3362 0
-3351 -3359 3363 0
-3360 3363 0
-3351 -3360 0
-3352 3364 0
-3361 3364 0
-3352 -3361 3365 0
-3362 3365 0
-3352 -3362 3366 0
-3363 3366 0
-3352 -3363 0
-3353 3367 0
-3364 3367 0
-3353 -3364 3368 0
-3365 3368 0
-3353 -3365 3369 0
-3366 3369 0
-3353 -3366 0
-3354 -3369 0
-3373 5 0
-5 3373 0
-3374 41 0
-41 3374 0
-3375 77 0
-77 3375 0
-3376 113 0
-113 3376 0
-3377 149 0
-149 3377 0
-3378 185 0
-185 3378 0
-3373 3379 0
-3374 3380 0
-3379 3380 0
-3374 -3379 0
-3375 3381 0
-3380 3381 0
-3375 -3380 0
-3376 3382 0
-3381 3382 0
-3376 -3381 0
-3377 3383 0
-3382 3383 0
-3377 -3382 0
-3378 -3383 0
-3385 5 6 0
-5 3385 0
-6 3385 0
-3386 41 42 0
-41 3386 0
-42 3386 0
-3387 77 78 0
-77 3387 0
-78 3387 0
-3388 113 114 0
-113 3388 0
-114 3388 0
-3389 149 150 0
-149 3389 0
-150 3389 0
-3390 185 186 0
-185 3390 0
-186 3390 0
-3385 3391 0
-3392 0
-3386 3393 0
-3391 3393 0
-3386 -3391 3394 0
-3392 3394 0
-3386 -3392 0
-3387 3395 0
-3393 3395 0
-3387 -3393 3396 0
-3394 3396 0
-3387 -3394 0
-3388 3397 0
-3395 3397 0
-3388 -3395 3398 0
-3396 3398 0
-3388 -3396 0
-3389 3399 0
-3397 3399 0
-3389 -3397 3400 0
-3398 3400 0
-3389 -3398 0
-3390 -3400 0
-3403 6 0
-6 3403 0
-3404 42 0
-42 3404 0
-3405 78 0
-78 3405 0
-3406 114 0
-114 3406 0
-3407 150 0
-150 3407 0
-3408 186 0
-186 3408 0
-3403 3409 0
-3404 3410 0
-3409 3410 0
-3404 -3409 0
-3405 3411 0
-3410 3411 0
-3405 -3410 0
-3406 3412 0
-3411 3412 0
-3406 -3411 0
-3407 3413 0
-3412 3413 0
-3407 -3412 0
-3408 -3413 0
-3415 7 0
-7 3415 0
-3416 43 0
-43 3416 0
-3417 79 0
-79 3417 0
-3418 115 0
-115 3418 0
-3419 151 0
-151 3419 0
-3420 187 0
-187 3420 0
-3415 3421 0
-3416 3422 0
-3421 3422 0
-3416 -3421 0
-3417 3423 0
-3422 3423 0
-3417 -3422 0
-3418 3424 0
-3423 3424 0
-3418 -3423 0
-3419 3425 0
-3424 3425 0
-3419 -3424 0
-3420 -3425 0
-3427 7 8 0
-7 3427 0
-8 3427 0
-3428 43 44 0
-43 3428 0
-44 3428 0
-3429 79 80 0
-79 3429 0
-80 3429 0
-3430 115 116 0
-115 3430 0
-116 3430 0
-3431 151 152 0
-151 3431 0
-152 3431 0
-3432 187 188 0
-187 3432 0
-188 3432 0
-3427 3433 0
-3434 0
-3428 3435 0
-3433 3435 0
-3428 -3433 3436 0
-3434 3436 0
-3428 -3434 0
-3429 3437 0
-3435 3437 0
-3429 -3435 3438 0
-3436 3438 0
-3429 -3436 0
-3430 3439 0
-3437 3439 0
-3430 -3437 3440 0
-3438 3440 0
-3430 -3438 0
-3431 3441 0
-3439 3441 0
-3431 -3439 3442 0
-3440 3442 0
-3431 -3440 0
-3432 -3442 0
-3445 7 8 9 0
-7 3445 0
-8 3445 0
-9 3445 0
-3446 43 44 45 0
-43 3446 0
-44 3446 0
-45 3446 0
-3447 79 80 81 0
-79 3447 0
-80 3447 0
-81 3447 0
-3448 115 116 117 0
-115 3448 0
-116 3448 0
-117 3448 0
-3449 151 152 153 0
-151 3449 0
-152 3449 0
-153 3449 0
-3450 187 188 189 0
-187 3450 0
-188 3450 0
-189 3450 0
-3445 3451 0
-3452 0
-3453 0
-3446 3454 0
-3451 3454 0
-3446 -3451 3455 0
-3452 3455 0
-3446 -3452 3456 0
-3453 3456 0
-3446 -3453 0
-3447 3457 0
-3454 3457 0
-3447 -3454 3458 0
-3455 3458 0
-3447 -3455 3459 0
-3456 3459 0
-3447 -3456 0
-3448 3460 0
-3457 3460 0
-3448 -3457 3461 0
-3458 3461 0
-3448 -3458 3462 0
-3459 3462 0
-3448 -3459 0
-3449 3463 0
-3460 3463 0
-3449 -3460 3464 0
-3461 3464 0
-3449 -3461 3465 0
-3462 3465 0
-3449 -3462 0
-3450 -3465 0
-3469 7 8 9 10 0
-7 3469 0
-8 3469 0
-9 3469 0
-10 3469 0
-3470 43 44 45 46 0
-43 3470 0
-44 3470 0
-45 3470 0
-46 3470 0
-3471 79 80 81 82 0
-79 3471 0
-80 3471 0
-81 3471 0
-82 3471 0
-3472 115 116 117 118 0
-115 3472 0
-116 3472 0
-117 3472 0
-118 3472 0
-3473 151 152 153 154 0
-151 3473 0
-152 3473 0
-153 3473 0
-154 3473 0
-3474 187 188 189 190 0
-187 3474 0
-188 3474 0
-189 3474 0
-190 3474 0
-3469 3475 0
-3476 0
-3477 0
-3478 0
-3470 3479 0
-3475 3479 0
-3470 -3475 3480 0
-3476 3480 0
-3470 -3476 3481 0
-3477 3481 0
-3470 -3477 3482 0
-3478 3482 0
-3470 -3478 0
-3471 3483 0
-3479 3483 0
-3471 -3479 3484 0
-3480 3484 0
-3471 -3480 3485 0
-3481 3485 0
-3471 -3481 3486 0
-3482 3486 0
-3471 -3482 0
-3472 3487 0
-3483 3487 0
-3472 -3483 3488 0
-3484 3488 0
-3472 -3484 3489 0
-3485 3489 0
-3472 -3485 3490 0
-3486 3490 0
-3472 -3486 0
-3473 3491 0
-3487 3491 0
-3473 -3487 3492 0
-3488 3492 0
-3473 -3488 3493 0
-3489 3493 0
-3473 -3489 3494 0
-3490 3494 0
-3473 -3490 0
-3474 -3494 0
-3499 7 8 9 10 11 0
-7 3499 0
-8 3499 0
-9 3499 0
-10 3499 0
-11 3499 0
-3500 43 44 45 46 47 0
-43 3500 0
-44 3500 0
-45 3500 0
-46 3500 0
-47 3500 0
-3501 79 80 81 82 83 0
-79 3501 0
-80 3501 0
-81 3501 0
-82 3501 0
-83 3501 0
-3502 115 116 117 118 119 0
-115 3502 0
-116 3502 0
-117 3502 0
-118 3502 0
-119 3502 0
-3503 151 152 153 154 155 0
-151 3503 0
-152 3503 0
-153 3503 0
-154 3503 0
-155 3503 0
-3504 187 188 189 190 191 0
-187 3504 0
-188 3504 0
-189 3504 0
-190 3504 0
-191 3504 0
-3499 3505 0
-3506 0
-3507 0
-3508 0
-3509 0
-3500 3510 0
-3505 3510 0
-3500 -3505 3511 0
-3506 3511 0
-3500 -3506 3512 0
-3507 3512 0
-3500 -3507 3513 0
-3508 3513 0
-3500 -3508 3514 0
-3509 3514 0
-3500 -3509 0
-3501 3515 0
-3510 3515 0
-3501 -3510 3516 0
-3511 3516 0
-3501 -3511 3517 0
-3512 3517 0
-3501 -3512 3518 0
-3513 3518 0
-3501 -3513 3519 0
-3514 3519 0
-3501 -3514 0
-3502 3520 0
-3515 3520 0
-3502 -3515 3521 0
-3516 3521 0
-3502 -3516 3522 0
-3517 3522 0
-3502 -3517 3523 0
-3518 3523 0
-3502 -3518 3524 0
-3519 3524 0
-3502 -3519 0
-3503 3525 0
-3520 3525 0
-3503 -3520 3526 0
-3521 3526 0
-3503 -3521 3527 0
-3522 3527 0
-3503 -3522 3528 0
-3523 3528 0
-3503 -3523 3529 0
-3524 3529 0
-3503 -3524 0
-3504 -3529 0
-3535 7 8 9 10 11 12 0
-7 3535 0
-8 3535 0
-9 3535 0
-10 3535 0
-11 3535 0
-12 3535 0
-3536 43 44 45 46 47 48 0
-43 3536 0
-44 3536 0
-45 3536 0
-46 3536 0
-47 3536 0
-48 3536 0
-3537 79 80 81 82 83 84 0
-79 3537 0
-80 3537 0
-81 3537 0
-82 3537 0
-83 3537 0
-84 3537 0
-3538 115 116 117 118 119 120 0
-115 3538 0
-116 3538 0
-117 3538 0
-118 3538 0
-119 3538 0
-120 3538 0
-3539 151 152 153 154 155 156 0
-151 3539 0
-152 3539 0
-153 3539 0
-154 3539 0
-155 3539 0
-156 3539 0
-3540 187 188 189 190 191 192 0
-187 3540 0
-188 3540 0
-189 3540 0
-190 3540 0
-191 3540 0
-192 3540 0
-3541 8 0
-8 3541 0
-3542 44 0
-44 3542 0
-3543 80 0
-80 3543 0
-3544 116 0
-116 3544 0
-3545 152 0
-152 3545 0
-3546 188 0
-188 3546 0
-3541 3547 0
-3542 3548 0
-3547 3548 0
-3542 -3547 0
-3543 3549 0
-3548 3549 0
-3543 -3548 0
-3544 3550 0
-3549 3550 0
-3544 -3549 0
-3545 3551 0
-3550 3551 0
-3545 -3550 0
-3546 -3551 0
-3553 8 9 0
-8 3553 0
-9 3553 0
-3554 44 45 0
-44 3554 0
-45 3554 0
-3555 80 81 0
-80 3555 0
-81 3555 0
-3556 116 117 0
-116 3556 0
-117 3556 0
-3557 152 153 0
-152 3557 0
-153 3557 0
-3558 188 189 0
-188 3558 0
-189 3558 0
-3553 3559 0
-3560 0
-3554 3561 0
-3559 3561 0
-3554 -3559 3562 0
-3560 3562 0
-3554 -3560 0
-3555 3563 0
-3561 3563 0
-3555 -3561 3564 0
-3562 3564 0
-3555 -3562 0
-3556 3565 0
-3563 3565 0
-3556 -3563 3566 0
-3564 3566 0
-3556 -3564 0
-3557 3567 0
-3565 3567 0
-3557 -3565 3568 0
-3566 3568 0
-3557 -3566 0
-3558 -3568 0
-3571 8 9 10 0
-8 3571 0
-9 3571 0
-10 3571 0
-3572 44 45 46 0
-44 3572 0
-45 3572 0
-46 3572 0
-3573 80 81 82 0
-80 3573 0
-81 3573 0
-82 3573 0
-3574 116 117 118 0
-116 3574 0
-117 3574 0
-118 3574 0
-3575 152 153 154 0
-152 3575 0
-153 3575 0
-154 3575 0
-3576 188 189 190 0
-188 3576 0
-189 3576 0
-190 3576 0
-3571 3577 0
-3578 0
-3579 0
-3572 3580 0
-3577 3580 0
-3572 -3577 3581 0
-3578 3581 0
-3572 -3578 3582 0
-3579 3582 0
-3572 -3579 0
-3573 3583 0
-3580 3583 0
-3573 -3580 3584 0
-3581 3584 0
-3573 -3581 3585 0
-3582 3585 0
-3573 -3582 0
-3574 3586 0
-3583 3586 0
-3574 -3583 3587 0
-3584 3587 0
-3574 -3584 3588 0
-3585 3588 0
-3574 -3585 0
-3575 3589 0
-3586 3589 0
-3575 -3586 3590 0
-3587 3590 0
-3575 -3587 3591 0
-3588 3591 0
-3575 -3588 0
-3576 -3591 0
-3595 8 9 10 11 0
-8 3595 0
-9 3595 0
-10 3595 0
-11 3595 0
-3596 44 45 46 47 0
-44 3596 0
-45 3596 0
-46 3596 0
-47 3596 0
-3597 80 81 82 83 0
-80 3597 0
-81 3597 0
-82 3597 0
-83 3597 0
-3598 116 117 118 119 0
-116 3598 0
-117 3598 0
-118 3598 0
-119 3598 0
-3599 152 153 154 155 0
-152 3599 0
-153 3599 0
-154 3599 0
-155 3599 0
-3600 188 189 190 191 0
-188 3600 0
-189 3600 0
-190 3600 0
-191 3600 0
-3595 3601 0
-3602 0
-3603 0
-3604 0
-3596 3605 0
-3601 3605 0
-3596 -3601 3606 0
-3602 3606 0
-3596 -3602 3607 0
-3603 3607 0
-3596 -3603 3608 0
-3604 3608 0
-3596 -3604 0
-3597 3609 0
-3605 3609 0
-3597 -3605 3610 0
-3606 3610 0
-3597 -3606 3611 0
-3607 3611 0
-3597 -3607 3612 0
-3608 3612 0
-3597 -3608 0
-3598 3613 0
-3609 3613 0
-3598 -3609 3614 0
-3610 3614 0
-3598 -3610 3615 0
-3611 3615 0
-3598 -3611 3616 0
-3612 3616 0
-3598 -3612 0
-3599 3617 0
-3613 3617 0
-3599 -3613 3618 0
-3614 3618 0
-3599 -3614 3619 0
-3615 3619 0
-3599 -3615 3620 0
-3616 3620 0
-3599 -3616 0
-3600 -3620 0
-3625 8 9 10 11 12 0
-8 3625 0
-9 3625 0
-10 3625 0
-11 3625 0
-12 3625 0
-3626 44 45 46 47 48 0
-44 3626 0
-45 3626 0
-46 3626 0
-47 3626 0
-48 3626 0
-3627 80 81 82 83 84 0
-80 3627 0
-81 3627 0
-82 3627 0
-83 3627 0
-84 3627 0
-3628 116 117 118 119 120 0
-116 3628 0
-117 3628 0
-118 3628 0
-119 3628 0
-120 3628 0
-3629 152 153 154 155 156 0
-152 3629 0
-153 3629 0
-154 3629 0
-155 3629 0
-156 3629 0
-3630 188 189 190 191 192 0
-188 3630 0
-189 3630 0
-190 3630 0
-191 3630 0
-192 3630 0
-3625 3631 0
-3632 0
-3633 0
-3634 0
-3635 0
-3626 3636 0
-3631 3636 0
-3626 -3631 3637 0
-3632 3637 0
-3626 -3632 3638 0
-3633 3638 0
-3626 -3633 3639 0
-3634 3639 0
-3626 -3634 3640 0
-3635 3640 0
-3626 -3635 0
-3627 3641 0
-3636 3641 0
-3627 -3636 3642 0
-3637 3642 0
-3627 -3637 3643 0
-3638 3643 0
-3627 -3638 3644 0
-3639 3644 0
-3627 -3639 3645 0
-3640 3645 0
-3627 -3640 0
-3628 3646 0
-3641 3646 0
-3628 -3641 3647 0
-3642 3647 0
-3628 -3642 3648 0
-3643 3648 0
-3628 -3643 3649 0
-3644 3649 0
-3628 -3644 3650 0
-3645 3650 0
-3628 -3645 0
-3629 3651 0
-3646 3651 0
-3629 -3646 3652 0
-3647 3652 0
-3629 -3647 3653 0
-3648 3653 0
-3629 -3648 3654 0
-3649 3654 0
-3629 -3649 3655 0
-3650 3655 0
-3629 -3650 0
-3630 -3655 0
-3661 9 0
-9 3661 0
-3662 45 0
-45 3662 0
-3663 81 0
-81 3663 0
-3664 117 0
-117 3664 0
-3665 153 0
-153 3665 0
-3666 189 0
-189 3666 0
-3661 3667 0
-3662 3668 0
-3667 3668 0
-3662 -3667 0
-3663 3669 0
-3668 3669 0
-3663 -3668 0
-3664 3670 0
-3669 3670 0
-3664 -3669 0
-3665 3671 0
-3670 3671 0
-3665 -3670 0
-3666 -3671 0
-3673 9 10 0
-9 3673 0
-10 3673 0
-3674 45 46 0
-45 3674 0
-46 3674 0
-3675 81 82 0
-81 3675 0
-82 3675 0
-3676 117 118 0
-117 3676 0
-118 3676 0
-3677 153 154 0
-153 3677 0
-154 3677 0
-3678 189 190 0
-189 3678 0
-190 3678 0
-3673 3679 0
-3680 0
-3674 3681 0
-3679 3681 0
-3674 -3679 3682 0
-3680 3682 0
-3674 -3680 0
-3675 3683 0
-3681 3683 0
-3675 -3681 3684 0
-3682 3684 0
-3675 -3682 0
-3676 3685 0
-3683 3685 0
-3676 -3683 3686 0
-3684 3686 0
-3676 -3684 0
-3677 3687 0
-3685 3687 0
-3677 -3685 3688 0
-3686 3688 0
-3677 -3686 0
-3678 -3688 0
-3691 9 10 11 0
-9 3691 0
-10 3691 0
-11 3691 0
-3692 45 46 47 0
-45 3692 0
-46 3692 0
-47 3692 0
-3693 81 82 83 0
-81 3693 0
-82 3693 0
-83 3693 0
-3694 117 118 119 0
-117 3694 0
-118 3694 0
-119 3694 0
-3695 153 154 155 0
-153 3695 0
-154 3695 0
-155 3695 0
-3696 189 190 191 0
-189 3696 0
-190 3696 0
-191 3696 0
-3691 3697 0
-3698 0
-3699 0
-3692 3700 0
-3697 3700 0
-3692 -3697 3701 0
-3698 3701 0
-3692 -3698 3702 0
-3699 3702 0
-3692 -3699 0
-3693 3703 0
-3700 3703 0
-3693 -3700 3704 0
-3701 3704 0
-3693 -3701 3705 0
-3702 3705 0
-3693 -3702 0
-3694 3706 0
-3703 3706 0
-3694 -3703 3707 0
-3704 3707 0
-3694 -3704 3708 0
-3705 3708 0
-3694 -3705 0
-3695 3709 0
-3706 3709 0
-3695 -3706 3710 0
-3707 3710 0
-3695 -3707 3711 0
-3708 3711 0
-3695 -3708 0
-3696 -3711 0
-3715 9 10 11 12 0
-9 3715 0
-10 3715 0
-11 3715 0
-12 3715 0
-3716 45 46 47 48 0
-45 3716 0
-46 3716 0
-47 3716 0
-48 3716 0
-3717 81 82 83 84 0
-81 3717 0
-82 3717 0
-83 3717 0
-84 3717 0
-3718 117 118 119 120 0
-117 3718 0
-118 3718 0
-119 3718 0
-120 3718 0
-3719 153 154 155 156 0
-153 3719 0
-154 3719 0
-155 3719 0
-156 3719 0
-3720 189 190 191 192 0
-189 3720 0
-190 3720 0
-191 3720 0
-192 3720 0
-3715 3721 0
-3722 0
-3723 0
-3724 0
-3716 3725 0
-3721 3725 0
-3716 -3721 3726 0
-3722 3726 0
-3716 -3722 3727 0
-3723 3727 0
-3716 -3723 3728 0
-3724 3728 0
-3716 -3724 0
-3717 3729 0
-3725 3729 0
-3717 -3725 3730 0
-3726 3730 0
-3717 -3726 3731 0
-3727 3731 0
-3717 -3727 3732 0
-3728 3732 0
-3717 -3728 0
-3718 3733 0
-3729 3733 0
-3718 -3729 3734 0
-3730 3734 0
-3718 -3730 3735 0
-3731 3735 0
-3718 -3731 3736 0
-3732 3736 0
-3718 -3732 0
-3719 3737 0
-3733 3737 0
-3719 -3733 3738 0
-3734 3738 0
-3719 -3734 3739 0
-3735 3739 0
-3719 -3735 3740 0
-3736 3740 0
-3719 -3736 0
-3720 -3740 0
-3745 10 0
-10 3745 0
-3746 46 0
-46 3746 0
-3747 82 0
-82 3747 0
-3748 118 0
-118 3748 0
-3749 154 0
-154 3749 0
-3750 190 0
-190 3750 0
-3745 3751 0
-3746 3752 0
-3751 3752 0
-3746 -3751 0
-3747 3753 0
-3752 3753 0
-3747 -3752 0
-3748 3754 0
-3753 3754 0
-3748 -3753 0
-3749 3755 0
-3754 3755 0
-3749 -3754 0
-3750 -3755 0
-3757 10 11 0
-10 3757 0
-11 3757 0
-3758 46 47 0
-46 3758 0
-47 3758 0
-3759 82 83 0
-82 3759 0
-83 3759 0
-3760 118 119 0
-118 3760 0
-119 3760 0
-3761 154 155 0
-154 3761 0
-155 3761 0
-3762 190 191 0
-190 3762 0
-191 3762 0
-3757 3763 0
-3764 0
-3758 3765 0
-3763 3765 0
-3758 -3763 3766 0
-3764 3766 0
-3758 -3764 0
-3759 3767 0
-3765 3767 0
-3759 -3765 3768 0
-3766 3768 0
-3759 -3766 0
-3760 3769 0
-3767 3769 0
-3760 -3767 3770 0
-3768 3770 0
-3760 -3768 0
-3761 3771 0
-3769 3771 0
-3761 -3769 3772 0
-3770 3772 0
-3761 -3770 0
-3762 -3772 0
-3775 10 11 12 0
-10 3775 0
-11 3775 0
-12 3775 0
-3776 46 47 48 0
-46 3776 0
-47 3776 0
-48 3776 0
-3777 82 83 84 0
-82 3777 0
-83 3777 0
-84 3777 0
-3778 118 119 120 0
-118 3778 0
-119 3778 0
-120 3778 0
-3779 154 155 156 0
-154 3779 0
-155 3779 0
-156 3779 0
-3780 190 191 192 0
-190 3780 0
-191 3780 0
-192 3780 0
-3775 3781 0
-3782 0
-3783 0
-3776 3784 0
-3781 3784 0
-3776 -3781 3785 0
-3782 3785 0
-3776 -3782 3786 0
-3783 3786 0
-3776 -3783 0
-3777 3787 0
-3784 3787 0
-3777 -3784 3788 0
-3785 3788 0
-3777 -3785 3789 0
-3786 3789 0
-3777 -3786 0
-3778 3790 0
-3787 3790 0
-3778 -3787 3791 0
-3788 3791 0
-3778 -3788 3792 0
-3789 3792 0
-3778 -3789 0
-3779 3793 0
-3790 3793 0
-3779 -3790 3794 0
-3791 3794 0
-3779 -3791 3795 0
-3792 3795 0
-3779 -3792 0
-3780 -3795 0
-3799 11 0
-11 3799 0
-3800 47 0
-47 3800 0
-3801 83 0
-83 3801 0
-3802 119 0
-119 3802 0
-3803 155 0
-155 3803 0
-3804 191 0
-191 3804 0
-3799 3805 0
-3800 3806 0
-3805 3806 0
-3800 -3805 0
-3801 3807 0
-3806 3807 0
-3801 -3806 0
-3802 3808 0
-3807 3808 0
-3802 -3807 0
-3803 3809 0
-3808 3809 0
-3803 -3808 0
-3804 -3809 0
-3811 11 12 0
-11 3811 0
-12 3811 0
-3812 47 48 0
-47 3812 0
-48 3812 0
-3813 83 84 0
-83 3813 0
-84 3813 0
-3814 119 120 0
-119 3814 0
-120 3814 0
-3815 155 156 0
-155 3815 0
-156 3815 0
-3816 191 192 0
-191 3816 0
-192 3816 0
-3811 3817 0
-3818 0
-3812 3819 0
-3817 3819 0
-3812 -3817 3820 0
-3818 3820 0
-3812 -3818 0
-3813 3821 0
-3819 3821 0
-3813 -3819 3822 0
-3820 3822 0
-3813 -3820 0
-3814 3823 0
-3821 3823 0
-3814 -3821 3824 0
-3822 3824 0
-3814 -3822 0
-3815 3825 0
-3823 3825 0
-3815 -3823 3826 0
-3824 3826 0
-3815 -3824 0
-3816 -3826 0
-3829 12 0
-12 3829 0
-3830 48 0
-48 3830 0
-3831 84 0
-84 3831 0
-3832 120 0
-120 3832 0
-3833 156 0
-156 3833 0
-3834 192 0
-192 3834 0
-3829 3835 0
-3830 3836 0
-3835 3836 0
-3830 -3835 0
-3831 3837 0
-3836 3837 0
-3831 -3836 0
-3832 3838 0
-3837 3838 0
-3832 -3837 0
-3833 3839 0
-3838 3839 0
-3833 -3838 0
-3834 -3839 0
-3841 13 0
-13 3841 0
-3842 49 0
-49 3842 0
-3843 85 0
-85 3843 0
-3844 121 0
-121 3844 0
-3845 157 0
-157 3845 0
-3846 193 0
-193 3846 0
-3841 3847 0
-3842 3848 0
-3847 3848 0
-3842 -3847 0
-3843 3849 0
-3848 3849 0
-3843 -3848 0
-3844 3850 0
-3849 3850 0
-3844 -3849 0
-3845 3851 0
-3850 3851 0
-3845 -3850 0
-3846 -3851 0
-3853 13 14 0
-13 3853 0
-14 3853 0
-3854 49 50 0
-49 3854 0
-50 3854 0
-3855 85 86 0
-85 3855 0
-86 3855 0
-3856 121 122 0
-121 3856 0
-122 3856 0
-3857 157 158 0
-157 3857 0
-158 3857 0
-3858 193 194 0
-193 3858 0
-194 3858 0
-3853 3859 0
-3860 0
-3854 3861 0
-3859 3861 0
-3854 -3859 3862 0
-3860 3862 0
-3854 -3860 0
-3855 3863 0
-3861 3863 0
-3855 -3861 3864 0
-3862 3864 0
-3855 -3862 0
-3856 3865 0
-3863 3865 0
-3856 -3863 3866 0
-3864 3866 0
-3856 -3864 0
-3857 3867 0
-3865 3867 0
-3857 -3865 3868 0
-3866 3868 0
-3857 -3866 0
-3858 -3868 0
-3871 13 14 15 0
-13 3871 0
-14 3871 0
-15 3871 0
-3872 49 50 51 0
-49 3872 0
-50 3872 0
-51 3872 0
-3873 85 86 87 0
-85 3873 0
-86 3873 0
-87 3873 0
-3874 121 122 123 0
-121 3874 0
-122 3874 0
-123 3874 0
-3875 157 158 159 0
-157 3875 0
-158 3875 0
-159 3875 0
-3876 193 194 195 0
-193 3876 0
-194 3876 0
-195 3876 0
-3871 3877 0
-3878 0
-3879 0
-3872 3880 0
-3877 3880 0
-3872 -3877 3881 0
-3878 3881 0
-3872 -3878 3882 0
-3879 3882 0
-3872 -3879 0
-3873 3883 0
-3880 3883 0
-3873 -3880 3884 0
-3881 3884 0
-3873 -3881 3885 0
-3882 3885 0
-3873 -3882 0
-3874 3886 0
-3883 3886 0
-3874 -3883 3887 0
-3884 3887 0
-3874 -3884 3888 0
-3885 3888 0
-3874 -3885 0
-3875 3889 0
-3886 3889 0
-3875 -3886 3890 0
-3887 3890 0
-3875 -3887 3891 0
-3888 3891 0
-3875 -3888 0
-3876 -3891 0
-3895 13 14 15 16 0
-13 3895 0
-14 3895 0
-15 3895 0
-16 3895 0
-3896 49 50 51 52 0
-49 3896 0
-50 3896 0
-51 3896 0
-52 3896 0
-3897 85 86 87 88 0
-85 3897 0
-86 3897 0
-87 3897 0
-88 3897 0
-3898 121 122 123 124 0
-121 3898 0
-122 3898 0
-123 3898 0
-124 3898 0
-3899 157 158 159 160 0
-157 3899 0
-158 3899 0
-159 3899 0
-160 3899 0
-3900 193 194 195 196 0
-193 3900 0
-194 3900 0
-195 3900 0
-196 3900 0
-3895 3901 0
-3902 0
-3903 0
-3904 0
-3896 3905 0
-3901 3905 0
-3896 -3901 3906 0
-3902 3906 0
-3896 -3902 3907 0
-3903 3907 0
-3896 -3903 3908 0
-3904 3908 0
-3896 -3904 0
-3897 3909 0
-3905 3909 0
-3897 -3905 3910 0
-3906 3910 0
-3897 -3906 3911 0
-3907 3911 0
-3897 -3907 3912 0
-3908 3912 0
-3897 -3908 0
-3898 3913 0
-3909 3913 0
-3898 -3909 3914 0
-3910 3914 0
-3898 -3910 3915 0
-3911 3915 0
-3898 -3911 3916 0
-3912 3916 0
-3898 -3912 0
-3899 3917 0
-3913 3917 0
-3899 -3913 3918 0
-3914 3918 0
-3899 -3914 3919 0
-3915 3919 0
-3899 -3915 3920 0
-3916 3920 0
-3899 -3916 0
-3900 -3920 0
-3925 13 14 15 16 17 0
-13 3925 0
-14 3925 0
-15 3925 0
-16 3925 0
-17 3925 0
-3926 49 50 51 52 53 0
-49 3926 0
-50 3926 0
-51 3926 0
-52 3926 0
-53 3926 0
-3927 85 86 87 88 89 0
-85 3927 0
-86 3927 0
-87 3927 0
-88 3927 0
-89 3927 0
-3928 121 122 123 124 125 0
-121 3928 0
-122 3928 0
-123 3928 0
-124 3928 0
-125 3928 0
-3929 157 158 159 160 161 0
-157 3929 0
-158 3929 0
-159 3929 0
-160 3929 0
-161 3929 0
-3930 193 194 195 196 197 0
-193 3930 0
-194 3930 0
-195 3930 0
-196 3930 0
-197 3930 0
-3925 3931 0
-3932 0
-3933 0
-3934 0
-3935 0
-3926 3936 0
-3931 3936 0
-3926 -3931 3937 0
-3932 3937 0
-3926 -3932 3938 0
-3933 3938 0
-3926 -3933 3939 0
-3934 3939 0
-3926 -3934 3940 0
-3935 3940 0
-3926 -3935 0
-3927 3941 0
-3936 3941 0
-3927 -3936 3942 0
-3937 3942 0
-3927 -3937 3943 0
-3938 3943 0
-3927 -3938 3944 0
-3939 3944 0
-3927 -3939 3945 0
-3940 3945 0
-3927 -3940 0
-3928 3946 0
-3941 3946 0
-3928 -3941 3947 0
-3942 3947 0
-3928 -3942 3948 0
-3943 3948 0
-3928 -3943 3949 0
-3944 3949 0
-3928 -3944 3950 0
-3945 3950 0
-3928 -3945 0
-3929 3951 0
-3946 3951 0
-3929 -3946 3952 0
-3947 3952 0
-3929 -3947 3953 0
-3948 3953 0
-3929 -3948 3954 0
-3949 3954 0
-3929 -3949 3955 0
-3950 3955 0
-3929 -3950 0
-3930 -3955 0
-3961 13 14 15 16 17 18 0
-13 3961 0
-14 3961 0
-15 3961 0
-16 3961 0
-17 3961 0
-18 3961 0
-3962 49 50 51 52 53 54 0
-49 3962 0
-50 3962 0
-51 3962 0
-52 3962 0
-53 3962 0
-54 3962 0
-3963 85 86 87 88 89 90 0
-85 3963 0
-86 3963 0
-87 3963 0
-88 3963 0
-89 3963 0
-90 3963 0
-3964 121 122 123 124 125 126 0
-121 3964 0
-122 3964 0
-123 3964 0
-124 3964 0
-125 3964 0
-126 3964 0
-3965 157 158 159 160 161 162 0
-157 3965 0
-158 3965 0
-159 3965 0
-160 3965 0
-161 3965 0
-162 3965 0
-3966 193 194 195 196 197 198 0
-193 3966 0
-194 3966 0
-195 3966 0
-196 3966 0
-197 3966 0
-198 3966 0
-3967 14 0
-14 3967 0
-3968 50 0
-50 3968 0
-3969 86 0
-86 3969 0
-3970 122 0
-122 3970 0
-3971 158 0
-158 3971 0
-3972 194 0
-194 3972 0
-3967 3973 0
-3968 3974 0
-3973 3974 0
-3968 -3973 0
-3969 3975 0
-3974 3975 0
-3969 -3974 0
-3970 3976 0
-3975 3976 0
-3970 -3975 0
-3971 3977 0
-3976 3977 0
-3971 -3976 0
-3972 -3977 0
-3979 14 15 0
-14 3979 0
-15 3979 0
-3980 50 51 0
-50 3980 0
-51 3980 0
-3981 86 87 0
-86 3981 0
-87 3981 0
-3982 122 123 0
-122 3982 0
-123 3982 0
-3983 158 159 0
-158 3983 0
-159 3983 0
-3984 194 195 0
-194 3984 0
-195 3984 0
-3979 3985 0
-3986 0
-3980 3987 0
-3985 3987 0
-3980 -3985 3988 0
-3986 3988 0
-3980 -3986 0
-3981 3989 0
-3987 3989 0
-3981 -3987 3990 0
-3988 3990 0
-3981 -3988 0
-3982 3991 0
-3989 3991 0
-3982 -3989 3992 0
-3990 3992 0
-3982 -3990 0
-3983 3993 0
-3991 3993 0
-3983 -3991 3994 0
-3992 3994 0
-3983 -3992 0
-3984 -3994 0
-3997 14 15 16 0
-14 3997 0
-15 3997 0
-16 3997 0
-3998 50 51 52 0
-50 3998 0
-51 3998 0
-52 3998 0
-3999 86 87 88 0
-86 3999 0
-87 3999 0
-88 3999 0
-4000 122 123 124 0
-122 4000 0
-123 4000 0
-124 4000 0
-4001 158 159 160 0
-158 4001 0
-159 4001 0
-160 4001 0
-4002 194 195 196 0
-194 4002 0
-195 4002 0
-196 4002 0
-3997 4003 0
-4004 0
-4005 0
-3998 4006 0
-4003 4006 0
-3998 -4003 4007 0
-4004 4007 0
-3998 -4004 4008 0
-4005 4008 0
-3998 -4005 0
-3999 4009 0
-4006 4009 0
-3999 -4006 4010 0
-4007 4010 0
-3999 -4007 4011 0
-4008 4011 0
-3999 -4008 0
-4000 4012 0
-4009 4012 0
-4000 -4009 4013 0
-4010 4013 0
-4000 -4010 4014 0
-4011 4014 0
-4000 -4011 0
-4001 4015 0
-4012 4015 0
-4001 -4012 4016 0
-4013 4016 0
-4001 -4013 4017 0
-4014 4017 0
-4001 -4014 0
-4002 -4017 0
-4021 14 15 16 17 0
-14 4021 0
-15 4021 0
-16 4021 0
-17 4021 0
-4022 50 51 52 53 0
-50 4022 0
-51 4022 0
-52 4022 0
-53 4022 0
-4023 86 87 88 89 0
-86 4023 0
-87 4023 0
-88 4023 0
-89 4023 0
-4024 122 123 124 125 0
-122 4024 0
-123 4024 0
-124 4024 0
-125 4024 0
-4025 158 159 160 161 0
-158 4025 0
-159 4025 0
-160 4025 0
-161 4025 0
-4026 194 195 196 197 0
-194 4026 0
-195 4026 0
-196 4026 0
-197 4026 0
-4021 4027 0
-4028 0
-4029 0
-4030 0
-4022 4031 0
-4027 4031 0
-4022 -4027 4032 0
-4028 4032 0
-4022 -4028 4033 0
-4029 4033 0
-4022 -4029 4034 0
-4030 4034 0
-4022 -4030 0
-4023 4035 0
-4031 4035 0
-4023 -4031 4036 0
-4032 4036 0
-4023 -4032 4037 0
-4033 4037 0
-4023 -4033 4038 0
-4034 4038 0
-4023 -4034 0
-4024 4039 0
-4035 4039 0
-4024 -4035 4040 0
-4036 4040 0
-4024 -4036 4041 0
-4037 4041 0
-4024 -4037 4042 0
-4038 4042 0
-4024 -4038 0
-4025 4043 0
-4039 4043 0
-4025 -4039 4044 0
-4040 4044 0
-4025 -4040 4045 0
-4041 4045 0
-4025 -4041 4046 0
-4042 4046 0
-4025 -4042 0
-4026 -4046 0
-4051 14 15 16 17 18 0
-14 4051 0
-15 4051 0
-16 4051 0
-17 4051 0
-18 4051 0
-4052 50 51 52 53 54 0
-50 4052 0
-51 4052 0
-52 4052 0
-53 4052 0
-54 4052 0
-4053 86 87 88 89 90 0
-86 4053 0
-87 4053 0
-88 4053 0
-89 4053 0
-90 4053 0
-4054 122 123 124 125 126 0
-122 4054 0
-123 4054 0
-124 4054 0
-125 4054 0
-126 4054 0
-4055 158 159 160 161 162 0
-158 4055 0
-159 4055 0
-160 4055 0
-161 4055 0
-162 4055 0
-4056 194 195 196 197 198 0
-194 4056 0
-195 4056 0
-196 4056 0
-197 4056 0
-198 4056 0
-4051 4057 0
-4058 0
-4059 0
-4060 0
-4061 0
-4052 4062 0
-4057 4062 0
-4052 -4057 4063 0
-4058 4063 0
-4052 -4058 4064 0
-4059 4064 0
-4052 -4059 4065 0
-4060 4065 0
-4052 -4060 4066 0
-4061 4066 0
-4052 -4061 0
-4053 4067 0
-4062 4067 0
-4053 -4062 4068 0
-4063 4068 0
-4053 -4063 4069 0
-4064 4069 0
-4053 -4064 4070 0
-4065 4070 0
-4053 -4065 4071 0
-4066 4071 0
-4053 -4066 0
-4054 4072 0
-4067 4072 0
-4054 -4067 4073 0
-4068 4073 0
-4054 -4068 4074 0
-4069 4074 0
-4054 -4069 4075 0
-4070 4075 0
-4054 -4070 4076 0
-4071 4076 0
-4054 -4071 0
-4055 4077 0
-4072 4077 0
-4055 -4072 4078 0
-4073 4078 0
-4055 -4073 4079 0
-4074 4079 0
-4055 -4074 4080 0
-4075 4080 0
-4055 -4075 4081 0
-4076 4081 0
-4055 -4076 0
-4056 -4081 0
-4087 15 0
-15 4087 0
-4088 51 0
-51 4088 0
-4089 87 0
-87 4089 0
-4090 123 0
-123 4090 0
-4091 159 0
-159 4091 0
-4092 195 0
-195 4092 0
-4087 4093 0
-4088 4094 0
-4093 4094 0
-4088 -4093 0
-4089 4095 0
-4094 4095 0
-4089 -4094 0
-4090 4096 0
-4095 4096 0
-4090 -4095 0
-4091 4097 0
-4096 4097 0
-4091 -4096 0
-4092 -4097 0
-4099 15 16 0
-15 4099 0
-16 4099 0
-4100 51 52 0
-51 4100 0
-52 4100 0
-4101 87 88 0
-87 4101 0
-88 4101 0
-4102 123 124 0
-123 4102 0
-124 4102 0
-4103 159 160 0
-159 4103 0
-160 4103 0
-4104 195 196 0
-195 4104 0
-196 4104 0
-4099 4105 0
-4106 0
-4100 4107 0
-4105 4107 0
-4100 -4105 4108 0
-4106 4108 0
-4100 -4106 0
-4101 4109 0
-4107 4109 0
-4101 -4107 4110 0
-4108 4110 0
-4101 -4108 0
-4102 4111 0
-4109 4111 0
-4102 -4109 4112 0
-4110 4112 0
-4102 -4110 0
-4103 4113 0
-4111 4113 0
-4103 -4111 4114 0
-4112 4114 0
-4103 -4112 0
-4104 -4114 0
-4117 15 16 17 0
-15 4117 0
-16 4117 0
-17 4117 0
-4118 51 52 53 0
-51 4118 0
-52 4118 0
-53 4118 0
-4119 87 88 89 0
-87 4119 0
-88 4119 0
-89 4119 0
-4120 123 124 125 0
-123 4120 0
-124 4120 0
-125 4120 0
-4121 159 160 161 0
-159 4121 0
-160 4121 0
-161 4121 0
-4122 195 196 197 0
-195 4122 0
-196 4122 0
-197 4122 0
-4117 4123 0
-4124 0
-4125 0
-4118 4126 0
-4123 4126 0
-4118 -4123 4127 0
-4124 4127 0
-4118 -4124 4128 0
-4125 4128 0
-4118 -4125 0
-4119 4129 0
-4126 4129 0
-4119 -4126 4130 0
-4127 4130 0
-4119 -4127 4131 0
-4128 4131 0
-4119 -4128 0
-4120 4132 0
-4129 4132 0
-4120 -4129 4133 0
-4130 4133 0
-4120 -4130 4134 0
-4131 4134 0
-4120 -4131 0
-4121 4135 0
-4132 4135 0
-4121 -4132 4136 0
-4133 4136 0
-4121 -4133 4137 0
-4134 4137 0
-4121 -4134 0
-4122 -4137 0
-4141 15 16 17 18 0
-15 4141 0
-16 4141 0
-17 4141 0
-18 4141 0
-4142 51 52 53 54 0
-51 4142 0
-52 4142 0
-53 4142 0
-54 4142 0
-4143 87 88 89 90 0
-87 4143 0
-88 4143 0
-89 4143 0
-90 4143 0
-4144 123 124 125 126 0
-123 4144 0
-124 4144 0
-125 4144 0
-126 4144 0
-4145 159 160 161 162 0
-159 4145 0
-160 4145 0
-161 4145 0
-162 4145 0
-4146 195 196 197 198 0
-195 4146 0
-196 4146 0
-197 4146 0
-198 4146 0
-4141 4147 0
-4148 0
-4149 0
-4150 0
-4142 4151 0
-4147 4151 0
-4142 -4147 4152 0
-4148 4152 0
-4142 -4148 4153 0
-4149 4153 0
-4142 -4149 4154 0
-4150 4154 0
-4142 -4150 0
-4143 4155 0
-4151 4155 0
-4143 -4151 4156 0
-4152 4156 0
-4143 -4152 4157 0
-4153 4157 0
-4143 -4153 4158 0
-4154 4158 0
-4143 -4154 0
-4144 4159 0
-4155 4159 0
-4144 -4155 4160 0
-4156 4160 0
-4144 -4156 4161 0
-4157 4161 0
-4144 -4157 4162 0
-4158 4162 0
-4144 -4158 0
-4145 4163 0
-4159 4163 0
-4145 -4159 4164 0
-4160 4164 0
-4145 -4160 4165 0
-4161 4165 0
-4145 -4161 4166 0
-4162 4166 0
-4145 -4162 0
-4146 -4166 0
-4171 16 0
-16 4171 0
-4172 52 0
-52 4172 0
-4173 88 0
-88 4173 0
-4174 124 0
-124 4174 0
-4175 160 0
-160 4175 0
-4176 196 0
-196 4176 0
-4171 4177 0
-4172 4178 0
-4177 4178 0
-4172 -4177 0
-4173 4179 0
-4178 4179 0
-4173 -4178 0
-4174 4180 0
-4179 4180 0
-4174 -4179 0
-4175 4181 0
-4180 4181 0
-4175 -4180 0
-4176 -4181 0
-4183 16 17 0
-16 4183 0
-17 4183 0
-4184 52 53 0
-52 4184 0
-53 4184 0
-4185 88 89 0
-88 4185 0
-89 4185 0
-4186 124 125 0
-124 4186 0
-125 4186 0
-4187 160 161 0
-160 4187 0
-161 4187 0
-4188 196 197 0
-196 4188 0
-197 4188 0
-4183 4189 0
-4190 0
-4184 4191 0
-4189 4191 0
-4184 -4189 4192 0
-4190 4192 0
-4184 -4190 0
-4185 4193 0
-4191 4193 0
-4185 -4191 4194 0
-4192 4194 0
-4185 -4192 0
-4186 4195 0
-4193 4195 0
-4186 -4193 4196 0
-4194 4196 0
-4186 -4194 0
-4187 4197 0
-4195 4197 0
-4187 -4195 4198 0
-4196 4198 0
-4187 -4196 0
-4188 -4198 0
-4201 16 17 18 0
-16 4201 0
-17 4201 0
-18 4201 0
-4202 52 53 54 0
-52 4202 0
-53 4202 0
-54 4202 0
-4203 88 89 90 0
-88 4203 0
-89 4203 0
-90 4203 0
-4204 124 125 126 0
-124 4204 0
-125 4204 0
-126 4204 0
-4205 160 161 162 0
-160 4205 0
-161 4205 0
-162 4205 0
-4206 196 197 198 0
-196 4206 0
-197 4206 0
-198 4206 0
-4201 4207 0
-4208 0
-4209 0
-4202 4210 0
-4207 4210 0
-4202 -4207 4211 0
-4208 4211 0
-4202 -4208 4212 0
-4209 4212 0
-4202 -4209 0
-4203 4213 0
-4210 4213 0
-4203 -4210 4214 0
-4211 4214 0
-4203 -4211 4215 0
-4212 4215 0
-4203 -4212 0
-4204 4216 0
-4213 4216 0
-4204 -4213 4217 0
-4214 4217 0
-4204 -4214 4218 0
-4215 4218 0
-4204 -4215 0
-4205 4219 0
-4216 4219 0
-4205 -4216 4220 0
-4217 4220 0
-4205 -4217 4221 0
-4218 4221 0
-4205 -4218 0
-4206 -4221 0
-4225 17 0
-17 4225 0
-4226 53 0
-53 4226 0
-4227 89 0
-89 4227 0
-4228 125 0
-125 4228 0
-4229 161 0
-161 4229 0
-4230 197 0
-197 4230 0
-4225 4231 0
-4226 4232 0
-4231 4232 0
-4226 -4231 0
-4227 4233 0
-4232 4233 0
-4227 -4232 0
-4228 4234 0
-4233 4234 0
-4228 -4233 0
-4229 4235 0
-4234 4235 0
-4229 -4234 0
-4230 -4235 0
-4237 17 18 0
-17 4237 0
-18 4237 0
-4238 53 54 0
-53 4238 0
-54 4238 0
-4239 89 90 0
-89 4239 0
-90 4239 0
-4240 125 126 0
-125 4240 0
-126 4240 0
-4241 161 162 0
-161 4241 0
-162 4241 0
-4242 197 198 0
-197 4242 0
-198 4242 0
-4237 4243 0
-4244 0
-4238 4245 0
-4243 4245 0
-4238 -4243 4246 0
-4244 4246 0
-4238 -4244 0
-4239 4247 0
-4245 4247 0
-4239 -4245 4248 0
-4246 4248 0
-4239 -4246 0
-4240 4249 0
-4247 4249 0
-4240 -4247 4250 0
-4248 4250 0
-4240 -4248 0
-4241 4251 0
-4249 4251 0
-4241 -4249 4252 0
-4250 4252 0
-4241 -4250 0
-4242 -4252 0
-4255 18 0
-18 4255 0
-4256 54 0
-54 4256 0
-4257 90 0
-90 4257 0
-4258 126 0
-126 4258 0
-4259 162 0
-162 4259 0
-4260 198 0
-198 4260 0
-4255 4261 0
-4256 4262 0
-4261 4262 0
-4256 -4261 0
-4257 4263 0
-4262 4263 0
-4257 -4262 0
-4258 4264 0
-4263 4264 0
-4258 -4263 0
-4259 4265 0
-4264 4265 0
-4259 -4264 0
-4260 -4265 0
-4267 19 0
-19 4267 0
-4268 55 0
-55 4268 0
-4269 91 0
-91 4269 0
-4270 127 0
-127 4270 0
-4271 163 0
-163 4271 0
-4272 199 0
-199 4272 0
-4267 4273 0
-4268 4274 0
-4273 4274 0
-4268 -4273 0
-4269 4275 0
-4274 4275 0
-4269 -4274 0
-4270 4276 0
-4275 4276 0
-4270 -4275 0
-4271 4277 0
-4276 4277 0
-4271 -4276 0
-4272 -4277 0
-4279 19 20 0
-19 4279 0
-20 4279 0
-4280 55 56 0
-55 4280 0
-56 4280 0
-4281 91 92 0
-91 4281 0
-92 4281 0
-4282 127 128 0
-127 4282 0
-128 4282 0
-4283 163 164 0
-163 4283 0
-164 4283 0
-4284 199 200 0
-199 4284 0
-200 4284 0
-4279 4285 0
-4286 0
-4280 4287 0
-4285 4287 0
-4280 -4285 4288 0
-4286 4288 0
-4280 -4286 0
-4281 4289 0
-4287 4289 0
-4281 -4287 4290 0
-4288 4290 0
-4281 -4288 0
-4282 4291 0
-4289 4291 0
-4282 -4289 4292 0
-4290 4292 0
-4282 -4290 0
-4283 4293 0
-4291 4293 0
-4283 -4291 4294 0
-4292 4294 0
-4283 -4292 0
-4284 -4294 0
-4297 19 20 21 0
-19 4297 0
-20 4297 0
-21 4297 0
-4298 55 56 57 0
-55 4298 0
-56 4298 0
-57 4298 0
-4299 91 92 93 0
-91 4299 0
-92 4299 0
-93 4299 0
-4300 127 128 129 0
-127 4300 0
-128 4300 0
-129 4300 0
-4301 163 164 165 0
-163 4301 0
-164 4301 0
-165 4301 0
-4302 199 200 201 0
-199 4302 0
-200 4302 0
-201 4302 0
-4297 4303 0
-4304 0
-4305 0
-4298 4306 0
-4303 4306 0
-4298 -4303 4307 0
-4304 4307 0
-4298 -4304 4308 0
-4305 4308 0
-4298 -4305 0
-4299 4309 0
-4306 4309 0
-4299 -4306 4310 0
-4307 4310 0
-4299 -4307 4311 0
-4308 4311 0
-4299 -4308 0
-4300 4312 0
-4309 4312 0
-4300 -4309 4313 0
-4310 4313 0
-4300 -4310 4314 0
-4311 4314 0
-4300 -4311 0
-4301 4315 0
-4312 4315 0
-4301 -4312 4316 0
-4313 4316 0
-4301 -4313 4317 0
-4314 4317 0
-4301 -4314 0
-4302 -4317 0
-4321 19 20 21 22 0
-19 4321 0
-20 4321 0
-21 4321 0
-22 4321 0
-4322 55 56 57 58 0
-55 4322 0
-56 4322 0
-57 4322 0
-58 4322 0
-4323 91 92 93 94 0
-91 4323 0
-92 4323 0
-93 4323 0
-94 4323 0
-4324 127 128 129 130 0
-127 4324 0
-128 4324 0
-129 4324 0
-130 4324 0
-4325 163 164 165 166 0
-163 4325 0
-164 4325 0
-165 4325 0
-166 4325 0
-4326 199 200 201 202 0
-199 4326 0
-200 4326 0
-201 4326 0
-202 4326 0
-4321 4327 0
-4328 0
-4329 0
-4330 0
-4322 4331 0
-4327 4331 0
-4322 -4327 4332 0
-4328 4332 0
-4322 -4328 4333 0
-4329 4333 0
-4322 -4329 4334 0
-4330 4334 0
-4322 -4330 0
-4323 4335 0
-4331 4335 0
-4323 -4331 4336 0
-4332 4336 0
-4323 -4332 4337 0
-4333 4337 0
-4323 -4333 4338 0
-4334 4338 0
-4323 -4334 0
-4324 4339 0
-4335 4339 0
-4324 -4335 4340 0
-4336 4340 0
-4324 -4336 4341 0
-4337 4341 0
-4324 -4337 4342 0
-4338 4342 0
-4324 -4338 0
-4325 4343 0
-4339 4343 0
-4325 -4339 4344 0
-4340 4344 0
-4325 -4340 4345 0
-4341 4345 0
-4325 -4341 4346 0
-4342 4346 0
-4325 -4342 0
-4326 -4346 0
-4351 19 20 21 22 23 0
-19 4351 0
-20 4351 0
-21 4351 0
-22 4351 0
-23 4351 0
-4352 55 56 57 58 59 0
-55 4352 0
-56 4352 0
-57 4352 0
-58 4352 0
-59 4352 0
-4353 91 92 93 94 95 0
-91 4353 0
-92 4353 0
-93 4353 0
-94 4353 0
-95 4353 0
-4354 127 128 129 130 131 0
-127 4354 0
-128 4354 0
-129 4354 0
-130 4354 0
-131 4354 0
-4355 163 164 165 166 167 0
-163 4355 0
-164 4355 0
-165 4355 0
-166 4355 0
-167 4355 0
-4356 199 200 201 202 203 0
-199 4356 0
-200 4356 0
-201 4356 0
-202 4356 0
-203 4356 0
-4351 4357 0
-4358 0
-4359 0
-4360 0
-4361 0
-4352 4362 0
-4357 4362 0
-4352 -4357 4363 0
-4358 4363 0
-4352 -4358 4364 0
-4359 4364 0
-4352 -4359 4365 0
-4360 4365 0
-4352 -4360 4366 0
-4361 4366 0
-4352 -4361 0
-4353 4367 0
-4362 4367 0
-4353 -4362 4368 0
-4363 4368 0
-4353 -4363 4369 0
-4364 4369 0
-4353 -4364 4370 0
-4365 4370 0
-4353 -4365 4371 0
-4366 4371 0
-4353 -4366 0
-4354 4372 0
-4367 4372 0
-4354 -4367 4373 0
-4368 4373 0
-4354 -4368 4374 0
-4369 4374 0
-4354 -4369 4375 0
-4370 4375 0
-4354 -4370 4376 0
-4371 4376 0
-4354 -4371 0
-4355 4377 0
-4372 4377 0
-4355 -4372 4378 0
-4373 4378 0
-4355 -4373 4379 0
-4374 4379 0
-4355 -4374 4380 0
-4375 4380 0
-4355 -4375 4381 0
-4376 4381 0
-4355 -4376 0
-4356 -4381 0
-4387 19 20 21 22 23 24 0
-19 4387 0
-20 4387 0
-21 4387 0
-22 4387 0
-23 4387 0
-24 4387 0
-4388 55 56 57 58 59 60 0
-55 4388 0
-56 4388 0
-57 4388 0
-58 4388 0
-59 4388 0
-60 4388 0
-4389 91 92 93 94 95 96 0
-91 4389 0
-92 4389 0
-93 4389 0
-94 4389 0
-95 4389 0
-96 4389 0
-4390 127 128 129 130 131 132 0
-127 4390 0
-128 4390 0
-129 4390 0
-130 4390 0
-131 4390 0
-132 4390 0
-4391 163 164 165 166 167 168 0
-163 4391 0
-164 4391 0
-165 4391 0
-166 4391 0
-167 4391 0
-168 4391 0
-4392 199 200 201 202 203 204 0
-199 4392 0
-200 4392 0
-201 4392 0
-202 4392 0
-203 4392 0
-204 4392 0
-4393 20 0
-20 4393 0
-4394 56 0
-56 4394 0
-4395 92 0
-92 4395 0
-4396 128 0
-128 4396 0
-4397 164 0
-164 4397 0
-4398 200 0
-200 4398 0
-4393 4399 0
-4394 4400 0
-4399 4400 0
-4394 -4399 0
-4395 4401 0
-4400 4401 0
-4395 -4400 0
-4396 4402 0
-4401 4402 0
-4396 -4401 0
-4397 4403 0
-4402 4403 0
-4397 -4402 0
-4398 -4403 0
-4405 20 21 0
-20 4405 0
-21 4405 0
-4406 56 57 0
-56 4406 0
-57 4406 0
-4407 92 93 0
-92 4407 0
-93 4407 0
-4408 128 129 0
-128 4408 0
-129 4408 0
-4409 164 165 0
-164 4409 0
-165 4409 0
-4410 200 201 0
-200 4410 0
-201 4410 0
-4405 4411 0
-4412 0
-4406 4413 0
-4411 4413 0
-4406 -4411 4414 0
-4412 4414 0
-4406 -4412 0
-4407 4415 0
-4413 4415 0
-4407 -4413 4416 0
-4414 4416 0
-4407 -4414 0
-4408 4417 0
-4415 4417 0
-4408 -4415 4418 0
-4416 4418 0
-4408 -4416 0
-4409 4419 0
-4417 4419 0
-4409 -4417 4420 0
-4418 4420 0
-4409 -4418 0
-4410 -4420 0
-4423 20 21 22 0
-20 4423 0
-21 4423 0
-22 4423 0
-4424 56 57 58 0
-56 4424 0
-57 4424 0
-58 4424 0
-4425 92 93 94 0
-92 4425 0
-93 4425 0
-94 4425 0
-4426 128 129 130 0
-128 4426 0
-129 4426 0
-130 4426 0
-4427 164 165 166 0
-164 4427 0
-165 4427 0
-166 4427 0
-4428 200 201 202 0
-200 4428 0
-201 4428 0
-202 4428 0
-4423 4429 0
-4430 0
-4431 0
-4424 4432 0
-4429 4432 0
-4424 -4429 4433 0
-4430 4433 0
-4424 -4430 4434 0
-4431 4434 0
-4424 -4431 0
-4425 4435 0
-4432 4435 0
-4425 -4432 4436 0
-4433 4436 0
-4425 -4433 4437 0
-4434 4437 0
-4425 -4434 0
-4426 4438 0
-4435 4438 0
-4426 -4435 4439 0
-4436 4439 0
-4426 -4436 4440 0
-4437 4440 0
-4426 -4437 0
-4427 4441 0
-4438 4441 0
-4427 -4438 4442 0
-4439 4442 0
-4427 -4439 4443 0
-4440 4443 0
-4427 -4440 0
-4428 -4443 0
-4447 20 21 22 23 0
-20 4447 0
-21 4447 0
-22 4447 0
-23 4447 0
-4448 56 57 58 59 0
-56 4448 0
-57 4448 0
-58 4448 0
-59 4448 0
-4449 92 93 94 95 0
-92 4449 0
-93 4449 0
-94 4449 0
-95 4449 0
-4450 128 129 130 131 0
-128 4450 0
-129 4450 0
-130 4450 0
-131 4450 0
-4451 164 165 166 167 0
-164 4451 0
-165 4451 0
-166 4451 0
-167 4451 0
-4452 200 201 202 203 0
-200 4452 0
-201 4452 0
-202 4452 0
-203 4452 0
-4447 4453 0
-4454 0
-4455 0
-4456 0
-4448 4457 0
-4453 4457 0
-4448 -4453 4458 0
-4454 4458 0
-4448 -4454 4459 0
-4455 4459 0
-4448 -4455 4460 0
-4456 4460 0
-4448 -4456 0
-4449 4461 0
-4457 4461 0
-4449 -4457 4462 0
-4458 4462 0
-4449 -4458 4463 0
-4459 4463 0
-4449 -4459 4464 0
-4460 4464 0
-4449 -4460 0
-4450 4465 0
-4461 4465 0
-4450 -4461 4466 0
-4462 4466 0
-4450 -4462 4467 0
-4463 4467 0
-4450 -4463 4468 0
-4464 4468 0
-4450 -4464 0
-4451 4469 0
-4465 4469 0
-4451 -4465 4470 0
-4466 4470 0
-4451 -4466 4471 0
-4467 4471 0
-4451 -4467 4472 0
-4468 4472 0
-4451 -4468 0
-4452 -4472 0
-4477 20 21 22 23 24 0
-20 4477 0
-21 4477 0
-22 4477 0
-23 4477 0
-24 4477 0
-4478 56 57 58 59 60 0
-56 4478 0
-57 4478 0
-58 4478 0
-59 4478 0
-60 4478 0
-4479 92 93 94 95 96 0
-92 4479 0
-93 4479 0
-94 4479 0
-95 4479 0
-96 4479 0
-4480 128 129 130 131 132 0
-128 4480 0
-129 4480 0
-130 4480 0
-131 4480 0
-132 4480 0
-4481 164 165 166 167 168 0
-164 4481 0
-165 4481 0
-166 4481 0
-167 4481 0
-168 4481 0
-4482 200 201 202 203 204 0
-200 4482 0
-201 4482 0
-202 4482 0
-203 4482 0
-204 4482 0
-4477 4483 0
-4484 0
-4485 0
-4486 0
-4487 0
-4478 4488 0
-4483 4488 0
-4478 -4483 4489 0
-4484 4489 0
-4478 -4484 4490 0
-4485 4490 0
-4478 -4485 4491 0
-4486 4491 0
-4478 -4486 4492 0
-4487 4492 0
-4478 -4487 0
-4479 4493 0
-4488 4493 0
-4479 -4488 4494 0
-4489 4494 0
-4479 -4489 4495 0
-4490 4495 0
-4479 -4490 4496 0
-4491 4496 0
-4479 -4491 4497 0
-4492 4497 0
-4479 -4492 0
-4480 4498 0
-4493 4498 0
-4480 -4493 4499 0
-4494 4499 0
-4480 -4494 4500 0
-4495 4500 0
-4480 -4495 4501 0
-4496 4501 0
-4480 -4496 4502 0
-4497 4502 0
-4480 -4497 0
-4481 4503 0
-4498 4503 0
-4481 -4498 4504 0
-4499 4504 0
-4481 -4499 4505 0
-4500 4505 0
-4481 -4500 4506 0
-4501 4506 0
-4481 -4501 4507 0
-4502 4507 0
-4481 -4502 0
-4482 -4507 0
-4513 21 0
-21 4513 0
-4514 57 0
-57 4514 0
-4515 93 0
-93 4515 0
-4516 129 0
-129 4516 0
-4517 165 0
-165 4517 0
-4518 201 0
-201 4518 0
-4513 4519 0
-4514 4520 0
-4519 4520 0
-4514 -4519 0
-4515 4521 0
-4520 4521 0
-4515 -4520 0
-4516 4522 0
-4521 4522 0
-4516 -4521 0
-4517 4523 0
-4522 4523 0
-4517 -4522 0
-4518 -4523 0
-4525 21 22 0
-21 4525 0
-22 4525 0
-4526 57 58 0
-57 4526 0
-58 4526 0
-4527 93 94 0
-93 4527 0
-94 4527 0
-4528 129 130 0
-129 4528 0
-130 4528 0
-4529 165 166 0
-165 4529 0
-166 4529 0
-4530 201 202 0
-201 4530 0
-202 4530 0
-4525 4531 0
-4532 0
-4526 4533 0
-4531 4533 0
-4526 -4531 4534 0
-4532 4534 0
-4526 -4532 0
-4527 4535 0
-4533 4535 0
-4527 -4533 4536 0
-4534 4536 0
-4527 -4534 0
-4528 4537 0
-4535 4537 0
-4528 -4535 4538 0
-4536 4538 0
-4528 -4536 0
-4529 4539 0
-4537 4539 0
-4529 -4537 4540 0
-4538 4540 0
-4529 -4538 0
-4530 -4540 0
-4543 21 22 23 0
-21 4543 0
-22 4543 0
-23 4543 0
-4544 57 58 59 0
-57 4544 0
-58 4544 0
-59 4544 0
-4545 93 94 95 0
-93 4545 0
-94 4545 0
-95 4545 0
-4546 129 130 131 0
-129 4546 0
-130 4546 0
-131 4546 0
-4547 165 166 167 0
-165 4547 0
-166 4547 0
-167 4547 0
-4548 201 202 203 0
-201 4548 0
-202 4548 0
-203 4548 0
-4543 4549 0
-4550 0
-4551 0
-4544 4552 0
-4549 4552 0
-4544 -4549 4553 0
-4550 4553 0
-4544 -4550 4554 0
-4551 4554 0
-4544 -4551 0
-4545 4555 0
-4552 4555 0
-4545 -4552 4556 0
-4553 4556 0
-4545 -4553 4557 0
-4554 4557 0
-4545 -4554 0
-4546 4558 0
-4555 4558 0
-4546 -4555 4559 0
-4556 4559 0
-4546 -4556 4560 0
-4557 4560 0
-4546 -4557 0
-4547 4561 0
-4558 4561 0
-4547 -4558 4562 0
-4559 4562 0
-4547 -4559 4563 0
-4560 4563 0
-4547 -4560 0
-4548 -4563 0
-4567 21 22 23 24 0
-21 4567 0
-22 4567 0
-23 4567 0
-24 4567 0
-4568 57 58 59 60 0
-57 4568 0
-58 4568 0
-59 4568 0
-60 4568 0
-4569 93 94 95 96 0
-93 4569 0
-94 4569 0
-95 4569 0
-96 4569 0
-4570 129 130 131 132 0
-129 4570 0
-130 4570 0
-131 4570 0
-132 4570 0
-4571 165 166 167 168 0
-165 4571 0
-166 4571 0
-167 4571 0
-168 4571 0
-4572 201 202 203 204 0
-201 4572 0
-202 4572 0
-203 4572 0
-204 4572 0
-4567 4573 0
-4574 0
-4575 0
-4576 0
-4568 4577 0
-4573 4577 0
-4568 -4573 4578 0
-4574 4578 0
-4568 -4574 4579 0
-4575 4579 0
-4568 -4575 4580 0
-4576 4580 0
-4568 -4576 0
-4569 4581 0
-4577 4581 0
-4569 -4577 4582 0
-4578 4582 0
-4569 -4578 4583 0
-4579 4583 0
-4569 -4579 4584 0
-4580 4584 0
-4569 -4580 0
-4570 4585 0
-4581 4585 0
-4570 -4581 4586 0
-4582 4586 0
-4570 -4582 4587 0
-4583 4587 0
-4570 -4583 4588 0
-4584 4588 0
-4570 -4584 0
-4571 4589 0
-4585 4589 0
-4571 -4585 4590 0
-4586 4590 0
-4571 -4586 4591 0
-4587 4591 0
-4571 -4587 4592 0
-4588 4592 0
-4571 -4588 0
-4572 -4592 0
-4597 22 0
-22 4597 0
-4598 58 0
-58 4598 0
-4599 94 0
-94 4599 0
-4600 130 0
-130 4600 0
-4601 166 0
-166 4601 0
-4602 202 0
-202 4602 0
-4597 4603 0
-4598 4604 0
-4603 4604 0
-4598 -4603 0
-4599 4605 0
-4604 4605 0
-4599 -4604 0
-4600 4606 0
-4605 4606 0
-4600 -4605 0
-4601 4607 0
-4606 4607 0
-4601 -4606 0
-4602 -4607 0
-4609 22 23 0
-22 4609 0
-23 4609 0
-4610 58 59 0
-58 4610 0
-59 4610 0
-4611 94 95 0
-94 4611 0
-95 4611 0
-4612 130 131 0
-130 4612 0
-131 4612 0
-4613 166 167 0
-166 4613 0
-167 4613 0
-4614 202 203 0
-202 4614 0
-203 4614 0
-4609 4615 0
-4616 0
-4610 4617 0
-4615 4617 0
-4610 -4615 4618 0
-4616 4618 0
-4610 -4616 0
-4611 4619 0
-4617 4619 0
-4611 -4617 4620 0
-4618 4620 0
-4611 -4618 0
-4612 4621 0
-4619 4621 0
-4612 -4619 4622 0
-4620 4622 0
-4612 -4620 0
-4613 4623 0
-4621 4623 0
-4613 -4621 4624 0
-4622 4624 0
-4613 -4622 0
-4614 -4624 0
-4627 22 23 24 0
-22 4627 0
-23 4627 0
-24 4627 0
-4628 58 59 60 0
-58 4628 0
-59 4628 0
-60 4628 0
-4629 94 95 96 0
-94 4629 0
-95 4629 0
-96 4629 0
-4630 130 131 132 0
-130 4630 0
-131 4630 0
-132 4630 0
-4631 166 167 168 0
-166 4631 0
-167 4631 0
-168 4631 0
-4632 202 203 204 0
-202 4632 0
-203 4632 0
-204 4632 0
-4627 4633 0
-4634 0
-4635 0
-4628 4636 0
-4633 4636 0
-4628 -4633 4637 0
-4634 4637 0
-4628 -4634 4638 0
-4635 4638 0
-4628 -4635 0
-4629 4639 0
-4636 4639 0
-4629 -4636 4640 0
-4637 4640 0
-4629 -4637 4641 0
-4638 4641 0
-4629 -4638 0
-4630 4642 0
-4639 4642 0
-4630 -4639 4643 0
-4640 4643 0
-4630 -4640 4644 0
-4641 4644 0
-4630 -4641 0
-4631 4645 0
-4642 4645 0
-4631 -4642 4646 0
-4643 4646 0
-4631 -4643 4647 0
-4644 4647 0
-4631 -4644 0
-4632 -4647 0
-4651 23 0
-23 4651 0
-4652 59 0
-59 4652 0
-4653 95 0
-95 4653 0
-4654 131 0
-131 4654 0
-4655 167 0
-167 4655 0
-4656 203 0
-203 4656 0
-4651 4657 0
-4652 4658 0
-4657 4658 0
-4652 -4657 0
-4653 4659 0
-4658 4659 0
-4653 -4658 0
-4654 4660 0
-4659 4660 0
-4654 -4659 0
-4655 4661 0
-4660 4661 0
-4655 -4660 0
-4656 -4661 0
-4663 23 24 0
-23 4663 0
-24 4663 0
-4664 59 60 0
-59 4664 0
-60 4664 0
-4665 95 96 0
-95 4665 0
-96 4665 0
-4666 131 132 0
-131 4666 0
-132 4666 0
-4667 167 168 0
-167 4667 0
-168 4667 0
-4668 203 204 0
-203 4668 0
-204 4668 0
-4663 4669 0
-4670 0
-4664 4671 0
-4669 4671 0
-4664 -4669 4672 0
-4670 4672 0
-4664 -4670 0
-4665 4673 0
-4671 4673 0
-4665 -4671 4674 0
-4672 4674 0
-4665 -4672 0
-4666 4675 0
-4673 4675 0
-4666 -4673 4676 0
-4674 4676 0
-4666 -4674 0
-4667 4677 0
-4675 4677 0
-4667 -4675 4678 0
-4676 4678 0
-4667 -4676 0
-4668 -4678 0
-4681 24 0
-24 4681 0
-4682 60 0
-60 4682 0
-4683 96 0
-96 4683 0
-4684 132 0
-132 4684 0
-4685 168 0
-168 4685 0
-4686 204 0
-204 4686 0
-4681 4687 0
-4682 4688 0
-4687 4688 0
-4682 -4687 0
-4683 4689 0
-4688 4689 0
-4683 -4688 0
-4684 4690 0
-4689 4690 0
-4684 -4689 0
-4685 4691 0
-4690 4691 0
-4685 -4690 0
-4686 -4691 0
-4693 25 0
-25 4693 0
-4694 61 0
-61 4694 0
-4695 97 0
-97 4695 0
-4696 133 0
-133 4696 0
-4697 169 0
-169 4697 0
-4698 205 0
-205 4698 0
-4693 4699 0
-4694 4700 0
-4699 4700 0
-4694 -4699 0
-4695 4701 0
-4700 4701 0
-4695 -4700 0
-4696 4702 0
-4701 4702 0
-4696 -4701 0
-4697 4703 0
-4702 4703 0
-4697 -4702 0
-4698 -4703 0
-4705 25 26 0
-25 4705 0
-26 4705 0
-4706 61 62 0
-61 4706 0
-62 4706 0
-4707 97 98 0
-97 4707 0
-98 4707 0
-4708 133 134 0
-133 4708 0
-134 4708 0
-4709 169 170 0
-169 4709 0
-170 4709 0
-4710 205 206 0
-205 4710 0
-206 4710 0
-4705 4711 0
-4712 0
-4706 4713 0
-4711 4713 0
-4706 -4711 4714 0
-4712 4714 0
-4706 -4712 0
-4707 4715 0
-4713 4715 0
-4707 -4713 4716 0
-4714 4716 0
-4707 -4714 0
-4708 4717 0
-4715 4717 0
-4708 -4715 4718 0
-4716 4718 0
-4708 -4716 0
-4709 4719 0
-4717 4719 0
-4709 -4717 4720 0
-4718 4720 0
-4709 -4718 0
-4710 -4720 0
-4723 25 26 27 0
-25 4723 0
-26 4723 0
-27 4723 0
-4724 61 62 63 0
-61 4724 0
-62 4724 0
-63 4724 0
-4725 97 98 99 0
-97 4725 0
-98 4725 0
-99 4725 0
-4726 133 134 135 0
-133 4726 0
-134 4726 0
-135 4726 0
-4727 169 170 171 0
-169 4727 0
-170 4727 0
-171 4727 0
-4728 205 206 207 0
-205 4728 0
-206 4728 0
-207 4728 0
-4723 4729 0
-4730 0
-4731 0
-4724 4732 0
-4729 4732 0
-4724 -4729 4733 0
-4730 4733 0
-4724 -4730 4734 0
-4731 4734 0
-4724 -4731 0
-4725 4735 0
-4732 4735 0
-4725 -4732 4736 0
-4733 4736 0
-4725 -4733 4737 0
-4734 4737 0
-4725 -4734 0
-4726 4738 0
-4735 4738 0
-4726 -4735 4739 0
-4736 4739 0
-4726 -4736 4740 0
-4737 4740 0
-4726 -4737 0
-4727 4741 0
-4738 4741 0
-4727 -4738 4742 0
-4739 4742 0
-4727 -4739 4743 0
-4740 4743 0
-4727 -4740 0
-4728 -4743 0
-4747 25 26 27 28 0
-25 4747 0
-26 4747 0
-27 4747 0
-28 4747 0
-4748 61 62 63 64 0
-61 4748 0
-62 4748 0
-63 4748 0
-64 4748 0
-4749 97 98 99 100 0
-97 4749 0
-98 4749 0
-99 4749 0
-100 4749 0
-4750 133 134 135 136 0
-133 4750 0
-134 4750 0
-135 4750 0
-136 4750 0
-4751 169 170 171 172 0
-169 4751 0
-170 4751 0
-171 4751 0
-172 4751 0
-4752 205 206 207 208 0
-205 4752 0
-206 4752 0
-207 4752 0
-208 4752 0
-4747 4753 0
-4754 0
-4755 0
-4756 0
-4748 4757 0
-4753 4757 0
-4748 -4753 4758 0
-4754 4758 0
-4748 -4754 4759 0
-4755 4759 0
-4748 -4755 4760 0
-4756 4760 0
-4748 -4756 0
-4749 4761 0
-4757 4761 0
-4749 -4757 4762 0
-4758 4762 0
-4749 -4758 4763 0
-4759 4763 0
-4749 -4759 4764 0
-4760 4764 0
-4749 -4760 0
-4750 4765 0
-4761 4765 0
-4750 -4761 4766 0
-4762 4766 0
-4750 -4762 4767 0
-4763 4767 0
-4750 -4763 4768 0
-4764 4768 0
-4750 -4764 0
-4751 4769 0
-4765 4769 0
-4751 -4765 4770 0
-4766 4770 0
-4751 -4766 4771 0
-4767 4771 0
-4751 -4767 4772 0
-4768 4772 0
-4751 -4768 0
-4752 -4772 0
-4777 25 26 27 28 29 0
-25 4777 0
-26 4777 0
-27 4777 0
-28 4777 0
-29 4777 0
-4778 61 62 63 64 65 0
-61 4778 0
-62 4778 0
-63 4778 0
-64 4778 0
-65 4778 0
-4779 97 98 99 100 101 0
-97 4779 0
-98 4779 0
-99 4779 0
-100 4779 0
-101 4779 0
-4780 133 134 135 136 137 0
-133 4780 0
-134 4780 0
-135 4780 0
-136 4780 0
-137 4780 0
-4781 169 170 171 172 173 0
-169 4781 0
-170 4781 0
-171 4781 0
-172 4781 0
-173 4781 0
-4782 205 206 207 208 209 0
-205 4782 0
-206 4782 0
-207 4782 0
-208 4782 0
-209 4782 0
-4777 4783 0
-4784 0
-4785 0
-4786 0
-4787 0
-4778 4788 0
-4783 4788 0
-4778 -4783 4789 0
-4784 4789 0
-4778 -4784 4790 0
-4785 4790 0
-4778 -4785 4791 0
-4786 4791 0
-4778 -4786 4792 0
-4787 4792 0
-4778 -4787 0
-4779 4793 0
-4788 4793 0
-4779 -4788 4794 0
-4789 4794 0
-4779 -4789 4795 0
-4790 4795 0
-4779 -4790 4796 0
-4791 4796 0
-4779 -4791 4797 0
-4792 4797 0
-4779 -4792 0
-4780 4798 0
-4793 4798 0
-4780 -4793 4799 0
-4794 4799 0
-4780 -4794 4800 0
-4795 4800 0
-4780 -4795 4801 0
-4796 4801 0
-4780 -4796 4802 0
-4797 4802 0
-4780 -4797 0
-4781 4803 0
-4798 4803 0
-4781 -4798 4804 0
-4799 4804 0
-4781 -4799 4805 0
-4800 4805 0
-4781 -4800 4806 0
-4801 4806 0
-4781 -4801 4807 0
-4802 4807 0
-4781 -4802 0
-4782 -4807 0
-4813 25 26 27 28 29 30 0
-25 4813 0
-26 4813 0
-27 4813 0
-28 4813 0
-29 4813 0
-30 4813 0
-4814 61 62 63 64 65 66 0
-61 4814 0
-62 4814 0
-63 4814 0
-64 4814 0
-65 4814 0
-66 4814 0
-4815 97 98 99 100 101 102 0
-97 4815 0
-98 4815 0
-99 4815 0
-100 4815 0
-101 4815 0
-102 4815 0
-4816 133 134 135 136 137 138 0
-133 4816 0
-134 4816 0
-135 4816 0
-136 4816 0
-137 4816 0
-138 4816 0
-4817 169 170 171 172 173 174 0
-169 4817 0
-170 4817 0
-171 4817 0
-172 4817 0
-173 4817 0
-174 4817 0
-4818 205 206 207 208 209 210 0
-205 4818 0
-206 4818 0
-207 4818 0
-208 4818 0
-209 4818 0
-210 4818 0
-4819 26 0
-26 4819 0
-4820 62 0
-62 4820 0
-4821 98 0
-98 4821 0
-4822 134 0
-134 4822 0
-4823 170 0
-170 4823 0
-4824 206 0
-206 4824 0
-4819 4825 0
-4820 4826 0
-4825 4826 0
-4820 -4825 0
-4821 4827 0
-4826 4827 0
-4821 -4826 0
-4822 4828 0
-4827 4828 0
-4822 -4827 0
-4823 4829 0
-4828 4829 0
-4823 -4828 0
-4824 -4829 0
-4831 26 27 0
-26 4831 0
-27 4831 0
-4832 62 63 0
-62 4832 0
-63 4832 0
-4833 98 99 0
-98 4833 0
-99 4833 0
-4834 134 135 0
-134 4834 0
-135 4834 0
-4835 170 171 0
-170 4835 0
-171 4835 0
-4836 206 207 0
-206 4836 0
-207 4836 0
-4831 4837 0
-4838 0
-4832 4839 0
-4837 4839 0
-4832 -4837 4840 0
-4838 4840 0
-4832 -4838 0
-4833 4841 0
-4839 4841 0
-4833 -4839 4842 0
-4840 4842 0
-4833 -4840 0
-4834 4843 0
-4841 4843 0
-4834 -4841 4844 0
-4842 4844 0
-4834 -4842 0
-4835 4845 0
-4843 4845 0
-4835 -4843 4846 0
-4844 4846 0
-4835 -4844 0
-4836 -4846 0
-4849 26 27 28 0
-26 4849 0
-27 4849 0
-28 4849 0
-4850 62 63 64 0
-62 4850 0
-63 4850 0
-64 4850 0
-4851 98 99 100 0
-98 4851 0
-99 4851 0
-100 4851 0
-4852 134 135 136 0
-134 4852 0
-135 4852 0
-136 4852 0
-4853 170 171 172 0
-170 4853 0
-171 4853 0
-172 4853 0
-4854 206 207 208 0
-206 4854 0
-207 4854 0
-208 4854 0
-4849 4855 0
-4856 0
-4857 0
-4850 4858 0
-4855 4858 0
-4850 -4855 4859 0
-4856 4859 0
-4850 -4856 4860 0
-4857 4860 0
-4850 -4857 0
-4851 4861 0
-4858 4861 0
-4851 -4858 4862 0
-4859 4862 0
-4851 -4859 4863 0
-4860 4863 0
-4851 -4860 0
-4852 4864 0
-4861 4864 0
-4852 -4861 4865 0
-4862 4865 0
-4852 -4862 4866 0
-4863 4866 0
-4852 -4863 0
-4853 4867 0
-4864 4867 0
-4853 -4864 4868 0
-4865 4868 0
-4853 -4865 4869 0
-4866 4869 0
-4853 -4866 0
-4854 -4869 0
-4873 26 27 28 29 0
-26 4873 0
-27 4873 0
-28 4873 0
-29 4873 0
-4874 62 63 64 65 0
-62 4874 0
-63 4874 0
-64 4874 0
-65 4874 0
-4875 98 99 100 101 0
-98 4875 0
-99 4875 0
-100 4875 0
-101 4875 0
-4876 134 135 136 137 0
-134 4876 0
-135 4876 0
-136 4876 0
-137 4876 0
-4877 170 171 172 173 0
-170 4877 0
-171 4877 0
-172 4877 0
-173 4877 0
-4878 206 207 208 209 0
-206 4878 0
-207 4878 0
-208 4878 0
-209 4878 0
-4873 4879 0
-4880 0
-4881 0
-4882 0
-4874 4883 0
-4879 4883 0
-4874 -4879 4884 0
-4880 4884 0
-4874 -4880 4885 0
-4881 4885 0
-4874 -4881 4886 0
-4882 4886 0
-4874 -4882 0
-4875 4887 0
-4883 4887 0
-4875 -4883 4888 0
-4884 4888 0
-4875 -4884 4889 0
-4885 4889 0
-4875 -4885 4890 0
-4886 4890 0
-4875 -4886 0
-4876 4891 0
-4887 4891 0
-4876 -4887 4892 0
-4888 4892 0
-4876 -4888 4893 0
-4889 4893 0
-4876 -4889 4894 0
-4890 4894 0
-4876 -4890 0
-4877 4895 0
-4891 4895 0
-4877 -4891 4896 0
-4892 4896 0
-4877 -4892 4897 0
-4893 4897 0
-4877 -4893 4898 0
-4894 4898 0
-4877 -4894 0
-4878 -4898 0
-4903 26 27 28 29 30 0
-26 4903 0
-27 4903 0
-28 4903 0
-29 4903 0
-30 4903 0
-4904 62 63 64 65 66 0
-62 4904 0
-63 4904 0
-64 4904 0
-65 4904 0
-66 4904 0
-4905 98 99 100 101 102 0
-98 4905 0
-99 4905 0
-100 4905 0
-101 4905 0
-102 4905 0
-4906 134 135 136 137 138 0
-134 4906 0
-135 4906 0
-136 4906 0
-137 4906 0
-138 4906 0
-4907 170 171 172 173 174 0
-170 4907 0
-171 4907 0
-172 4907 0
-173 4907 0
-174 4907 0
-4908 206 207 208 209 210 0
-206 4908 0
-207 4908 0
-208 4908 0
-209 4908 0
-210 4908 0
-4903 4909 0
-4910 0
-4911 0
-4912 0
-4913 0
-4904 4914 0
-4909 4914 0
-4904 -4909 4915 0
-4910 4915 0
-4904 -4910 4916 0
-4911 4916 0
-4904 -4911 4917 0
-4912 4917 0
-4904 -4912 4918 0
-4913 4918 0
-4904 -4913 0
-4905 4919 0
-4914 4919 0
-4905 -4914 4920 0
-4915 4920 0
-4905 -4915 4921 0
-4916 4921 0
-4905 -4916 4922 0
-4917 4922 0
-4905 -4917 4923 0
-4918 4923 0
-4905 -4918 0
-4906 4924 0
-4919 4924 0
-4906 -4919 4925 0
-4920 4925 0
-4906 -4920 4926 0
-4921 4926 0
-4906 -4921 4927 0
-4922 4927 0
-4906 -4922 4928 0
-4923 4928 0
-4906 -4923 0
-4907 4929 0
-4924 4929 0
-4907 -4924 4930 0
-4925 4930 0
-4907 -4925 4931 0
-4926 4931 0
-4907 -4926 4932 0
-4927 4932 0
-4907 -4927 4933 0
-4928 4933 0
-4907 -4928 0
-4908 -4933 0
-4939 27 0
-27 4939 0
-4940 63 0
-63 4940 0
-4941 99 0
-99 4941 0
-4942 135 0
-135 4942 0
-4943 171 0
-171 4943 0
-4944 207 0
-207 4944 0
-4939 4945 0
-4940 4946 0
-4945 4946 0
-4940 -4945 0
-4941 4947 0
-4946 4947 0
-4941 -4946 0
-4942 4948 0
-4947 4948 0
-4942 -4947 0
-4943 4949 0
-4948 4949 0
-4943 -4948 0
-4944 -4949 0
-4951 27 28 0
-27 4951 0
-28 4951 0
-4952 63 64 0
-63 4952 0
-64 4952 0
-4953 99 100 0
-99 4953 0
-100 4953 0
-4954 135 136 0
-135 4954 0
-136 4954 0
-4955 171 172 0
-171 4955 0
-172 4955 0
-4956 207 208 0
-207 4956 0
-208 4956 0
-4951 4957 0
-4958 0
-4952 4959 0
-4957 4959 0
-4952 -4957 4960 0
-4958 4960 0
-4952 -4958 0
-4953 4961 0
-4959 4961 0
-4953 -4959 4962 0
-4960 4962 0
-4953 -4960 0
-4954 4963 0
-4961 4963 0
-4954 -4961 4964 0
-4962 4964 0
-4954 -4962 0
-4955 4965 0
-4963 4965 0
-4955 -4963 4966 0
-4964 4966 0
-4955 -4964 0
-4956 -4966 0
-4969 27 28 29 0
-27 4969 0
-28 4969 0
-29 4969 0
-4970 63 64 65 0
-63 4970 0
-64 4970 0
-65 4970 0
-4971 99 100 101 0
-99 4971 0
-100 4971 0
-101 4971 0
-4972 135 136 137 0
-135 4972 0
-136 4972 0
-137 4972 0
-4973 171 172 173 0
-171 4973 0
-172 4973 0
-173 4973 0
-4974 207 208 209 0
-207 4974 0
-208 4974 0
-209 4974 0
-4969 4975 0
-4976 0
-4977 0
-4970 4978 0
-4975 4978 0
-4970 -4975 4979 0
-4976 4979 0
-4970 -4976 4980 0
-4977 4980 0
-4970 -4977 0
-4971 4981 0
-4978 4981 0
-4971 -4978 4982 0
-4979 4982 0
-4971 -4979 4983 0
-4980 4983 0
-4971 -4980 0
-4972 4984 0
-4981 4984 0
-4972 -4981 4985 0
-4982 4985 0
-4972 -4982 4986 0
-4983 4986 0
-4972 -4983 0
-4973 4987 0
-4984 4987 0
-4973 -4984 4988 0
-4985 4988 0
-4973 -4985 4989 0
-4986 4989 0
-4973 -4986 0
-4974 -4989 0
-4993 27 28 29 30 0
-27 4993 0
-28 4993 0
-29 4993 0
-30 4993 0
-4994 63 64 65 66 0
-63 4994 0
-64 4994 0
-65 4994 0
-66 4994 0
-4995 99 100 101 102 0
-99 4995 0
-100 4995 0
-101 4995 0
-102 4995 0
-4996 135 136 137 138 0
-135 4996 0
-136 4996 0
-137 4996 0
-138 4996 0
-4997 171 172 173 174 0
-171 4997 0
-172 4997 0
-173 4997 0
-174 4997 0
-4998 207 208 209 210 0
-207 4998 0
-208 4998 0
-209 4998 0
-210 4998 0
-4993 4999 0
-5000 0
-5001 0
-5002 0
-4994 5003 0
-4999 5003 0
-4994 -4999 5004 0
-5000 5004 0
-4994 -5000 5005 0
-5001 5005 0
-4994 -5001 5006 0
-5002 5006 0
-4994 -5002 0
-4995 5007 0
-5003 5007 0
-4995 -5003 5008 0
-5004 5008 0
-4995 -5004 5009 0
-5005 5009 0
-4995 -5005 5010 0
-5006 5010 0
-4995 -5006 0
-4996 5011 0
-5007 5011 0
-4996 -5007 5012 0
-5008 5012 0
-4996 -5008 5013 0
-5009 5013 0
-4996 -5009 5014 0
-5010 5014 0
-4996 -5010 0
-4997 5015 0
-5011 5015 0
-4997 -5011 5016 0
-5012 5016 0
-4997 -5012 5017 0
-5013 5017 0
-4997 -5013 5018 0
-5014 5018 0
-4997 -5014 0
-4998 -5018 0
-5023 28 0
-28 5023 0
-5024 64 0
-64 5024 0
-5025 100 0
-100 5025 0
-5026 136 0
-136 5026 0
-5027 172 0
-172 5027 0
-5028 208 0
-208 5028 0
-5023 5029 0
-5024 5030 0
-5029 5030 0
-5024 -5029 0
-5025 5031 0
-5030 5031 0
-5025 -5030 0
-5026 5032 0
-5031 5032 0
-5026 -5031 0
-5027 5033 0
-5032 5033 0
-5027 -5032 0
-5028 -5033 0
-5035 28 29 0
-28 5035 0
-29 5035 0
-5036 64 65 0
-64 5036 0
-65 5036 0
-5037 100 101 0
-100 5037 0
-101 5037 0
-5038 136 137 0
-136 5038 0
-137 5038 0
-5039 172 173 0
-172 5039 0
-173 5039 0
-5040 208 209 0
-208 5040 0
-209 5040 0
-5035 5041 0
-5042 0
-5036 5043 0
-5041 5043 0
-5036 -5041 5044 0
-5042 5044 0
-5036 -5042 0
-5037 5045 0
-5043 5045 0
-5037 -5043 5046 0
-5044 5046 0
-5037 -5044 0
-5038 5047 0
-5045 5047 0
-5038 -5045 5048 0
-5046 5048 0
-5038 -5046 0
-5039 5049 0
-5047 5049 0
-5039 -5047 5050 0
-5048 5050 0
-5039 -5048 0
-5040 -5050 0
-5053 28 29 30 0
-28 5053 0
-29 5053 0
-30 5053 0
-5054 64 65 66 0
-64 5054 0
-65 5054 0
-66 5054 0
-5055 100 101 102 0
-100 5055 0
-101 5055 0
-102 5055 0
-5056 136 137 138 0
-136 5056 0
-137 5056 0
-138 5056 0
-5057 172 173 174 0
-172 5057 0
-173 5057 0
-174 5057 0
-5058 208 209 210 0
-208 5058 0
-209 5058 0
-210 5058 0
-5053 5059 0
-5060 0
-5061 0
-5054 5062 0
-5059 5062 0
-5054 -5059 5063 0
-5060 5063 0
-5054 -5060 5064 0
-5061 5064 0
-5054 -5061 0
-5055 5065 0
-5062 5065 0
-5055 -5062 5066 0
-5063 5066 0
-5055 -5063 5067 0
-5064 5067 0
-5055 -5064 0
-5056 5068 0
-5065 5068 0
-5056 -5065 5069 0
-5066 5069 0
-5056 -5066 5070 0
-5067 5070 0
-5056 -5067 0
-5057 5071 0
-5068 5071 0
-5057 -5068 5072 0
-5069 5072 0
-5057 -5069 5073 0
-5070 5073 0
-5057 -5070 0
-5058 -5073 0
-5077 29 0
-29 5077 0
-5078 65 0
-65 5078 0
-5079 101 0
-101 5079 0
-5080 137 0
-137 5080 0
-5081 173 0
-173 5081 0
-5082 209 0
-209 5082 0
-5077 5083 0
-5078 5084 0
-5083 5084 0
-5078 -5083 0
-5079 5085 0
-5084 5085 0
-5079 -5084 0
-5080 5086 0
-5085 5086 0
-5080 -5085 0
-5081 5087 0
-5086 5087 0
-5081 -5086 0
-5082 -5087 0
-5089 29 30 0
-29 5089 0
-30 5089 0
-5090 65 66 0
-65 5090 0
-66 5090 0
-5091 101 102 0
-101 5091 0
-102 5091 0
-5092 137 138 0
-137 5092 0
-138 5092 0
-5093 173 174 0
-173 5093 0
-174 5093 0
-5094 209 210 0
-209 5094 0
-210 5094 0
-5089 5095 0
-5096 0
-5090 5097 0
-5095 5097 0
-5090 -5095 5098 0
-5096 5098 0
-5090 -5096 0
-5091 5099 0
-5097 5099 0
-5091 -5097 5100 0
-5098 5100 0
-5091 -5098 0
-5092 5101 0
-5099 5101 0
-5092 -5099 5102 0
-5100 5102 0
-5092 -5100 0
-5093 5103 0
-5101 5103 0
-5093 -5101 5104 0
-5102 5104 0
-5093 -5102 0
-5094 -5104 0
-5107 30 0
-30 5107 0
-5108 66 0
-66 5108 0
-5109 102 0
-102 5109 0
-5110 138 0
-138 5110 0
-5111 174 0
-174 5111 0
-5112 210 0
-210 5112 0
-5107 5113 0
-5108 5114 0
-5113 5114 0
-5108 -5113 0
-5109 5115 0
-5114 5115 0
-5109 -5114 0
-5110 5116 0
-5115 5116 0
-5110 -5115 0
-5111 5117 0
-5116 5117 0
-5111 -5116 0
-5112 -5117 0
-5119 31 0
-31 5119 0
-5120 67 0
-67 5120 0
-5121 103 0
-103 5121 0
-5122 139 0
-139 5122 0
-5123 175 0
-175 5123 0
-5124 211 0
-211 5124 0
-5119 5125 0
-5120 5126 0
-5125 5126 0
-5120 -5125 0
-5121 5127 0
-5126 5127 0
-5121 -5126 0
-5122 5128 0
-5127 5128 0
-5122 -5127 0
-5123 5129 0
-5128 5129 0
-5123 -5128 0
-5124 -5129 0
-5131 31 32 0
-31 5131 0
-32 5131 0
-5132 67 68 0
-67 5132 0
-68 5132 0
-5133 103 104 0
-103 5133 0
-104 5133 0
-5134 139 140 0
-139 5134 0
-140 5134 0
-5135 175 176 0
-175 5135 0
-176 5135 0
-5136 211 212 0
-211 5136 0
-212 5136 0
-5131 5137 0
-5138 0
-5132 5139 0
-5137 5139 0
-5132 -5137 5140 0
-5138 5140 0
-5132 -5138 0
-5133 5141 0
-5139 5141 0
-5133 -5139 5142 0
-5140 5142 0
-5133 -5140 0
-5134 5143 0
-5141 5143 0
-5134 -5141 5144 0
-5142 5144 0
-5134 -5142 0
-5135 5145 0
-5143 5145 0
-5135 -5143 5146 0
-5144 5146 0
-5135 -5144 0
-5136 -5146 0
-5149 31 32 33 0
-31 5149 0
-32 5149 0
-33 5149 0
-5150 67 68 69 0
-67 5150 0
-68 5150 0
-69 5150 0
-5151 103 104 105 0
-103 5151 0
-104 5151 0
-105 5151 0
-5152 139 140 141 0
-139 5152 0
-140 5152 0
-141 5152 0
-5153 175 176 177 0
-175 5153 0
-176 5153 0
-177 5153 0
-5154 211 212 213 0
-211 5154 0
-212 5154 0
-213 5154 0
-5149 5155 0
-5156 0
-5157 0
-5150 5158 0
-5155 5158 0
-5150 -5155 5159 0
-5156 5159 0
-5150 -5156 5160 0
-5157 5160 0
-5150 -5157 0
-5151 5161 0
-5158 5161 0
-5151 -5158 5162 0
-5159 5162 0
-5151 -5159 5163 0
-5160 5163 0
-5151 -5160 0
-5152 5164 0
-5161 5164 0
-5152 -5161 5165 0
-5162 5165 0
-5152 -5162 5166 0
-5163 5166 0
-5152 -5163 0
-5153 5167 0
-5164 5167 0
-5153 -5164 5168 0
-5165 5168 0
-5153 -5165 5169 0
-5166 5169 0
-5153 -5166 0
-5154 -5169 0
-5173 31 32 33 34 0
-31 5173 0
-32 5173 0
-33 5173 0
-34 5173 0
-5174 67 68 69 70 0
-67 5174 0
-68 5174 0
-69 5174 0
-70 5174 0
-5175 103 104 105 106 0
-103 5175 0
-104 5175 0
-105 5175 0
-106 5175 0
-5176 139 140 141 142 0
-139 5176 0
-140 5176 0
-141 5176 0
-142 5176 0
-5177 175 176 177 178 0
-175 5177 0
-176 5177 0
-177 5177 0
-178 5177 0
-5178 211 212 213 214 0
-211 5178 0
-212 5178 0
-213 5178 0
-214 5178 0
-5173 5179 0
-5180 0
-5181 0
-5182 0
-5174 5183 0
-5179 5183 0
-5174 -5179 5184 0
-5180 5184 0
-5174 -5180 5185 0
-5181 5185 0
-5174 -5181 5186 0
-5182 5186 0
-5174 -5182 0
-5175 5187 0
-5183 5187 0
-5175 -5183 5188 0
-5184 5188 0
-5175 -5184 5189 0
-5185 5189 0
-5175 -5185 5190 0
-5186 5190 0
-5175 -5186 0
-5176 5191 0
-5187 5191 0
-5176 -5187 5192 0
-5188 5192 0
-5176 -5188 5193 0
-5189 5193 0
-5176 -5189 5194 0
-5190 5194 0
-5176 -5190 0
-5177 5195 0
-5191 5195 0
-5177 -5191 5196 0
-5192 5196 0
-5177 -5192 5197 0
-5193 5197 0
-5177 -5193 5198 0
-5194 5198 0
-5177 -5194 0
-5178 -5198 0
-5203 31 32 33 34 35 0
-31 5203 0
-32 5203 0
-33 5203 0
-34 5203 0
-35 5203 0
-5204 67 68 69 70 71 0
-67 5204 0
-68 5204 0
-69 5204 0
-70 5204 0
-71 5204 0
-5205 103 104 105 106 107 0
-103 5205 0
-104 5205 0
-105 5205 0
-106 5205 0
-107 5205 0
-5206 139 140 141 142 143 0
-139 5206 0
-140 5206 0
-141 5206 0
-142 5206 0
-143 5206 0
-5207 175 176 177 178 179 0
-175 5207 0
-176 5207 0
-177 5207 0
-178 5207 0
-179 5207 0
-5208 211 212 213 214 215 0
-211 5208 0
-212 5208 0
-213 5208 0
-214 5208 0
-215 5208 0
-5203 5209 0
-5210 0
-5211 0
-5212 0
-5213 0
-5204 5214 0
-5209 5214 0
-5204 -5209 5215 0
-5210 5215 0
-5204 -5210 5216 0
-5211 5216 0
-5204 -5211 5217 0
-5212 5217 0
-5204 -5212 5218 0
-5213 5218 0
-5204 -5213 0
-5205 5219 0
-5214 5219 0
-5205 -5214 5220 0
-5215 5220 0
-5205 -5215 5221 0
-5216 5221 0
-5205 -5216 5222 0
-5217 5222 0
-5205 -5217 5223 0
-5218 5223 0
-5205 -5218 0
-5206 5224 0
-5219 5224 0
-5206 -5219 5225 0
-5220 5225 0
-5206 -5220 5226 0
-5221 5226 0
-5206 -5221 5227 0
-5222 5227 0
-5206 -5222 5228 0
-5223 5228 0
-5206 -5223 0
-5207 5229 0
-5224 5229 0
-5207 -5224 5230 0
-5225 5230 0
-5207 -5225 5231 0
-5226 5231 0
-5207 -5226 5232 0
-5227 5232 0
-5207 -5227 5233 0
-5228 5233 0
-5207 -5228 0
-5208 -5233 0
-5239 31 32 33 34 35 36 0
-31 5239 0
-32 5239 0
-33 5239 0
-34 5239 0
-35 5239 0
-36 5239 0
-5240 67 68 69 70 71 72 0
-67 5240 0
-68 5240 0
-69 5240 0
-70 5240 0
-71 5240 0
-72 5240 0
-5241 103 104 105 106 107 108 0
-103 5241 0
-104 5241 0
-105 5241 0
-106 5241 0
-107 5241 0
-108 5241 0
-5242 139 140 141 142 143 144 0
-139 5242 0
-140 5242 0
-141 5242 0
-142 5242 0
-143 5242 0
-144 5242 0
-5243 175 176 177 178 179 180 0
-175 5243 0
-176 5243 0
-177 5243 0
-178 5243 0
-179 5243 0
-180 5243 0
-5244 211 212 213 214 215 216 0
-211 5244 0
-212 5244 0
-213 5244 0
-214 5244 0
-215 5244 0
-216 5244 0
-5245 32 0
-32 5245 0
-5246 68 0
-68 5246 0
-5247 104 0
-104 5247 0
-5248 140 0
-140 5248 0
-5249 176 0
-176 5249 0
-5250 212 0
-212 5250 0
-5245 5251 0
-5246 5252 0
-5251 5252 0
-5246 -5251 0
-5247 5253 0
-5252 5253 0
-5247 -5252 0
-5248 5254 0
-5253 5254 0
-5248 -5253 0
-5249 5255 0
-5254 5255 0
-5249 -5254 0
-5250 -5255 0
-5257 32 33 0
-32 5257 0
-33 5257 0
-5258 68 69 0
-68 5258 0
-69 5258 0
-5259 104 105 0
-104 5259 0
-105 5259 0
-5260 140 141 0
-140 5260 0
-141 5260 0
-5261 176 177 0
-176 5261 0
-177 5261 0
-5262 212 213 0
-212 5262 0
-213 5262 0
-5257 5263 0
-5264 0
-5258 5265 0
-5263 5265 0
-5258 -5263 5266 0
-5264 5266 0
-5258 -5264 0
-5259 5267 0
-5265 5267 0
-5259 -5265 5268 0
-5266 5268 0
-5259 -5266 0
-5260 5269 0
-5267 5269 0
-5260 -5267 5270 0
-5268 5270 0
-5260 -5268 0
-5261 5271 0
-5269 5271 0
-5261 -5269 5272 0
-5270 5272 0
-5261 -5270 0
-5262 -5272 0
-5275 32 33 34 0
-32 5275 0
-33 5275 0
-34 5275 0
-5276 68 69 70 0
-68 5276 0
-69 5276 0
-70 5276 0
-5277 104 105 106 0
-104 5277 0
-105 5277 0
-106 5277 0
-5278 140 141 142 0
-140 5278 0
-141 5278 0
-142 5278 0
-5279 176 177 178 0
-176 5279 0
-177 5279 0
-178 5279 0
-5280 212 213 214 0
-212 5280 0
-213 5280 0
-214 5280 0
-5275 5281 0
-5282 0
-5283 0
-5276 5284 0
-5281 5284 0
-5276 -5281 5285 0
-5282 5285 0
-5276 -5282 5286 0
-5283 5286 0
-5276 -5283 0
-5277 5287 0
-5284 5287 0
-5277 -5284 5288 0
-5285 5288 0
-5277 -5285 5289 0
-5286 5289 0
-5277 -5286 0
-5278 5290 0
-5287 5290 0
-5278 -5287 5291 0
-5288 5291 0
-5278 -5288 5292 0
-5289 5292 0
-5278 -5289 0
-5279 5293 0
-5290 5293 0
-5279 -5290 5294 0
-5291 5294 0
-5279 -5291 5295 0
-5292 5295 0
-5279 -5292 0
-5280 -5295 0
-5299 32 33 34 35 0
-32 5299 0
-33 5299 0
-34 5299 0
-35 5299 0
-5300 68 69 70 71 0
-68 5300 0
-69 5300 0
-70 5300 0
-71 5300 0
-5301 104 105 106 107 0
-104 5301 0
-105 5301 0
-106 5301 0
-107 5301 0
-5302 140 141 142 143 0
-140 5302 0
-141 5302 0
-142 5302 0
-143 5302 0
-5303 176 177 178 179 0
-176 5303 0
-177 5303 0
-178 5303 0
-179 5303 0
-5304 212 213 214 215 0
-212 5304 0
-213 5304 0
-214 5304 0
-215 5304 0
-5299 5305 0
-5306 0
-5307 0
-5308 0
-5300 5309 0
-5305 5309 0
-5300 -5305 5310 0
-5306 5310 0
-5300 -5306 5311 0
-5307 5311 0
-5300 -5307 5312 0
-5308 5312 0
-5300 -5308 0
-5301 5313 0
-5309 5313 0
-5301 -5309 5314 0
-5310 5314 0
-5301 -5310 5315 0
-5311 5315 0
-5301 -5311 5316 0
-5312 5316 0
-5301 -5312 0
-5302 5317 0
-5313 5317 0
-5302 -5313 5318 0
-5314 5318 0
-5302 -5314 5319 0
-5315 5319 0
-5302 -5315 5320 0
-5316 5320 0
-5302 -5316 0
-5303 5321 0
-5317 5321 0
-5303 -5317 5322 0
-5318 5322 0
-5303 -5318 5323 0
-5319 5323 0
-5303 -5319 5324 0
-5320 5324 0
-5303 -5320 0
-5304 -5324 0
-5329 32 33 34 35 36 0
-32 5329 0
-33 5329 0
-34 5329 0
-35 5329 0
-36 5329 0
-5330 68 69 70 71 72 0
-68 5330 0
-69 5330 0
-70 5330 0
-71 5330 0
-72 5330 0
-5331 104 105 106 107 108 0
-104 5331 0
-105 5331 0
-106 5331 0
-107 5331 0
-108 5331 0
-5332 140 141 142 143 144 0
-140 5332 0
-141 5332 0
-142 5332 0
-143 5332 0
-144 5332 0
-5333 176 177 178 179 180 0
-176 5333 0
-177 5333 0
-178 5333 0
-179 5333 0
-180 5333 0
-5334 212 213 214 215 216 0
-212 5334 0
-213 5334 0
-214 5334 0
-215 5334 0
-216 5334 0
-5329 5335 0
-5336 0
-5337 0
-5338 0
-5339 0
-5330 5340 0
-5335 5340 0
-5330 -5335 5341 0
-5336 5341 0
-5330 -5336 5342 0
-5337 5342 0
-5330 -5337 5343 0
-5338 5343 0
-5330 -5338 5344 0
-5339 5344 0
-5330 -5339 0
-5331 5345 0
-5340 5345 0
-5331 -5340 5346 0
-5341 5346 0
-5331 -5341 5347 0
-5342 5347 0
-5331 -5342 5348 0
-5343 5348 0
-5331 -5343 5349 0
-5344 5349 0
-5331 -5344 0
-5332 5350 0
-5345 5350 0
-5332 -5345 5351 0
-5346 5351 0
-5332 -5346 5352 0
-5347 5352 0
-5332 -5347 5353 0
-5348 5353 0
-5332 -5348 5354 0
-5349 5354 0
-5332 -5349 0
-5333 5355 0
-5350 5355 0
-5333 -5350 5356 0
-5351 5356 0
-5333 -5351 5357 0
-5352 5357 0
-5333 -5352 5358 0
-5353 5358 0
-5333 -5353 5359 0
-5354 5359 0
-5333 -5354 0
-5334 -5359 0
-5365 33 0
-33 5365 0
-5366 69 0
-69 5366 0
-5367 105 0
-105 5367 0
-5368 141 0
-141 5368 0
-5369 177 0
-177 5369 0
-5370 213 0
-213 5370 0
-5365 5371 0
-5366 5372 0
-5371 5372 0
-5366 -5371 0
-5367 5373 0
-5372 5373 0
-5367 -5372 0
-5368 5374 0
-5373 5374 0
-5368 -5373 0
-5369 5375 0
-5374 5375 0
-5369 -5374 0
-5370 -5375 0
-5377 33 34 0
-33 5377 0
-34 5377 0
-5378 69 70 0
-69 5378 0
-70 5378 0
-5379 105 106 0
-105 5379 0
-106 5379 0
-5380 141 142 0
-141 5380 0
-142 5380 0
-5381 177 178 0
-177 5381 0
-178 5381 0
-5382 213 214 0
-213 5382 0
-214 5382 0
-5377 5383 0
-5384 0
-5378 5385 0
-5383 5385 0
-5378 -5383 5386 0
-5384 5386 0
-5378 -5384 0
-5379 5387 0
-5385 5387 0
-5379 -5385 5388 0
-5386 5388 0
-5379 -5386 0
-5380 5389 0
-5387 5389 0
-5380 -5387 5390 0
-5388 5390 0
-5380 -5388 0
-5381 5391 0
-5389 5391 0
-5381 -5389 5392 0
-5390 5392 0
-5381 -5390 0
-5382 -5392 0
-5395 33 34 35 0
-33 5395 0
-34 5395 0
-35 5395 0
-5396 69 70 71 0
-69 5396 0
-70 5396 0
-71 5396 0
-5397 105 106 107 0
-105 5397 0
-106 5397 0
-107 5397 0
-5398 141 142 143 0
-141 5398 0
-142 5398 0
-143 5398 0
-5399 177 178 179 0
-177 5399 0
-178 5399 0
-179 5399 0
-5400 213 214 215 0
-213 5400 0
-214 5400 0
-215 5400 0
-5395 5401 0
-5402 0
-5403 0
-5396 5404 0
-5401 5404 0
-5396 -5401 5405 0
-5402 5405 0
-5396 -5402 5406 0
-5403 5406 0
-5396 -5403 0
-5397 5407 0
-5404 5407 0
-5397 -5404 5408 0
-5405 5408 0
-5397 -5405 5409 0
-5406 5409 0
-5397 -5406 0
-5398 5410 0
-5407 5410 0
-5398 -5407 5411 0
-5408 5411 0
-5398 -5408 5412 0
-5409 5412 0
-5398 -5409 0
-5399 5413 0
-5410 5413 0
-5399 -5410 5414 0
-5411 5414 0
-5399 -5411 5415 0
-5412 5415 0
-5399 -5412 0
-5400 -5415 0
-5419 33 34 35 36 0
-33 5419 0
-34 5419 0
-35 5419 0
-36 5419 0
-5420 69 70 71 72 0
-69 5420 0
-70 5420 0
-71 5420 0
-72 5420 0
-5421 105 106 107 108 0
-105 5421 0
-106 5421 0
-107 5421 0
-108 5421 0
-5422 141 142 143 144 0
-141 5422 0
-142 5422 0
-143 5422 0
-144 5422 0
-5423 177 178 179 180 0
-177 5423 0
-178 5423 0
-179 5423 0
-180 5423 0
-5424 213 214 215 216 0
-213 5424 0
-214 5424 0
-215 5424 0
-216 5424 0
-5419 5425 0
-5426 0
-5427 0
-5428 0
-5420 5429 0
-5425 5429 0
-5420 -5425 5430 0
-5426 5430 0
-5420 -5426 5431 0
-5427 5431 0
-5420 -5427 5432 0
-5428 5432 0
-5420 -5428 0
-5421 5433 0
-5429 5433 0
-5421 -5429 5434 0
-5430 5434 0
-5421 -5430 5435 0
-5431 5435 0
-5421 -5431 5436 0
-5432 5436 0
-5421 -5432 0
-5422 5437 0
-5433 5437 0
-5422 -5433 5438 0
-5434 5438 0
-5422 -5434 5439 0
-5435 5439 0
-5422 -5435 5440 0
-5436 5440 0
-5422 -5436 0
-5423 5441 0
-5437 5441 0
-5423 -5437 5442 0
-5438 5442 0
-5423 -5438 5443 0
-5439 5443 0
-5423 -5439 5444 0
-5440 5444 0
-5423 -5440 0
-5424 -5444 0
-5449 34 0
-34 5449 0
-5450 70 0
-70 5450 0
-5451 106 0
-106 5451 0
-5452 142 0
-142 5452 0
-5453 178 0
-178 5453 0
-5454 214 0
-214 5454 0
-5449 5455 0
-5450 5456 0
-5455 5456 0
-5450 -5455 0
-5451 5457 0
-5456 5457 0
-5451 -5456 0
-5452 5458 0
-5457 5458 0
-5452 -5457 0
-5453 5459 0
-5458 5459 0
-5453 -5458 0
-5454 -5459 0
-5461 34 35 0
-34 5461 0
-35 5461 0
-5462 70 71 0
-70 5462 0
-71 5462 0
-5463 106 107 0
-106 5463 0
-107 5463 0
-5464 142 143 0
-142 5464 0
-143 5464 0
-5465 178 179 0
-178 5465 0
-179 5465 0
-5466 214 215 0
-214 5466 0
-215 5466 0
-5461 5467 0
-5468 0
-5462 5469 0
-5467 5469 0
-5462 -5467 5470 0
-5468 5470 0
-5462 -5468 0
-5463 5471 0
-5469 5471 0
-5463 -5469 5472 0
-5470 5472 0
-5463 -5470 0
-5464 5473 0
-5471 5473 0
-5464 -5471 5474 0
-5472 5474 0
-5464 -5472 0
-5465 5475 0
-5473 5475 0
-5465 -5473 5476 0
-5474 5476 0
-5465 -5474 0
-5466 -5476 0
-5479 34 35 36 0
-34 5479 0
-35 5479 0
-36 5479 0
-5480 70 71 72 0
-70 5480 0
-71 5480 0
-72 5480 0
-5481 106 107 108 0
-106 5481 0
-107 5481 0
-108 5481 0
-5482 142 143 144 0
-142 5482 0
-143 5482 0
-144 5482 0
-5483 178 179 180 0
-178 5483 0
-179 5483 0
-180 5483 0
-5484 214 215 216 0
-214 5484 0
-215 5484 0
-216 5484 0
-5479 5485 0
-5486 0
-5487 0
-5480 5488 0
-5485 5488 0
-5480 -5485 5489 0
-5486 5489 0
-5480 -5486 5490 0
-5487 5490 0
-5480 -5487 0
-5481 5491 0
-5488 5491 0
-5481 -5488 5492 0
-5489 5492 0
-5481 -5489 5493 0
-5490 5493 0
-5481 -5490 0
-5482 5494 0
-5491 5494 0
-5482 -5491 5495 0
-5492 5495 0
-5482 -5492 5496 0
-5493 5496 0
-5482 -5493 0
-5483 5497 0
-5494 5497 0
-5483 -5494 5498 0
-5495 5498 0
-5483 -5495 5499 0
-5496 5499 0
-5483 -5496 0
-5484 -5499 0
-5503 35 0
-35 5503 0
-5504 71 0
-71 5504 0
-5505 107 0
-107 5505 0
-5506 143 0
-143 5506 0
-5507 179 0
-179 5507 0
-5508 215 0
-215 5508 0
-5503 5509 0
-5504 5510 0
-5509 5510 0
-5504 -5509 0
-5505 5511 0
-5510 5511 0
-5505 -5510 0
-5506 5512 0
-5511 5512 0
-5506 -5511 0
-5507 5513 0
-5512 5513 0
-5507 -5512 0
-5508 -5513 0
-5515 35 36 0
-35 5515 0
-36 5515 0
-5516 71 72 0
-71 5516 0
-72 5516 0
-5517 107 108 0
-107 5517 0
-108 5517 0
-5518 143 144 0
-143 5518 0
-144 5518 0
-5519 179 180 0
-179 5519 0
-180 5519 0
-5520 215 216 0
-215 5520 0
-216 5520 0
-5515 5521 0
-5522 0
-5516 5523 0
-5521 5523 0
-5516 -5521 5524 0
-5522 5524 0
-5516 -5522 0
-5517 5525 0
-5523 5525 0
-5517 -5523 5526 0
-5524 5526 0
-5517 -5524 0
-5518 5527 0
-5525 5527 0
-5518 -5525 5528 0
-5526 5528 0
-5518 -5526 0
-5519 5529 0
-5527 5529 0
-5519 -5527 5530 0
-5528 5530 0
-5519 -5528 0
-5520 -5530 0
-5533 36 0
-36 5533 0
-5534 72 0
-72 5534 0
-5535 108 0
-108 5535 0
-5536 144 0
-144 5536 0
-5537 180 0
-180 5537 0
-5538 216 0
-216 5538 0
-5533 5539 0
-5534 5540 0
-5539 5540 0
-5534 -5539 0
-5535 5541 0
-5540 5541 0
-5535 -5540 0
-5536 5542 0
-5541 5542 0
-5536 -5541 0
-5537 5543 0
-5542 5543 0
-5537 -5542 0
-5538 -5543 0
-5545 25 0
-25 5545 0
-5546 67 0
-67 5546 0
-5545 5547 0
-5546 -5547 0
-5549 25 26 0
-25 5549 0
-26 5549 0
-5550 67 68 0
-67 5550 0
-68 5550 0
-5551 26 0
-26 5551 0
-5552 68 0
-68 5552 0
-5551 5553 0
-5552 -5553 0
-5555 26 27 0
-26 5555 0
-27 5555 0
-5556 68 69 0
-68 5556 0
-69 5556 0
-5557 27 0
-27 5557 0
-5558 69 0
-69 5558 0
-5557 5559 0
-5558 -5559 0
-5561 27 28 0
-27 5561 0
-28 5561 0
-5562 69 70 0
-69 5562 0
-70 5562 0
-5563 28 0
-28 5563 0
-5564 70 0
-70 5564 0
-5563 5565 0
-5564 -5565 0
-5567 28 29 0
-28 5567 0
-29 5567 0
-5568 70 71 0
-70 5568 0
-71 5568 0
-5569 29 0
-29 5569 0
-5570 71 0
-71 5570 0
-5569 5571 0
-5570 -5571 0
-5573 29 30 0
-29 5573 0
-30 5573 0
-5574 71 72 0
-71 5574 0
-72 5574 0
-5575 30 0
-30 5575 0
-5576 72 0
-72 5576 0
-5575 5577 0
-5576 -5577 0
-5579 19 0
-19 5579 0
-5580 61 0
-61 5580 0
-5581 103 0
-103 5581 0
-5579 5582 0
-5580 5583 0
-5582 5583 0
-5580 -5582 0
-5581 -5583 0
-5585 19 20 0
-19 5585 0
-20 5585 0
-5586 61 62 0
-61 5586 0
-62 5586 0
-5587 103 104 0
-103 5587 0
-104 5587 0
-5585 5588 0
-5589 0
-5586 5590 0
-5588 5590 0
-5586 -5588 5591 0
-5589 5591 0
-5586 -5589 0
-5587 -5591 0
-5594 19 20 21 0
-19 5594 0
-20 5594 0
-21 5594 0
-5595 61 62 63 0
-61 5595 0
-62 5595 0
-63 5595 0
-5596 103 104 105 0
-103 5596 0
-104 5596 0
-105 5596 0
-5597 20 0
-20 5597 0
-5598 62 0
-62 5598 0
-5599 104 0
-104 5599 0
-5597 5600 0
-5598 5601 0
-5600 5601 0
-5598 -5600 0
-5599 -5601 0
-5603 20 21 0
-20 5603 0
-21 5603 0
-5604 62 63 0
-62 5604 0
-63 5604 0
-5605 104 105 0
-104 5605 0
-105 5605 0
-5603 5606 0
-5607 0
-5604 5608 0
-5606 5608 0
-5604 -5606 5609 0
-5607 5609 0
-5604 -5607 0
-5605 -5609 0
-5612 20 21 22 0
-20 5612 0
-21 5612 0
-22 5612 0
-5613 62 63 64 0
-62 5613 0
-63 5613 0
-64 5613 0
-5614 104 105 106 0
-104 5614 0
-105 5614 0
-106 5614 0
-5615 21 0
-21 5615 0
-5616 63 0
-63 5616 0
-5617 105 0
-105 5617 0
-5615 5618 0
-5616 5619 0
-5618 5619 0
-5616 -5618 0
-5617 -5619 0
-5621 21 22 0
-21 5621 0
-22 5621 0
-5622 63 64 0
-63 5622 0
-64 5622 0
-5623 105 106 0
-105 5623 0
-106 5623 0
-5621 5624 0
-5625 0
-5622 5626 0
-5624 5626 0
-5622 -5624 5627 0
-5625 5627 0
-5622 -5625 0
-5623 -5627 0
-5630 21 22 23 0
-21 5630 0
-22 5630 0
-23 5630 0
-5631 63 64 65 0
-63 5631 0
-64 5631 0
-65 5631 0
-5632 105 106 107 0
-105 5632 0
-106 5632 0
-107 5632 0
-5633 22 0
-22 5633 0
-5634 64 0
-64 5634 0
-5635 106 0
-106 5635 0
-5633 5636 0
-5634 5637 0
-5636 5637 0
-5634 -5636 0
-5635 -5637 0
-5639 22 23 0
-22 5639 0
-23 5639 0
-5640 64 65 0
-64 5640 0
-65 5640 0
-5641 106 107 0
-106 5641 0
-107 5641 0
-5639 5642 0
-5643 0
-5640 5644 0
-5642 5644 0
-5640 -5642 5645 0
-5643 5645 0
-5640 -5643 0
-5641 -5645 0
-5648 22 23 24 0
-22 5648 0
-23 5648 0
-24 5648 0
-5649 64 65 66 0
-64 5649 0
-65 5649 0
-66 5649 0
-5650 106 107 108 0
-106 5650 0
-107 5650 0
-108 5650 0
-5651 23 0
-23 5651 0
-5652 65 0
-65 5652 0
-5653 107 0
-107 5653 0
-5651 5654 0
-5652 5655 0
-5654 5655 0
-5652 -5654 0
-5653 -5655 0
-5657 23 24 0
-23 5657 0
-24 5657 0
-5658 65 66 0
-65 5658 0
-66 5658 0
-5659 107 108 0
-107 5659 0
-108 5659 0
-5657 5660 0
-5661 0
-5658 5662 0
-5660 5662 0
-5658 -5660 5663 0
-5661 5663 0
-5658 -5661 0
-5659 -5663 0
-5666 24 0
-24 5666 0
-5667 66 0
-66 5667 0
-5668 108 0
-108 5668 0
-5666 5669 0
-5667 5670 0
-5669 5670 0
-5667 -5669 0
-5668 -5670 0
-5672 13 0
-13 5672 0
-5673 55 0
-55 5673 0
-5674 97 0
-97 5674 0
-5675 139 0
-139 5675 0
-5672 5676 0
-5673 5677 0
-5676 5677 0
-5673 -5676 0
-5674 5678 0
-5677 5678 0
-5674 -5677 0
-5675 -5678 0
-5680 13 14 0
-13 5680 0
-14 5680 0
-5681 55 56 0
-55 5681 0
-56 5681 0
-5682 97 98 0
-97 5682 0
-98 5682 0
-5683 139 140 0
-139 5683 0
-140 5683 0
-5680 5684 0
-5685 0
-5681 5686 0
-5684 5686 0
-5681 -5684 5687 0
-5685 5687 0
-5681 -5685 0
-5682 5688 0
-5686 5688 0
-5682 -5686 5689 0
-5687 5689 0
-5682 -5687 0
-5683 -5689 0
-5692 13 14 15 0
-13 5692 0
-14 5692 0
-15 5692 0
-5693 55 56 57 0
-55 5693 0
-56 5693 0
-57 5693 0
-5694 97 98 99 0
-97 5694 0
-98 5694 0
-99 5694 0
-5695 139 140 141 0
-139 5695 0
-140 5695 0
-141 5695 0
-5692 5696 0
-5697 0
-5698 0
-5693 5699 0
-5696 5699 0
-5693 -5696 5700 0
-5697 5700 0
-5693 -5697 5701 0
-5698 5701 0
-5693 -5698 0
-5694 5702 0
-5699 5702 0
-5694 -5699 5703 0
-5700 5703 0
-5694 -5700 5704 0
-5701 5704 0
-5694 -5701 0
-5695 -5704 0
-5708 13 14 15 16 0
-13 5708 0
-14 5708 0
-15 5708 0
-16 5708 0
-5709 55 56 57 58 0
-55 5709 0
-56 5709 0
-57 5709 0
-58 5709 0
-5710 97 98 99 100 0
-97 5710 0
-98 5710 0
-99 5710 0
-100 5710 0
-5711 139 140 141 142 0
-139 5711 0
-140 5711 0
-141 5711 0
-142 5711 0
-5712 14 0
-14 5712 0
-5713 56 0
-56 5713 0
-5714 98 0
-98 5714 0
-5715 140 0
-140 5715 0
-5712 5716 0
-5713 5717 0
-5716 5717 0
-5713 -5716 0
-5714 5718 0
-5717 5718 0
-5714 -5717 0
-5715 -5718 0
-5720 14 15 0
-14 5720 0
-15 5720 0
-5721 56 57 0
-56 5721 0
-57 5721 0
-5722 98 99 0
-98 5722 0
-99 5722 0
-5723 140 141 0
-140 5723 0
-141 5723 0
-5720 5724 0
-5725 0
-5721 5726 0
-5724 5726 0
-5721 -5724 5727 0
-5725 5727 0
-5721 -5725 0
-5722 5728 0
-5726 5728 0
-5722 -5726 5729 0
-5727 5729 0
-5722 -5727 0
-5723 -5729 0
-5732 14 15 16 0
-14 5732 0
-15 5732 0
-16 5732 0
-5733 56 57 58 0
-56 5733 0
-57 5733 0
-58 5733 0
-5734 98 99 100 0
-98 5734 0
-99 5734 0
-100 5734 0
-5735 140 141 142 0
-140 5735 0
-141 5735 0
-142 5735 0
-5732 5736 0
-5737 0
-5738 0
-5733 5739 0
-5736 5739 0
-5733 -5736 5740 0
-5737 5740 0
-5733 -5737 5741 0
-5738 5741 0
-5733 -5738 0
-5734 5742 0
-5739 5742 0
-5734 -5739 5743 0
-5740 5743 0
-5734 -5740 5744 0
-5741 5744 0
-5734 -5741 0
-5735 -5744 0
-5748 14 15 16 17 0
-14 5748 0
-15 5748 0
-16 5748 0
-17 5748 0
-5749 56 57 58 59 0
-56 5749 0
-57 5749 0
-58 5749 0
-59 5749 0
-5750 98 99 100 101 0
-98 5750 0
-99 5750 0
-100 5750 0
-101 5750 0
-5751 140 141 142 143 0
-140 5751 0
-141 5751 0
-142 5751 0
-143 5751 0
-5752 15 0
-15 5752 0
-5753 57 0
-57 5753 0
-5754 99 0
-99 5754 0
-5755 141 0
-141 5755 0
-5752 5756 0
-5753 5757 0
-5756 5757 0
-5753 -5756 0
-5754 5758 0
-5757 5758 0
-5754 -5757 0
-5755 -5758 0
-5760 15 16 0
-15 5760 0
-16 5760 0
-5761 57 58 0
-57 5761 0
-58 5761 0
-5762 99 100 0
-99 5762 0
-100 5762 0
-5763 141 142 0
-141 5763 0
-142 5763 0
-5760 5764 0
-5765 0
-5761 5766 0
-5764 5766 0
-5761 -5764 5767 0
-5765 5767 0
-5761 -5765 0
-5762 5768 0
-5766 5768 0
-5762 -5766 5769 0
-5767 5769 0
-5762 -5767 0
-5763 -5769 0
-5772 15 16 17 0
-15 5772 0
-16 5772 0
-17 5772 0
-5773 57 58 59 0
-57 5773 0
-58 5773 0
-59 5773 0
-5774 99 100 101 0
-99 5774 0
-100 5774 0
-101 5774 0
-5775 141 142 143 0
-141 5775 0
-142 5775 0
-143 5775 0
-5772 5776 0
-5777 0
-5778 0
-5773 5779 0
-5776 5779 0
-5773 -5776 5780 0
-5777 5780 0
-5773 -5777 5781 0
-5778 5781 0
-5773 -5778 0
-5774 5782 0
-5779 5782 0
-5774 -5779 5783 0
-5780 5783 0
-5774 -5780 5784 0
-5781 5784 0
-5774 -5781 0
-5775 -5784 0
-5788 15 16 17 18 0
-15 5788 0
-16 5788 0
-17 5788 0
-18 5788 0
-5789 57 58 59 60 0
-57 5789 0
-58 5789 0
-59 5789 0
-60 5789 0
-5790 99 100 101 102 0
-99 5790 0
-100 5790 0
-101 5790 0
-102 5790 0
-5791 141 142 143 144 0
-141 5791 0
-142 5791 0
-143 5791 0
-144 5791 0
-5792 16 0
-16 5792 0
-5793 58 0
-58 5793 0
-5794 100 0
-100 5794 0
-5795 142 0
-142 5795 0
-5792 5796 0
-5793 5797 0
-5796 5797 0
-5793 -5796 0
-5794 5798 0
-5797 5798 0
-5794 -5797 0
-5795 -5798 0
-5800 16 17 0
-16 5800 0
-17 5800 0
-5801 58 59 0
-58 5801 0
-59 5801 0
-5802 100 101 0
-100 5802 0
-101 5802 0
-5803 142 143 0
-142 5803 0
-143 5803 0
-5800 5804 0
-5805 0
-5801 5806 0
-5804 5806 0
-5801 -5804 5807 0
-5805 5807 0
-5801 -5805 0
-5802 5808 0
-5806 5808 0
-5802 -5806 5809 0
-5807 5809 0
-5802 -5807 0
-5803 -5809 0
-5812 16 17 18 0
-16 5812 0
-17 5812 0
-18 5812 0
-5813 58 59 60 0
-58 5813 0
-59 5813 0
-60 5813 0
-5814 100 101 102 0
-100 5814 0
-101 5814 0
-102 5814 0
-5815 142 143 144 0
-142 5815 0
-143 5815 0
-144 5815 0
-5812 5816 0
-5817 0
-5818 0
-5813 5819 0
-5816 5819 0
-5813 -5816 5820 0
-5817 5820 0
-5813 -5817 5821 0
-5818 5821 0
-5813 -5818 0
-5814 5822 0
-5819 5822 0
-5814 -5819 5823 0
-5820 5823 0
-5814 -5820 5824 0
-5821 5824 0
-5814 -5821 0
-5815 -5824 0
-5828 17 0
-17 5828 0
-5829 59 0
-59 5829 0
-5830 101 0
-101 5830 0
-5831 143 0
-143 5831 0
-5828 5832 0
-5829 5833 0
-5832 5833 0
-5829 -5832 0
-5830 5834 0
-5833 5834 0
-5830 -5833 0
-5831 -5834 0
-5836 17 18 0
-17 5836 0
-18 5836 0
-5837 59 60 0
-59 5837 0
-60 5837 0
-5838 101 102 0
-101 5838 0
-102 5838 0
-5839 143 144 0
-143 5839 0
-144 5839 0
-5836 5840 0
-5841 0
-5837 5842 0
-5840 5842 0
-5837 -5840 5843 0
-5841 5843 0
-5837 -5841 0
-5838 5844 0
-5842 5844 0
-5838 -5842 5845 0
-5843 5845 0
-5838 -5843 0
-5839 -5845 0
-5848 18 0
-18 5848 0
-5849 60 0
-60 5849 0
-5850 102 0
-102 5850 0
-5851 144 0
-144 5851 0
-5848 5852 0
-5849 5853 0
-5852 5853 0
-5849 -5852 0
-5850 5854 0
-5853 5854 0
-5850 -5853 0
-5851 -5854 0
-5856 7 0
-7 5856 0
-5857 49 0
-49 5857 0
-5858 91 0
-91 5858 0
-5859 133 0
-133 5859 0
-5860 175 0
-175 5860 0
-5856 5861 0
-5857 5862 0
-5861 5862 0
-5857 -5861 0
-5858 5863 0
-5862 5863 0
-5858 -5862 0
-5859 5864 0
-5863 5864 0
-5859 -5863 0
-5860 -5864 0
-5866 7 8 0
-7 5866 0
-8 5866 0
-5867 49 50 0
-49 5867 0
-50 5867 0
-5868 91 92 0
-91 5868 0
-92 5868 0
-5869 133 134 0
-133 5869 0
-134 5869 0
-5870 175 176 0
-175 5870 0
-176 5870 0
-5866 5871 0
-5872 0
-5867 5873 0
-5871 5873 0
-5867 -5871 5874 0
-5872 5874 0
-5867 -5872 0
-5868 5875 0
-5873 5875 0
-5868 -5873 5876 0
-5874 5876 0
-5868 -5874 0
-5869 5877 0
-5875 5877 0
-5869 -5875 5878 0
-5876 5878 0
-5869 -5876 0
-5870 -5878 0
-5881 7 8 9 0
-7 5881 0
-8 5881 0
-9 5881 0
-5882 49 50 51 0
-49 5882 0
-50 5882 0
-51 5882 0
-5883 91 92 93 0
-91 5883 0
-92 5883 0
-93 5883 0
-5884 133 134 135 0
-133 5884 0
-134 5884 0
-135 5884 0
-5885 175 176 177 0
-175 5885 0
-176 5885 0
-177 5885 0
-5881 5886 0
-5887 0
-5888 0
-5882 5889 0
-5886 5889 0
-5882 -5886 5890 0
-5887 5890 0
-5882 -5887 5891 0
-5888 5891 0
-5882 -5888 0
-5883 5892 0
-5889 5892 0
-5883 -5889 5893 0
-5890 5893 0
-5883 -5890 5894 0
-5891 5894 0
-5883 -5891 0
-5884 5895 0
-5892 5895 0
-5884 -5892 5896 0
-5893 5896 0
-5884 -5893 5897 0
-5894 5897 0
-5884 -5894 0
-5885 -5897 0
-5901 7 8 9 10 0
-7 5901 0
-8 5901 0
-9 5901 0
-10 5901 0
-5902 49 50 51 52 0
-49 5902 0
-50 5902 0
-51 5902 0
-52 5902 0
-5903 91 92 93 94 0
-91 5903 0
-92 5903 0
-93 5903 0
-94 5903 0
-5904 133 134 135 136 0
-133 5904 0
-134 5904 0
-135 5904 0
-136 5904 0
-5905 175 176 177 178 0
-175 5905 0
-176 5905 0
-177 5905 0
-178 5905 0
-5901 5906 0
-5907 0
-5908 0
-5909 0
-5902 5910 0
-5906 5910 0
-5902 -5906 5911 0
-5907 5911 0
-5902 -5907 5912 0
-5908 5912 0
-5902 -5908 5913 0
-5909 5913 0
-5902 -5909 0
-5903 5914 0
-5910 5914 0
-5903 -5910 5915 0
-5911 5915 0
-5903 -5911 5916 0
-5912 5916 0
-5903 -5912 5917 0
-5913 5917 0
-5903 -5913 0
-5904 5918 0
-5914 5918 0
-5904 -5914 5919 0
-5915 5919 0
-5904 -5915 5920 0
-5916 5920 0
-5904 -5916 5921 0
-5917 5921 0
-5904 -5917 0
-5905 -5921 0
-5926 7 8 9 10 11 0
-7 5926 0
-8 5926 0
-9 5926 0
-10 5926 0
-11 5926 0
-5927 49 50 51 52 53 0
-49 5927 0
-50 5927 0
-51 5927 0
-52 5927 0
-53 5927 0
-5928 91 92 93 94 95 0
-91 5928 0
-92 5928 0
-93 5928 0
-94 5928 0
-95 5928 0
-5929 133 134 135 136 137 0
-133 5929 0
-134 5929 0
-135 5929 0
-136 5929 0
-137 5929 0
-5930 175 176 177 178 179 0
-175 5930 0
-176 5930 0
-177 5930 0
-178 5930 0
-179 5930 0
-5931 8 0
-8 5931 0
-5932 50 0
-50 5932 0
-5933 92 0
-92 5933 0
-5934 134 0
-134 5934 0
-5935 176 0
-176 5935 0
-5931 5936 0
-5932 5937 0
-5936 5937 0
-5932 -5936 0
-5933 5938 0
-5937 5938 0
-5933 -5937 0
-5934 5939 0
-5938 5939 0
-5934 -5938 0
-5935 -5939 0
-5941 8 9 0
-8 5941 0
-9 5941 0
-5942 50 51 0
-50 5942 0
-51 5942 0
-5943 92 93 0
-92 5943 0
-93 5943 0
-5944 134 135 0
-134 5944 0
-135 5944 0
-5945 176 177 0
-176 5945 0
-177 5945 0
-5941 5946 0
-5947 0
-5942 5948 0
-5946 5948 0
-5942 -5946 5949 0
-5947 5949 0
-5942 -5947 0
-5943 5950 0
-5948 5950 0
-5943 -5948 5951 0
-5949 5951 0
-5943 -5949 0
-5944 5952 0
-5950 5952 0
-5944 -5950 5953 0
-5951 5953 0
-5944 -5951 0
-5945 -5953 0
-5956 8 9 10 0
-8 5956 0
-9 5956 0
-10 5956 0
-5957 50 51 52 0
-50 5957 0
-51 5957 0
-52 5957 0
-5958 92 93 94 0
-92 5958 0
-93 5958 0
-94 5958 0
-5959 134 135 136 0
-134 5959 0
-135 5959 0
-136 5959 0
-5960 176 177 178 0
-176 5960 0
-177 5960 0
-178 5960 0
-5956 5961 0
-5962 0
-5963 0
-5957 5964 0
-5961 5964 0
-5957 -5961 5965 0
-5962 5965 0
-5957 -5962 5966 0
-5963 5966 0
-5957 -5963 0
-5958 5967 0
-5964 5967 0
-5958 -5964 5968 0
-5965 5968 0
-5958 -5965 5969 0
-5966 5969 0
-5958 -5966 0
-5959 5970 0
-5967 5970 0
-5959 -5967 5971 0
-5968 5971 0
-5959 -5968 5972 0
-5969 5972 0
-5959 -5969 0
-5960 -5972 0
-5976 8 9 10 11 0
-8 5976 0
-9 5976 0
-10 5976 0
-11 5976 0
-5977 50 51 52 53 0
-50 5977 0
-51 5977 0
-52 5977 0
-53 5977 0
-5978 92 93 94 95 0
-92 5978 0
-93 5978 0
-94 5978 0
-95 5978 0
-5979 134 135 136 137 0
-134 5979 0
-135 5979 0
-136 5979 0
-137 5979 0
-5980 176 177 178 179 0
-176 5980 0
-177 5980 0
-178 5980 0
-179 5980 0
-5976 5981 0
-5982 0
-5983 0
-5984 0
-5977 5985 0
-5981 5985 0
-5977 -5981 5986 0
-5982 5986 0
-5977 -5982 5987 0
-5983 5987 0
-5977 -5983 5988 0
-5984 5988 0
-5977 -5984 0
-5978 5989 0
-5985 5989 0
-5978 -5985 5990 0
-5986 5990 0
-5978 -5986 5991 0
-5987 5991 0
-5978 -5987 5992 0
-5988 5992 0
-5978 -5988 0
-5979 5993 0
-5989 5993 0
-5979 -5989 5994 0
-5990 5994 0
-5979 -5990 5995 0
-5991 5995 0
-5979 -5991 5996 0
-5992 5996 0
-5979 -5992 0
-5980 -5996 0
-6001 8 9 10 11 12 0
-8 6001 0
-9 6001 0
-10 6001 0
-11 6001 0
-12 6001 0
-6002 50 51 52 53 54 0
-50 6002 0
-51 6002 0
-52 6002 0
-53 6002 0
-54 6002 0
-6003 92 93 94 95 96 0
-92 6003 0
-93 6003 0
-94 6003 0
-95 6003 0
-96 6003 0
-6004 134 135 136 137 138 0
-134 6004 0
-135 6004 0
-136 6004 0
-137 6004 0
-138 6004 0
-6005 176 177 178 179 180 0
-176 6005 0
-177 6005 0
-178 6005 0
-179 6005 0
-180 6005 0
-6006 9 0
-9 6006 0
-6007 51 0
-51 6007 0
-6008 93 0
-93 6008 0
-6009 135 0
-135 6009 0
-6010 177 0
-177 6010 0
-6006 6011 0
-6007 6012 0
-6011 6012 0
-6007 -6011 0
-6008 6013 0
-6012 6013 0
-6008 -6012 0
-6009 6014 0
-6013 6014 0
-6009 -6013 0
-6010 -6014 0
-6016 9 10 0
-9 6016 0
-10 6016 0
-6017 51 52 0
-51 6017 0
-52 6017 0
-6018 93 94 0
-93 6018 0
-94 6018 0
-6019 135 136 0
-135 6019 0
-136 6019 0
-6020 177 178 0
-177 6020 0
-178 6020 0
-6016 6021 0
-6022 0
-6017 6023 0
-6021 6023 0
-6017 -6021 6024 0
-6022 6024 0
-6017 -6022 0
-6018 6025 0
-6023 6025 0
-6018 -6023 6026 0
-6024 6026 0
-6018 -6024 0
-6019 6027 0
-6025 6027 0
-6019 -6025 6028 0
-6026 6028 0
-6019 -6026 0
-6020 -6028 0
-6031 9 10 11 0
-9 6031 0
-10 6031 0
-11 6031 0
-6032 51 52 53 0
-51 6032 0
-52 6032 0
-53 6032 0
-6033 93 94 95 0
-93 6033 0
-94 6033 0
-95 6033 0
-6034 135 136 137 0
-135 6034 0
-136 6034 0
-137 6034 0
-6035 177 178 179 0
-177 6035 0
-178 6035 0
-179 6035 0
-6031 6036 0
-6037 0
-6038 0
-6032 6039 0
-6036 6039 0
-6032 -6036 6040 0
-6037 6040 0
-6032 -6037 6041 0
-6038 6041 0
-6032 -6038 0
-6033 6042 0
-6039 6042 0
-6033 -6039 6043 0
-6040 6043 0
-6033 -6040 6044 0
-6041 6044 0
-6033 -6041 0
-6034 6045 0
-6042 6045 0
-6034 -6042 6046 0
-6043 6046 0
-6034 -6043 6047 0
-6044 6047 0
-6034 -6044 0
-6035 -6047 0
-6051 9 10 11 12 0
-9 6051 0
-10 6051 0
-11 6051 0
-12 6051 0
-6052 51 52 53 54 0
-51 6052 0
-52 6052 0
-53 6052 0
-54 6052 0
-6053 93 94 95 96 0
-93 6053 0
-94 6053 0
-95 6053 0
-96 6053 0
-6054 135 136 137 138 0
-135 6054 0
-136 6054 0
-137 6054 0
-138 6054 0
-6055 177 178 179 180 0
-177 6055 0
-178 6055 0
-179 6055 0
-180 6055 0
-6051 6056 0
-6057 0
-6058 0
-6059 0
-6052 6060 0
-6056 6060 0
-6052 -6056 6061 0
-6057 6061 0
-6052 -6057 6062 0
-6058 6062 0
-6052 -6058 6063 0
-6059 6063 0
-6052 -6059 0
-6053 6064 0
-6060 6064 0
-6053 -6060 6065 0
-6061 6065 0
-6053 -6061 6066 0
-6062 6066 0
-6053 -6062 6067 0
-6063 6067 0
-6053 -6063 0
-6054 6068 0
-6064 6068 0
-6054 -6064 6069 0
-6065 6069 0
-6054 -6065 6070 0
-6066 6070 0
-6054 -6066 6071 0
-6067 6071 0
-6054 -6067 0
-6055 -6071 0
-6076 10 0
-10 6076 0
-6077 52 0
-52 6077 0
-6078 94 0
-94 6078 0
-6079 136 0
-136 6079 0
-6080 178 0
-178 6080 0
-6076 6081 0
-6077 6082 0
-6081 6082 0
-6077 -6081 0
-6078 6083 0
-6082 6083 0
-6078 -6082 0
-6079 6084 0
-6083 6084 0
-6079 -6083 0
-6080 -6084 0
-6086 10 11 0
-10 6086 0
-11 6086 0
-6087 52 53 0
-52 6087 0
-53 6087 0
-6088 94 95 0
-94 6088 0
-95 6088 0
-6089 136 137 0
-136 6089 0
-137 6089 0
-6090 178 179 0
-178 6090 0
-179 6090 0
-6086 6091 0
-6092 0
-6087 6093 0
-6091 6093 0
-6087 -6091 6094 0
-6092 6094 0
-6087 -6092 0
-6088 6095 0
-6093 6095 0
-6088 -6093 6096 0
-6094 6096 0
-6088 -6094 0
-6089 6097 0
-6095 6097 0
-6089 -6095 6098 0
-6096 6098 0
-6089 -6096 0
-6090 -6098 0
-6101 10 11 12 0
-10 6101 0
-11 6101 0
-12 6101 0
-6102 52 53 54 0
-52 6102 0
-53 6102 0
-54 6102 0
-6103 94 95 96 0
-94 6103 0
-95 6103 0
-96 6103 0
-6104 136 137 138 0
-136 6104 0
-137 6104 0
-138 6104 0
-6105 178 179 180 0
-178 6105 0
-179 6105 0
-180 6105 0
-6101 6106 0
-6107 0
-6108 0
-6102 6109 0
-6106 6109 0
-6102 -6106 6110 0
-6107 6110 0
-6102 -6107 6111 0
-6108 6111 0
-6102 -6108 0
-6103 6112 0
-6109 6112 0
-6103 -6109 6113 0
-6110 6113 0
-6103 -6110 6114 0
-6111 6114 0
-6103 -6111 0
-6104 6115 0
-6112 6115 0
-6104 -6112 6116 0
-6113 6116 0
-6104 -6113 6117 0
-6114 6117 0
-6104 -6114 0
-6105 -6117 0
-6121 11 0
-11 6121 0
-6122 53 0
-53 6122 0
-6123 95 0
-95 6123 0
-6124 137 0
-137 6124 0
-6125 179 0
-179 6125 0
-6121 6126 0
-6122 6127 0
-6126 6127 0
-6122 -6126 0
-6123 6128 0
-6127 6128 0
-6123 -6127 0
-6124 6129 0
-6128 6129 0
-6124 -6128 0
-6125 -6129 0
-6131 11 12 0
-11 6131 0
-12 6131 0
-6132 53 54 0
-53 6132 0
-54 6132 0
-6133 95 96 0
-95 6133 0
-96 6133 0
-6134 137 138 0
-137 6134 0
-138 6134 0
-6135 179 180 0
-179 6135 0
-180 6135 0
-6131 6136 0
-6137 0
-6132 6138 0
-6136 6138 0
-6132 -6136 6139 0
-6137 6139 0
-6132 -6137 0
-6133 6140 0
-6138 6140 0
-6133 -6138 6141 0
-6139 6141 0
-6133 -6139 0
-6134 6142 0
-6140 6142 0
-6134 -6140 6143 0
-6141 6143 0
-6134 -6141 0
-6135 -6143 0
-6146 12 0
-12 6146 0
-6147 54 0
-54 6147 0
-6148 96 0
-96 6148 0
-6149 138 0
-138 6149 0
-6150 180 0
-180 6150 0
-6146 6151 0
-6147 6152 0
-6151 6152 0
-6147 -6151 0
-6148 6153 0
-6152 6153 0
-6148 -6152 0
-6149 6154 0
-6153 6154 0
-6149 -6153 0
-6150 -6154 0
-6156 1 0
-1 6156 0
-6157 43 0
-43 6157 0
-6158 85 0
-85 6158 0
-6159 127 0
-127 6159 0
-6160 169 0
-169 6160 0
-6161 211 0
-211 6161 0
-6156 6162 0
-6157 6163 0
-6162 6163 0
-6157 -6162 0
-6158 6164 0
-6163 6164 0
-6158 -6163 0
-6159 6165 0
-6164 6165 0
-6159 -6164 0
-6160 6166 0
-6165 6166 0
-6160 -6165 0
-6161 -6166 0
-6168 1 2 0
-1 6168 0
-2 6168 0
-6169 43 44 0
-43 6169 0
-44 6169 0
-6170 85 86 0
-85 6170 0
-86 6170 0
-6171 127 128 0
-127 6171 0
-128 6171 0
-6172 169 170 0
-169 6172 0
-170 6172 0
-6173 211 212 0
-211 6173 0
-212 6173 0
-6168 6174 0
-6175 0
-6169 6176 0
-6174 6176 0
-6169 -6174 6177 0
-6175 6177 0
-6169 -6175 0
-6170 6178 0
-6176 6178 0
-6170 -6176 6179 0
-6177 6179 0
-6170 -6177 0
-6171 6180 0
-6178 6180 0
-6171 -6178 6181 0
-6179 6181 0
-6171 -6179 0
-6172 6182 0
-6180 6182 0
-6172 -6180 6183 0
-6181 6183 0
-6172 -6181 0
-6173 -6183 0
-6186 1 2 3 0
-1 6186 0
-2 6186 0
-3 6186 0
-6187 43 44 45 0
-43 6187 0
-44 6187 0
-45 6187 0
-6188 85 86 87 0
-85 6188 0
-86 6188 0
-87 6188 0
-6189 127 128 129 0
-127 6189 0
-128 6189 0
-129 6189 0
-6190 169 170 171 0
-169 6190 0
-170 6190 0
-171 6190 0
-6191 211 212 213 0
-211 6191 0
-212 6191 0
-213 6191 0
-6186 6192 0
-6193 0
-6194 0
-6187 6195 0
-6192 6195 0
-6187 -6192 6196 0
-6193 6196 0
-6187 -6193 6197 0
-6194 6197 0
-6187 -6194 0
-6188 6198 0
-6195 6198 0
-6188 -6195 6199 0
-6196 6199 0
-6188 -6196 6200 0
-6197 6200 0
-6188 -6197 0
-6189 6201 0
-6198 6201 0
-6189 -6198 6202 0
-6199 6202 0
-6189 -6199 6203 0
-6200 6203 0
-6189 -6200 0
-6190 6204 0
-6201 6204 0
-6190 -6201 6205 0
-6202 6205 0
-6190 -6202 6206 0
-6203 6206 0
-6190 -6203 0
-6191 -6206 0
-6210 1 2 3 4 0
-1 6210 0
-2 6210 0
-3 6210 0
-4 6210 0
-6211 43 44 45 46 0
-43 6211 0
-44 6211 0
-45 6211 0
-46 6211 0
-6212 85 86 87 88 0
-85 6212 0
-86 6212 0
-87 6212 0
-88 6212 0
-6213 127 128 129 130 0
-127 6213 0
-128 6213 0
-129 6213 0
-130 6213 0
-6214 169 170 171 172 0
-169 6214 0
-170 6214 0
-171 6214 0
-172 6214 0
-6215 211 212 213 214 0
-211 6215 0
-212 6215 0
-213 6215 0
-214 6215 0
-6210 6216 0
-6217 0
-6218 0
-6219 0
-6211 6220 0
-6216 6220 0
-6211 -6216 6221 0
-6217 6221 0
-6211 -6217 6222 0
-6218 6222 0
-6211 -6218 6223 0
-6219 6223 0
-6211 -6219 0
-6212 6224 0
-6220 6224 0
-6212 -6220 6225 0
-6221 6225 0
-6212 -6221 6226 0
-6222 6226 0
-6212 -6222 6227 0
-6223 6227 0
-6212 -6223 0
-6213 6228 0
-6224 6228 0
-6213 -6224 6229 0
-6225 6229 0
-6213 -6225 6230 0
-6226 6230 0
-6213 -6226 6231 0
-6227 6231 0
-6213 -6227 0
-6214 6232 0
-6228 6232 0
-6214 -6228 6233 0
-6229 6233 0
-6214 -6229 6234 0
-6230 6234 0
-6214 -6230 6235 0
-6231 6235 0
-6214 -6231 0
-6215 -6235 0
-6240 1 2 3 4 5 0
-1 6240 0
-2 6240 0
-3 6240 0
-4 6240 0
-5 6240 0
-6241 43 44 45 46 47 0
-43 6241 0
-44 6241 0
-45 6241 0
-46 6241 0
-47 6241 0
-6242 85 86 87 88 89 0
-85 6242 0
-86 6242 0
-87 6242 0
-88 6242 0
-89 6242 0
-6243 127 128 129 130 131 0
-127 6243 0
-128 6243 0
-129 6243 0
-130 6243 0
-131 6243 0
-6244 169 170 171 172 173 0
-169 6244 0
-170 6244 0
-171 6244 0
-172 6244 0
-173 6244 0
-6245 211 212 213 214 215 0
-211 6245 0
-212 6245 0
-213 6245 0
-214 6245 0
-215 6245 0
-6240 6246 0
-6247 0
-6248 0
-6249 0
-6250 0
-6241 6251 0
-6246 6251 0
-6241 -6246 6252 0
-6247 6252 0
-6241 -6247 6253 0
-6248 6253 0
-6241 -6248 6254 0
-6249 6254 0
-6241 -6249 6255 0
-6250 6255 0
-6241 -6250 0
-6242 6256 0
-6251 6256 0
-6242 -6251 6257 0
-6252 6257 0
-6242 -6252 6258 0
-6253 6258 0
-6242 -6253 6259 0
-6254 6259 0
-6242 -6254 6260 0
-6255 6260 0
-6242 -6255 0
-6243 6261 0
-6256 6261 0
-6243 -6256 6262 0
-6257 6262 0
-6243 -6257 6263 0
-6258 6263 0
-6243 -6258 6264 0
-6259 6264 0
-6243 -6259 6265 0
-6260 6265 0
-6243 -6260 0
-6244 6266 0
-6261 6266 0
-6244 -6261 6267 0
-6262 6267 0
-6244 -6262 6268 0
-6263 6268 0
-6244 -6263 6269 0
-6264 6269 0
-6244 -6264 6270 0
-6265 6270 0
-6244 -6265 0
-6245 -6270 0
-6276 1 2 3 4 5 6 0
-1 6276 0
-2 6276 0
-3 6276 0
-4 6276 0
-5 6276 0
-6 6276 0
-6277 43 44 45 46 47 48 0
-43 6277 0
-44 6277 0
-45 6277 0
-46 6277 0
-47 6277 0
-48 6277 0
-6278 85 86 87 88 89 90 0
-85 6278 0
-86 6278 0
-87 6278 0
-88 6278 0
-89 6278 0
-90 6278 0
-6279 127 128 129 130 131 132 0
-127 6279 0
-128 6279 0
-129 6279 0
-130 6279 0
-131 6279 0
-132 6279 0
-6280 169 170 171 172 173 174 0
-169 6280 0
-170 6280 0
-171 6280 0
-172 6280 0
-173 6280 0
-174 6280 0
-6281 211 212 213 214 215 216 0
-211 6281 0
-212 6281 0
-213 6281 0
-214 6281 0
-215 6281 0
-216 6281 0
-6282 2 0
-2 6282 0
-6283 44 0
-44 6283 0
-6284 86 0
-86 6284 0
-6285 128 0
-128 6285 0
-6286 170 0
-170 6286 0
-6287 212 0
-212 6287 0
-6282 6288 0
-6283 6289 0
-6288 6289 0
-6283 -6288 0
-6284 6290 0
-6289 6290 0
-6284 -6289 0
-6285 6291 0
-6290 6291 0
-6285 -6290 0
-6286 6292 0
-6291 6292 0
-6286 -6291 0
-6287 -6292 0
-6294 2 3 0
-2 6294 0
-3 6294 0
-6295 44 45 0
-44 6295 0
-45 6295 0
-6296 86 87 0
-86 6296 0
-87 6296 0
-6297 128 129 0
-128 6297 0
-129 6297 0
-6298 170 171 0
-170 6298 0
-171 6298 0
-6299 212 213 0
-212 6299 0
-213 6299 0
-6294 6300 0
-6301 0
-6295 6302 0
-6300 6302 0
-6295 -6300 6303 0
-6301 6303 0
-6295 -6301 0
-6296 6304 0
-6302 6304 0
-6296 -6302 6305 0
-6303 6305 0
-6296 -6303 0
-6297 6306 0
-6304 6306 0
-6297 -6304 6307 0
-6305 6307 0
-6297 -6305 0
-6298 6308 0
-6306 6308 0
-6298 -6306 6309 0
-6307 6309 0
-6298 -6307 0
-6299 -6309 0
-6312 2 3 4 0
-2 6312 0
-3 6312 0
-4 6312 0
-6313 44 45 46 0
-44 6313 0
-45 6313 0
-46 6313 0
-6314 86 87 88 0
-86 6314 0
-87 6314 0
-88 6314 0
-6315 128 129 130 0
-128 6315 0
-129 6315 0
-130 6315 0
-6316 170 171 172 0
-170 6316 0
-171 6316 0
-172 6316 0
-6317 212 213 214 0
-212 6317 0
-213 6317 0
-214 6317 0
-6312 6318 0
-6319 0
-6320 0
-6313 6321 0
-6318 6321 0
-6313 -6318 6322 0
-6319 6322 0
-6313 -6319 6323 0
-6320 6323 0
-6313 -6320 0
-6314 6324 0
-6321 6324 0
-6314 -6321 6325 0
-6322 6325 0
-6314 -6322 6326 0
-6323 6326 0
-6314 -6323 0
-6315 6327 0
-6324 6327 0
-6315 -6324 6328 0
-6325 6328 0
-6315 -6325 6329 0
-6326 6329 0
-6315 -6326 0
-6316 6330 0
-6327 6330 0
-6316 -6327 6331 0
-6328 6331 0
-6316 -6328 6332 0
-6329 6332 0
-6316 -6329 0
-6317 -6332 0
-6336 2 3 4 5 0
-2 6336 0
-3 6336 0
-4 6336 0
-5 6336 0
-6337 44 45 46 47 0
-44 6337 0
-45 6337 0
-46 6337 0
-47 6337 0
-6338 86 87 88 89 0
-86 6338 0
-87 6338 0
-88 6338 0
-89 6338 0
-6339 128 129 130 131 0
-128 6339 0
-129 6339 0
-130 6339 0
-131 6339 0
-6340 170 171 172 173 0
-170 6340 0
-171 6340 0
-172 6340 0
-173 6340 0
-6341 212 213 214 215 0
-212 6341 0
-213 6341 0
-214 6341 0
-215 6341 0
-6336 6342 0
-6343 0
-6344 0
-6345 0
-6337 6346 0
-6342 6346 0
-6337 -6342 6347 0
-6343 6347 0
-6337 -6343 6348 0
-6344 6348 0
-6337 -6344 6349 0
-6345 6349 0
-6337 -6345 0
-6338 6350 0
-6346 6350 0
-6338 -6346 6351 0
-6347 6351 0
-6338 -6347 6352 0
-6348 6352 0
-6338 -6348 6353 0
-6349 6353 0
-6338 -6349 0
-6339 6354 0
-6350 6354 0
-6339 -6350 6355 0
-6351 6355 0
-6339 -6351 6356 0
-6352 6356 0
-6339 -6352 6357 0
-6353 6357 0
-6339 -6353 0
-6340 6358 0
-6354 6358 0
-6340 -6354 6359 0
-6355 6359 0
-6340 -6355 6360 0
-6356 6360 0
-6340 -6356 6361 0
-6357 6361 0
-6340 -6357 0
-6341 -6361 0
-6366 2 3 4 5 6 0
-2 6366 0
-3 6366 0
-4 6366 0
-5 6366 0
-6 6366 0
-6367 44 45 46 47 48 0
-44 6367 0
-45 6367 0
-46 6367 0
-47 6367 0
-48 6367 0
-6368 86 87 88 89 90 0
-86 6368 0
-87 6368 0
-88 6368 0
-89 6368 0
-90 6368 0
-6369 128 129 130 131 132 0
-128 6369 0
-129 6369 0
-130 6369 0
-131 6369 0
-132 6369 0
-6370 170 171 172 173 174 0
-170 6370 0
-171 6370 0
-172 6370 0
-173 6370 0
-174 6370 0
-6371 212 213 214 215 216 0
-212 6371 0
-213 6371 0
-214 6371 0
-215 6371 0
-216 6371 0
-6366 6372 0
-6373 0
-6374 0
-6375 0
-6376 0
-6367 6377 0
-6372 6377 0
-6367 -6372 6378 0
-6373 6378 0
-6367 -6373 6379 0
-6374 6379 0
-6367 -6374 6380 0
-6375 6380 0
-6367 -6375 6381 0
-6376 6381 0
-6367 -6376 0
-6368 6382 0
-6377 6382 0
-6368 -6377 6383 0
-6378 6383 0
-6368 -6378 6384 0
-6379 6384 0
-6368 -6379 6385 0
-6380 6385 0
-6368 -6380 6386 0
-6381 6386 0
-6368 -6381 0
-6369 6387 0
-6382 6387 0
-6369 -6382 6388 0
-6383 6388 0
-6369 -6383 6389 0
-6384 6389 0
-6369 -6384 6390 0
-6385 6390 0
-6369 -6385 6391 0
-6386 6391 0
-6369 -6386 0
-6370 6392 0
-6387 6392 0
-6370 -6387 6393 0
-6388 6393 0
-6370 -6388 6394 0
-6389 6394 0
-6370 -6389 6395 0
-6390 6395 0
-6370 -6390 6396 0
-6391 6396 0
-6370 -6391 0
-6371 -6396 0
-6402 3 0
-3 6402 0
-6403 45 0
-45 6403 0
-6404 87 0
-87 6404 0
-6405 129 0
-129 6405 0
-6406 171 0
-171 6406 0
-6407 213 0
-213 6407 0
-6402 6408 0
-6403 6409 0
-6408 6409 0
-6403 -6408 0
-6404 6410 0
-6409 6410 0
-6404 -6409 0
-6405 6411 0
-6410 6411 0
-6405 -6410 0
-6406 6412 0
-6411 6412 0
-6406 -6411 0
-6407 -6412 0
-6414 3 4 0
-3 6414 0
-4 6414 0
-6415 45 46 0
-45 6415 0
-46 6415 0
-6416 87 88 0
-87 6416 0
-88 6416 0
-6417 129 130 0
-129 6417 0
-130 6417 0
-6418 171 172 0
-171 6418 0
-172 6418 0
-6419 213 214 0
-213 6419 0
-214 6419 0
-6414 6420 0
-6421 0
-6415 6422 0
-6420 6422 0
-6415 -6420 6423 0
-6421 6423 0
-6415 -6421 0
-6416 6424 0
-6422 6424 0
-6416 -6422 6425 0
-6423 6425 0
-6416 -6423 0
-6417 6426 0
-6424 6426 0
-6417 -6424 6427 0
-6425 6427 0
-6417 -6425 0
-6418 6428 0
-6426 6428 0
-6418 -6426 6429 0
-6427 6429 0
-6418 -6427 0
-6419 -6429 0
-6432 3 4 5 0
-3 6432 0
-4 6432 0
-5 6432 0
-6433 45 46 47 0
-45 6433 0
-46 6433 0
-47 6433 0
-6434 87 88 89 0
-87 6434 0
-88 6434 0
-89 6434 0
-6435 129 130 131 0
-129 6435 0
-130 6435 0
-131 6435 0
-6436 171 172 173 0
-171 6436 0
-172 6436 0
-173 6436 0
-6437 213 214 215 0
-213 6437 0
-214 6437 0
-215 6437 0
-6432 6438 0
-6439 0
-6440 0
-6433 6441 0
-6438 6441 0
-6433 -6438 6442 0
-6439 6442 0
-6433 -6439 6443 0
-6440 6443 0
-6433 -6440 0
-6434 6444 0
-6441 6444 0
-6434 -6441 6445 0
-6442 6445 0
-6434 -6442 6446 0
-6443 6446 0
-6434 -6443 0
-6435 6447 0
-6444 6447 0
-6435 -6444 6448 0
-6445 6448 0
-6435 -6445 6449 0
-6446 6449 0
-6435 -6446 0
-6436 6450 0
-6447 6450 0
-6436 -6447 6451 0
-6448 6451 0
-6436 -6448 6452 0
-6449 6452 0
-6436 -6449 0
-6437 -6452 0
-6456 3 4 5 6 0
-3 6456 0
-4 6456 0
-5 6456 0
-6 6456 0
-6457 45 46 47 48 0
-45 6457 0
-46 6457 0
-47 6457 0
-48 6457 0
-6458 87 88 89 90 0
-87 6458 0
-88 6458 0
-89 6458 0
-90 6458 0
-6459 129 130 131 132 0
-129 6459 0
-130 6459 0
-131 6459 0
-132 6459 0
-6460 171 172 173 174 0
-171 6460 0
-172 6460 0
-173 6460 0
-174 6460 0
-6461 213 214 215 216 0
-213 6461 0
-214 6461 0
-215 6461 0
-216 6461 0
-6456 6462 0
-6463 0
-6464 0
-6465 0
-6457 6466 0
-6462 6466 0
-6457 -6462 6467 0
-6463 6467 0
-6457 -6463 6468 0
-6464 6468 0
-6457 -6464 6469 0
-6465 6469 0
-6457 -6465 0
-6458 6470 0
-6466 6470 0
-6458 -6466 6471 0
-6467 6471 0
-6458 -6467 6472 0
-6468 6472 0
-6458 -6468 6473 0
-6469 6473 0
-6458 -6469 0
-6459 6474 0
-6470 6474 0
-6459 -6470 6475 0
-6471 6475 0
-6459 -6471 6476 0
-6472 6476 0
-6459 -6472 6477 0
-6473 6477 0
-6459 -6473 0
-6460 6478 0
-6474 6478 0
-6460 -6474 6479 0
-6475 6479 0
-6460 -6475 6480 0
-6476 6480 0
-6460 -6476 6481 0
-6477 6481 0
-6460 -6477 0
-6461 -6481 0
-6486 4 0
-4 6486 0
-6487 46 0
-46 6487 0
-6488 88 0
-88 6488 0
-6489 130 0
-130 6489 0
-6490 172 0
-172 6490 0
-6491 214 0
-214 6491 0
-6486 6492 0
-6487 6493 0
-6492 6493 0
-6487 -6492 0
-6488 6494 0
-6493 6494 0
-6488 -6493 0
-6489 6495 0
-6494 6495 0
-6489 -6494 0
-6490 6496 0
-6495 6496 0
-6490 -6495 0
-6491 -6496 0
-6498 4 5 0
-4 6498 0
-5 6498 0
-6499 46 47 0
-46 6499 0
-47 6499 0
-6500 88 89 0
-88 6500 0
-89 6500 0
-6501 130 131 0
-130 6501 0
-131 6501 0
-6502 172 173 0
-172 6502 0
-173 6502 0
-6503 214 215 0
-214 6503 0
-215 6503 0
-6498 6504 0
-6505 0
-6499 6506 0
-6504 6506 0
-6499 -6504 6507 0
-6505 6507 0
-6499 -6505 0
-6500 6508 0
-6506 6508 0
-6500 -6506 6509 0
-6507 6509 0
-6500 -6507 0
-6501 6510 0
-6508 6510 0
-6501 -6508 6511 0
-6509 6511 0
-6501 -6509 0
-6502 6512 0
-6510 6512 0
-6502 -6510 6513 0
-6511 6513 0
-6502 -6511 0
-6503 -6513 0
-6516 4 5 6 0
-4 6516 0
-5 6516 0
-6 6516 0
-6517 46 47 48 0
-46 6517 0
-47 6517 0
-48 6517 0
-6518 88 89 90 0
-88 6518 0
-89 6518 0
-90 6518 0
-6519 130 131 132 0
-130 6519 0
-131 6519 0
-132 6519 0
-6520 172 173 174 0
-172 6520 0
-173 6520 0
-174 6520 0
-6521 214 215 216 0
-214 6521 0
-215 6521 0
-216 6521 0
-6516 6522 0
-6523 0
-6524 0
-6517 6525 0
-6522 6525 0
-6517 -6522 6526 0
-6523 6526 0
-6517 -6523 6527 0
-6524 6527 0
-6517 -6524 0
-6518 6528 0
-6525 6528 0
-6518 -6525 6529 0
-6526 6529 0
-6518 -6526 6530 0
-6527 6530 0
-6518 -6527 0
-6519 6531 0
-6528 6531 0
-6519 -6528 6532 0
-6529 6532 0
-6519 -6529 6533 0
-6530 6533 0
-6519 -6530 0
-6520 6534 0
-6531 6534 0
-6520 -6531 6535 0
-6532 6535 0
-6520 -6532 6536 0
-6533 6536 0
-6520 -6533 0
-6521 -6536 0
-6540 5 0
-5 6540 0
-6541 47 0
-47 6541 0
-6542 89 0
-89 6542 0
-6543 131 0
-131 6543 0
-6544 173 0
-173 6544 0
-6545 215 0
-215 6545 0
-6540 6546 0
-6541 6547 0
-6546 6547 0
-6541 -6546 0
-6542 6548 0
-6547 6548 0
-6542 -6547 0
-6543 6549 0
-6548 6549 0
-6543 -6548 0
-6544 6550 0
-6549 6550 0
-6544 -6549 0
-6545 -6550 0
-6552 5 6 0
-5 6552 0
-6 6552 0
-6553 47 48 0
-47 6553 0
-48 6553 0
-6554 89 90 0
-89 6554 0
-90 6554 0
-6555 131 132 0
-131 6555 0
-132 6555 0
-6556 173 174 0
-173 6556 0
-174 6556 0
-6557 215 216 0
-215 6557 0
-216 6557 0
-6552 6558 0
-6559 0
-6553 6560 0
-6558 6560 0
-6553 -6558 6561 0
-6559 6561 0
-6553 -6559 0
-6554 6562 0
-6560 6562 0
-6554 -6560 6563 0
-6561 6563 0
-6554 -6561 0
-6555 6564 0
-6562 6564 0
-6555 -6562 6565 0
-6563 6565 0
-6555 -6563 0
-6556 6566 0
-6564 6566 0
-6556 -6564 6567 0
-6565 6567 0
-6556 -6565 0
-6557 -6567 0
-6570 6 0
-6 6570 0
-6571 48 0
-48 6571 0
-6572 90 0
-90 6572 0
-6573 132 0
-132 6573 0
-6574 174 0
-174 6574 0
-6575 216 0
-216 6575 0
-6570 6576 0
-6571 6577 0
-6576 6577 0
-6571 -6576 0
-6572 6578 0
-6577 6578 0
-6572 -6577 0
-6573 6579 0
-6578 6579 0
-6573 -6578 0
-6574 6580 0
-6579 6580 0
-6574 -6579 0
-6575 -6580 0
-6582 37 0
-37 6582 0
-6583 79 0
-79 6583 0
-6584 121 0
-121 6584 0
-6585 163 0
-163 6585 0
-6586 205 0
-205 6586 0
-6582 6587 0
-6583 6588 0
-6587 6588 0
-6583 -6587 0
-6584 6589 0
-6588 6589 0
-6584 -6588 0
-6585 6590 0
-6589 6590 0
-6585 -6589 0
-6586 -6590 0
-6592 37 38 0
-37 6592 0
-38 6592 0
-6593 79 80 0
-79 6593 0
-80 6593 0
-6594 121 122 0
-121 6594 0
-122 6594 0
-6595 163 164 0
-163 6595 0
-164 6595 0
-6596 205 206 0
-205 6596 0
-206 6596 0
-6592 6597 0
-6598 0
-6593 6599 0
-6597 6599 0
-6593 -6597 6600 0
-6598 6600 0
-6593 -6598 0
-6594 6601 0
-6599 6601 0
-6594 -6599 6602 0
-6600 6602 0
-6594 -6600 0
-6595 6603 0
-6601 6603 0
-6595 -6601 6604 0
-6602 6604 0
-6595 -6602 0
-6596 -6604 0
-6607 37 38 39 0
-37 6607 0
-38 6607 0
-39 6607 0
-6608 79 80 81 0
-79 6608 0
-80 6608 0
-81 6608 0
-6609 121 122 123 0
-121 6609 0
-122 6609 0
-123 6609 0
-6610 163 164 165 0
-163 6610 0
-164 6610 0
-165 6610 0
-6611 205 206 207 0
-205 6611 0
-206 6611 0
-207 6611 0
-6607 6612 0
-6613 0
-6614 0
-6608 6615 0
-6612 6615 0
-6608 -6612 6616 0
-6613 6616 0
-6608 -6613 6617 0
-6614 6617 0
-6608 -6614 0
-6609 6618 0
-6615 6618 0
-6609 -6615 6619 0
-6616 6619 0
-6609 -6616 6620 0
-6617 6620 0
-6609 -6617 0
-6610 6621 0
-6618 6621 0
-6610 -6618 6622 0
-6619 6622 0
-6610 -6619 6623 0
-6620 6623 0
-6610 -6620 0
-6611 -6623 0
-6627 37 38 39 40 0
-37 6627 0
-38 6627 0
-39 6627 0
-40 6627 0
-6628 79 80 81 82 0
-79 6628 0
-80 6628 0
-81 6628 0
-82 6628 0
-6629 121 122 123 124 0
-121 6629 0
-122 6629 0
-123 6629 0
-124 6629 0
-6630 163 164 165 166 0
-163 6630 0
-164 6630 0
-165 6630 0
-166 6630 0
-6631 205 206 207 208 0
-205 6631 0
-206 6631 0
-207 6631 0
-208 6631 0
-6627 6632 0
-6633 0
-6634 0
-6635 0
-6628 6636 0
-6632 6636 0
-6628 -6632 6637 0
-6633 6637 0
-6628 -6633 6638 0
-6634 6638 0
-6628 -6634 6639 0
-6635 6639 0
-6628 -6635 0
-6629 6640 0
-6636 6640 0
-6629 -6636 6641 0
-6637 6641 0
-6629 -6637 6642 0
-6638 6642 0
-6629 -6638 6643 0
-6639 6643 0
-6629 -6639 0
-6630 6644 0
-6640 6644 0
-6630 -6640 6645 0
-6641 6645 0
-6630 -6641 6646 0
-6642 6646 0
-6630 -6642 6647 0
-6643 6647 0
-6630 -6643 0
-6631 -6647 0
-6652 37 38 39 40 41 0
-37 6652 0
-38 6652 0
-39 6652 0
-40 6652 0
-41 6652 0
-6653 79 80 81 82 83 0
-79 6653 0
-80 6653 0
-81 6653 0
-82 6653 0
-83 6653 0
-6654 121 122 123 124 125 0
-121 6654 0
-122 6654 0
-123 6654 0
-124 6654 0
-125 6654 0
-6655 163 164 165 166 167 0
-163 6655 0
-164 6655 0
-165 6655 0
-166 6655 0
-167 6655 0
-6656 205 206 207 208 209 0
-205 6656 0
-206 6656 0
-207 6656 0
-208 6656 0
-209 6656 0
-6657 38 0
-38 6657 0
-6658 80 0
-80 6658 0
-6659 122 0
-122 6659 0
-6660 164 0
-164 6660 0
-6661 206 0
-206 6661 0
-6657 6662 0
-6658 6663 0
-6662 6663 0
-6658 -6662 0
-6659 6664 0
-6663 6664 0
-6659 -6663 0
-6660 6665 0
-6664 6665 0
-6660 -6664 0
-6661 -6665 0
-6667 38 39 0
-38 6667 0
-39 6667 0
-6668 80 81 0
-80 6668 0
-81 6668 0
-6669 122 123 0
-122 6669 0
-123 6669 0
-6670 164 165 0
-164 6670 0
-165 6670 0
-6671 206 207 0
-206 6671 0
-207 6671 0
-6667 6672 0
-6673 0
-6668 6674 0
-6672 6674 0
-6668 -6672 6675 0
-6673 6675 0
-6668 -6673 0
-6669 6676 0
-6674 6676 0
-6669 -6674 6677 0
-6675 6677 0
-6669 -6675 0
-6670 6678 0
-6676 6678 0
-6670 -6676 6679 0
-6677 6679 0
-6670 -6677 0
-6671 -6679 0
-6682 38 39 40 0
-38 6682 0
-39 6682 0
-40 6682 0
-6683 80 81 82 0
-80 6683 0
-81 6683 0
-82 6683 0
-6684 122 123 124 0
-122 6684 0
-123 6684 0
-124 6684 0
-6685 164 165 166 0
-164 6685 0
-165 6685 0
-166 6685 0
-6686 206 207 208 0
-206 6686 0
-207 6686 0
-208 6686 0
-6682 6687 0
-6688 0
-6689 0
-6683 6690 0
-6687 6690 0
-6683 -6687 6691 0
-6688 6691 0
-6683 -6688 6692 0
-6689 6692 0
-6683 -6689 0
-6684 6693 0
-6690 6693 0
-6684 -6690 6694 0
-6691 6694 0
-6684 -6691 6695 0
-6692 6695 0
-6684 -6692 0
-6685 6696 0
-6693 6696 0
-6685 -6693 6697 0
-6694 6697 0
-6685 -6694 6698 0
-6695 6698 0
-6685 -6695 0
-6686 -6698 0
-6702 38 39 40 41 0
-38 6702 0
-39 6702 0
-40 6702 0
-41 6702 0
-6703 80 81 82 83 0
-80 6703 0
-81 6703 0
-82 6703 0
-83 6703 0
-6704 122 123 124 125 0
-122 6704 0
-123 6704 0
-124 6704 0
-125 6704 0
-6705 164 165 166 167 0
-164 6705 0
-165 6705 0
-166 6705 0
-167 6705 0
-6706 206 207 208 209 0
-206 6706 0
-207 6706 0
-208 6706 0
-209 6706 0
-6702 6707 0
-6708 0
-6709 0
-6710 0
-6703 6711 0
-6707 6711 0
-6703 -6707 6712 0
-6708 6712 0
-6703 -6708 6713 0
-6709 6713 0
-6703 -6709 6714 0
-6710 6714 0
-6703 -6710 0
-6704 6715 0
-6711 6715 0
-6704 -6711 6716 0
-6712 6716 0
-6704 -6712 6717 0
-6713 6717 0
-6704 -6713 6718 0
-6714 6718 0
-6704 -6714 0
-6705 6719 0
-6715 6719 0
-6705 -6715 6720 0
-6716 6720 0
-6705 -6716 6721 0
-6717 6721 0
-6705 -6717 6722 0
-6718 6722 0
-6705 -6718 0
-6706 -6722 0
-6727 38 39 40 41 42 0
-38 6727 0
-39 6727 0
-40 6727 0
-41 6727 0
-42 6727 0
-6728 80 81 82 83 84 0
-80 6728 0
-81 6728 0
-82 6728 0
-83 6728 0
-84 6728 0
-6729 122 123 124 125 126 0
-122 6729 0
-123 6729 0
-124 6729 0
-125 6729 0
-126 6729 0
-6730 164 165 166 167 168 0
-164 6730 0
-165 6730 0
-166 6730 0
-167 6730 0
-168 6730 0
-6731 206 207 208 209 210 0
-206 6731 0
-207 6731 0
-208 6731 0
-209 6731 0
-210 6731 0
-6732 39 0
-39 6732 0
-6733 81 0
-81 6733 0
-6734 123 0
-123 6734 0
-6735 165 0
-165 6735 0
-6736 207 0
-207 6736 0
-6732 6737 0
-6733 6738 0
-6737 6738 0
-6733 -6737 0
-6734 6739 0
-6738 6739 0
-6734 -6738 0
-6735 6740 0
-6739 6740 0
-6735 -6739 0
-6736 -6740 0
-6742 39 40 0
-39 6742 0
-40 6742 0
-6743 81 82 0
-81 6743 0
-82 6743 0
-6744 123 124 0
-123 6744 0
-124 6744 0
-6745 165 166 0
-165 6745 0
-166 6745 0
-6746 207 208 0
-207 6746 0
-208 6746 0
-6742 6747 0
-6748 0
-6743 6749 0
-6747 6749 0
-6743 -6747 6750 0
-6748 6750 0
-6743 -6748 0
-6744 6751 0
-6749 6751 0
-6744 -6749 6752 0
-6750 6752 0
-6744 -6750 0
-6745 6753 0
-6751 6753 0
-6745 -6751 6754 0
-6752 6754 0
-6745 -6752 0
-6746 -6754 0
-6757 39 40 41 0
-39 6757 0
-40 6757 0
-41 6757 0
-6758 81 82 83 0
-81 6758 0
-82 6758 0
-83 6758 0
-6759 123 124 125 0
-123 6759 0
-124 6759 0
-125 6759 0
-6760 165 166 167 0
-165 6760 0
-166 6760 0
-167 6760 0
-6761 207 208 209 0
-207 6761 0
-208 6761 0
-209 6761 0
-6757 6762 0
-6763 0
-6764 0
-6758 6765 0
-6762 6765 0
-6758 -6762 6766 0
-6763 6766 0
-6758 -6763 6767 0
-6764 6767 0
-6758 -6764 0
-6759 6768 0
-6765 6768 0
-6759 -6765 6769 0
-6766 6769 0
-6759 -6766 6770 0
-6767 6770 0
-6759 -6767 0
-6760 6771 0
-6768 6771 0
-6760 -6768 6772 0
-6769 6772 0
-6760 -6769 6773 0
-6770 6773 0
-6760 -6770 0
-6761 -6773 0
-6777 39 40 41 42 0
-39 6777 0
-40 6777 0
-41 6777 0
-42 6777 0
-6778 81 82 83 84 0
-81 6778 0
-82 6778 0
-83 6778 0
-84 6778 0
-6779 123 124 125 126 0
-123 6779 0
-124 6779 0
-125 6779 0
-126 6779 0
-6780 165 166 167 168 0
-165 6780 0
-166 6780 0
-167 6780 0
-168 6780 0
-6781 207 208 209 210 0
-207 6781 0
-208 6781 0
-209 6781 0
-210 6781 0
-6777 6782 0
-6783 0
-6784 0
-6785 0
-6778 6786 0
-6782 6786 0
-6778 -6782 6787 0
-6783 6787 0
-6778 -6783 6788 0
-6784 6788 0
-6778 -6784 6789 0
-6785 6789 0
-6778 -6785 0
-6779 6790 0
-6786 6790 0
-6779 -6786 6791 0
-6787 6791 0
-6779 -6787 6792 0
-6788 6792 0
-6779 -6788 6793 0
-6789 6793 0
-6779 -6789 0
-6780 6794 0
-6790 6794 0
-6780 -6790 6795 0
-6791 6795 0
-6780 -6791 6796 0
-6792 6796 0
-6780 -6792 6797 0
-6793 6797 0
-6780 -6793 0
-6781 -6797 0
-6802 40 0
-40 6802 0
-6803 82 0
-82 6803 0
-6804 124 0
-124 6804 0
-6805 166 0
-166 6805 0
-6806 208 0
-208 6806 0
-6802 6807 0
-6803 6808 0
-6807 6808 0
-6803 -6807 0
-6804 6809 0
-6808 6809 0
-6804 -6808 0
-6805 6810 0
-6809 6810 0
-6805 -6809 0
-6806 -6810 0
-6812 40 41 0
-40 6812 0
-41 6812 0
-6813 82 83 0
-82 6813 0
-83 6813 0
-6814 124 125 0
-124 6814 0
-125 6814 0
-6815 166 167 0
-166 6815 0
-167 6815 0
-6816 208 209 0
-208 6816 0
-209 6816 0
-6812 6817 0
-6818 0
-6813 6819 0
-6817 6819 0
-6813 -6817 6820 0
-6818 6820 0
-6813 -6818 0
-6814 6821 0
-6819 6821 0
-6814 -6819 6822 0
-6820 6822 0
-6814 -6820 0
-6815 6823 0
-6821 6823 0
-6815 -6821 6824 0
-6822 6824 0
-6815 -6822 0
-6816 -6824 0
-6827 40 41 42 0
-40 6827 0
-41 6827 0
-42 6827 0
-6828 82 83 84 0
-82 6828 0
-83 6828 0
-84 6828 0
-6829 124 125 126 0
-124 6829 0
-125 6829 0
-126 6829 0
-6830 166 167 168 0
-166 6830 0
-167 6830 0
-168 6830 0
-6831 208 209 210 0
-208 6831 0
-209 6831 0
-210 6831 0
-6827 6832 0
-6833 0
-6834 0
-6828 6835 0
-6832 6835 0
-6828 -6832 6836 0
-6833 6836 0
-6828 -6833 6837 0
-6834 6837 0
-6828 -6834 0
-6829 6838 0
-6835 6838 0
-6829 -6835 6839 0
-6836 6839 0
-6829 -6836 6840 0
-6837 6840 0
-6829 -6837 0
-6830 6841 0
-6838 6841 0
-6830 -6838 6842 0
-6839 6842 0
-6830 -6839 6843 0
-6840 6843 0
-6830 -6840 0
-6831 -6843 0
-6847 41 0
-41 6847 0
-6848 83 0
-83 6848 0
-6849 125 0
-125 6849 0
-6850 167 0
-167 6850 0
-6851 209 0
-209 6851 0
-6847 6852 0
-6848 6853 0
-6852 6853 0
-6848 -6852 0
-6849 6854 0
-6853 6854 0
-6849 -6853 0
-6850 6855 0
-6854 6855 0
-6850 -6854 0
-6851 -6855 0
-6857 41 42 0
-41 6857 0
-42 6857 0
-6858 83 84 0
-83 6858 0
-84 6858 0
-6859 125 126 0
-125 6859 0
-126 6859 0
-6860 167 168 0
-167 6860 0
-168 6860 0
-6861 209 210 0
-209 6861 0
-210 6861 0
-6857 6862 0
-6863 0
-6858 6864 0
-6862 6864 0
-6858 -6862 6865 0
-6863 6865 0
-6858 -6863 0
-6859 6866 0
-6864 6866 0
-6859 -6864 6867 0
-6865 6867 0
-6859 -6865 0
-6860 6868 0
-6866 6868 0
-6860 -6866 6869 0
-6867 6869 0
-6860 -6867 0
-6861 -6869 0
-6872 42 0
-42 6872 0
-6873 84 0
-84 6873 0
-6874 126 0
-126 6874 0
-6875 168 0
-168 6875 0
-6876 210 0
-210 6876 0
-6872 6877 0
-6873 6878 0
-6877 6878 0
-6873 -6877 0
-6874 6879 0
-6878 6879 0
-6874 -6878 0
-6875 6880 0
-6879 6880 0
-6875 -6879 0
-6876 -6880 0
-6882 73 0
-73 6882 0
-6883 115 0
-115 6883 0
-6884 157 0
-157 6884 0
-6885 199 0
-199 6885 0
-6882 6886 0
-6883 6887 0
-6886 6887 0
-6883 -6886 0
-6884 6888 0
-6887 6888 0
-6884 -6887 0
-6885 -6888 0
-6890 73 74 0
-73 6890 0
-74 6890 0
-6891 115 116 0
-115 6891 0
-116 6891 0
-6892 157 158 0
-157 6892 0
-158 6892 0
-6893 199 200 0
-199 6893 0
-200 6893 0
-6890 6894 0
-6895 0
-6891 6896 0
-6894 6896 0
-6891 -6894 6897 0
-6895 6897 0
-6891 -6895 0
-6892 6898 0
-6896 6898 0
-6892 -6896 6899 0
-6897 6899 0
-6892 -6897 0
-6893 -6899 0
-6902 73 74 75 0
-73 6902 0
-74 6902 0
-75 6902 0
-6903 115 116 117 0
-115 6903 0
-116 6903 0
-117 6903 0
-6904 157 158 159 0
-157 6904 0
-158 6904 0
-159 6904 0
-6905 199 200 201 0
-199 6905 0
-200 6905 0
-201 6905 0
-6902 6906 0
-6907 0
-6908 0
-6903 6909 0
-6906 6909 0
-6903 -6906 6910 0
-6907 6910 0
-6903 -6907 6911 0
-6908 6911 0
-6903 -6908 0
-6904 6912 0
-6909 6912 0
-6904 -6909 6913 0
-6910 6913 0
-6904 -6910 6914 0
-6911 6914 0
-6904 -6911 0
-6905 -6914 0
-6918 73 74 75 76 0
-73 6918 0
-74 6918 0
-75 6918 0
-76 6918 0
-6919 115 116 117 118 0
-115 6919 0
-116 6919 0
-117 6919 0
-118 6919 0
-6920 157 158 159 160 0
-157 6920 0
-158 6920 0
-159 6920 0
-160 6920 0
-6921 199 200 201 202 0
-199 6921 0
-200 6921 0
-201 6921 0
-202 6921 0
-6922 74 0
-74 6922 0
-6923 116 0
-116 6923 0
-6924 158 0
-158 6924 0
-6925 200 0
-200 6925 0
-6922 6926 0
-6923 6927 0
-6926 6927 0
-6923 -6926 0
-6924 6928 0
-6927 6928 0
-6924 -6927 0
-6925 -6928 0
-6930 74 75 0
-74 6930 0
-75 6930 0
-6931 116 117 0
-116 6931 0
-117 6931 0
-6932 158 159 0
-158 6932 0
-159 6932 0
-6933 200 201 0
-200 6933 0
-201 6933 0
-6930 6934 0
-6935 0
-6931 6936 0
-6934 6936 0
-6931 -6934 6937 0
-6935 6937 0
-6931 -6935 0
-6932 6938 0
-6936 6938 0
-6932 -6936 6939 0
-6937 6939 0
-6932 -6937 0
-6933 -6939 0
-6942 74 75 76 0
-74 6942 0
-75 6942 0
-76 6942 0
-6943 116 117 118 0
-116 6943 0
-117 6943 0
-118 6943 0
-6944 158 159 160 0
-158 6944 0
-159 6944 0
-160 6944 0
-6945 200 201 202 0
-200 6945 0
-201 6945 0
-202 6945 0
-6942 6946 0
-6947 0
-6948 0
-6943 6949 0
-6946 6949 0
-6943 -6946 6950 0
-6947 6950 0
-6943 -6947 6951 0
-6948 6951 0
-6943 -6948 0
-6944 6952 0
-6949 6952 0
-6944 -6949 6953 0
-6950 6953 0
-6944 -6950 6954 0
-6951 6954 0
-6944 -6951 0
-6945 -6954 0
-6958 74 75 76 77 0
-74 6958 0
-75 6958 0
-76 6958 0
-77 6958 0
-6959 116 117 118 119 0
-116 6959 0
-117 6959 0
-118 6959 0
-119 6959 0
-6960 158 159 160 161 0
-158 6960 0
-159 6960 0
-160 6960 0
-161 6960 0
-6961 200 201 202 203 0
-200 6961 0
-201 6961 0
-202 6961 0
-203 6961 0
-6962 75 0
-75 6962 0
-6963 117 0
-117 6963 0
-6964 159 0
-159 6964 0
-6965 201 0
-201 6965 0
-6962 6966 0
-6963 6967 0
-6966 6967 0
-6963 -6966 0
-6964 6968 0
-6967 6968 0
-6964 -6967 0
-6965 -6968 0
-6970 75 76 0
-75 6970 0
-76 6970 0
-6971 117 118 0
-117 6971 0
-118 6971 0
-6972 159 160 0
-159 6972 0
-160 6972 0
-6973 201 202 0
-201 6973 0
-202 6973 0
-6970 6974 0
-6975 0
-6971 6976 0
-6974 6976 0
-6971 -6974 6977 0
-6975 6977 0
-6971 -6975 0
-6972 6978 0
-6976 6978 0
-6972 -6976 6979 0
-6977 6979 0
-6972 -6977 0
-6973 -6979 0
-6982 75 76 77 0
-75 6982 0
-76 6982 0
-77 6982 0
-6983 117 118 119 0
-117 6983 0
-118 6983 0
-119 6983 0
-6984 159 160 161 0
-159 6984 0
-160 6984 0
-161 6984 0
-6985 201 202 203 0
-201 6985 0
-202 6985 0
-203 6985 0
-6982 6986 0
-6987 0
-6988 0
-6983 6989 0
-6986 6989 0
-6983 -6986 6990 0
-6987 6990 0
-6983 -6987 6991 0
-6988 6991 0
-6983 -6988 0
-6984 6992 0
-6989 6992 0
-6984 -6989 6993 0
-6990 6993 0
-6984 -6990 6994 0
-6991 6994 0
-6984 -6991 0
-6985 -6994 0
-6998 75 76 77 78 0
-75 6998 0
-76 6998 0
-77 6998 0
-78 6998 0
-6999 117 118 119 120 0
-117 6999 0
-118 6999 0
-119 6999 0
-120 6999 0
-7000 159 160 161 162 0
-159 7000 0
-160 7000 0
-161 7000 0
-162 7000 0
-7001 201 202 203 204 0
-201 7001 0
-202 7001 0
-203 7001 0
-204 7001 0
-7002 76 0
-76 7002 0
-7003 118 0
-118 7003 0
-7004 160 0
-160 7004 0
-7005 202 0
-202 7005 0
-7002 7006 0
-7003 7007 0
-7006 7007 0
-7003 -7006 0
-7004 7008 0
-7007 7008 0
-7004 -7007 0
-7005 -7008 0
-7010 76 77 0
-76 7010 0
-77 7010 0
-7011 118 119 0
-118 7011 0
-119 7011 0
-7012 160 161 0
-160 7012 0
-161 7012 0
-7013 202 203 0
-202 7013 0
-203 7013 0
-7010 7014 0
-7015 0
-7011 7016 0
-7014 7016 0
-7011 -7014 7017 0
-7015 7017 0
-7011 -7015 0
-7012 7018 0
-7016 7018 0
-7012 -7016 7019 0
-7017 7019 0
-7012 -7017 0
-7013 -7019 0
-7022 76 77 78 0
-76 7022 0
-77 7022 0
-78 7022 0
-7023 118 119 120 0
-118 7023 0
-119 7023 0
-120 7023 0
-7024 160 161 162 0
-160 7024 0
-161 7024 0
-162 7024 0
-7025 202 203 204 0
-202 7025 0
-203 7025 0
-204 7025 0
-7022 7026 0
-7027 0
-7028 0
-7023 7029 0
-7026 7029 0
-7023 -7026 7030 0
-7027 7030 0
-7023 -7027 7031 0
-7028 7031 0
-7023 -7028 0
-7024 7032 0
-7029 7032 0
-7024 -7029 7033 0
-7030 7033 0
-7024 -7030 7034 0
-7031 7034 0
-7024 -7031 0
-7025 -7034 0
-7038 77 0
-77 7038 0
-7039 119 0
-119 7039 0
-7040 161 0
-161 7040 0
-7041 203 0
-203 7041 0
-7038 7042 0
-7039 7043 0
-7042 7043 0
-7039 -7042 0
-7040 7044 0
-7043 7044 0
-7040 -7043 0
-7041 -7044 0
-7046 77 78 0
-77 7046 0
-78 7046 0
-7047 119 120 0
-119 7047 0
-120 7047 0
-7048 161 162 0
-161 7048 0
-162 7048 0
-7049 203 204 0
-203 7049 0
-204 7049 0
-7046 7050 0
-7051 0
-7047 7052 0
-7050 7052 0
-7047 -7050 7053 0
-7051 7053 0
-7047 -7051 0
-7048 7054 0
-7052 7054 0
-7048 -7052 7055 0
-7053 7055 0
-7048 -7053 0
-7049 -7055 0
-7058 78 0
-78 7058 0
-7059 120 0
-120 7059 0
-7060 162 0
-162 7060 0
-7061 204 0
-204 7061 0
-7058 7062 0
-7059 7063 0
-7062 7063 0
-7059 -7062 0
-7060 7064 0
-7063 7064 0
-7060 -7063 0
-7061 -7064 0
-7066 109 0
-109 7066 0
-7067 151 0
-151 7067 0
-7068 193 0
-193 7068 0
-7066 7069 0
-7067 7070 0
-7069 7070 0
-7067 -7069 0
-7068 -7070 0
-7072 109 110 0
-109 7072 0
-110 7072 0
-7073 151 152 0
-151 7073 0
-152 7073 0
-7074 193 194 0
-193 7074 0
-194 7074 0
-7072 7075 0
-7076 0
-7073 7077 0
-7075 7077 0
-7073 -7075 7078 0
-7076 7078 0
-7073 -7076 0
-7074 -7078 0
-7081 109 110 111 0
-109 7081 0
-110 7081 0
-111 7081 0
-7082 151 152 153 0
-151 7082 0
-152 7082 0
-153 7082 0
-7083 193 194 195 0
-193 7083 0
-194 7083 0
-195 7083 0
-7084 110 0
-110 7084 0
-7085 152 0
-152 7085 0
-7086 194 0
-194 7086 0
-7084 7087 0
-7085 7088 0
-7087 7088 0
-7085 -7087 0
-7086 -7088 0
-7090 110 111 0
-110 7090 0
-111 7090 0
-7091 152 153 0
-152 7091 0
-153 7091 0
-7092 194 195 0
-194 7092 0
-195 7092 0
-7090 7093 0
-7094 0
-7091 7095 0
-7093 7095 0
-7091 -7093 7096 0
-7094 7096 0
-7091 -7094 0
-7092 -7096 0
-7099 110 111 112 0
-110 7099 0
-111 7099 0
-112 7099 0
-7100 152 153 154 0
-152 7100 0
-153 7100 0
-154 7100 0
-7101 194 195 196 0
-194 7101 0
-195 7101 0
-196 7101 0
-7102 111 0
-111 7102 0
-7103 153 0
-153 7103 0
-7104 195 0
-195 7104 0
-7102 7105 0
-7103 7106 0
-7105 7106 0
-7103 -7105 0
-7104 -7106 0
-7108 111 112 0
-111 7108 0
-112 7108 0
-7109 153 154 0
-153 7109 0
-154 7109 0
-7110 195 196 0
-195 7110 0
-196 7110 0
-7108 7111 0
-7112 0
-7109 7113 0
-7111 7113 0
-7109 -7111 7114 0
-7112 7114 0
-7109 -7112 0
-7110 -7114 0
-7117 111 112 113 0
-111 7117 0
-112 7117 0
-113 7117 0
-7118 153 154 155 0
-153 7118 0
-154 7118 0
-155 7118 0
-7119 195 196 197 0
-195 7119 0
-196 7119 0
-197 7119 0
-7120 112 0
-112 7120 0
-7121 154 0
-154 7121 0
-7122 196 0
-196 7122 0
-7120 7123 0
-7121 7124 0
-7123 7124 0
-7121 -7123 0
-7122 -7124 0
-7126 112 113 0
-112 7126 0
-113 7126 0
-7127 154 155 0
-154 7127 0
-155 7127 0
-7128 196 197 0
-196 7128 0
-197 7128 0
-7126 7129 0
-7130 0
-7127 7131 0
-7129 7131 0
-7127 -7129 7132 0
-7130 7132 0
-7127 -7130 0
-7128 -7132 0
-7135 112 113 114 0
-112 7135 0
-113 7135 0
-114 7135 0
-7136 154 155 156 0
-154 7136 0
-155 7136 0
-156 7136 0
-7137 196 197 198 0
-196 7137 0
-197 7137 0
-198 7137 0
-7138 113 0
-113 7138 0
-7139 155 0
-155 7139 0
-7140 197 0
-197 7140 0
-7138 7141 0
-7139 7142 0
-7141 7142 0
-7139 -7141 0
-7140 -7142 0
-7144 113 114 0
-113 7144 0
-114 7144 0
-7145 155 156 0
-155 7145 0
-156 7145 0
-7146 197 198 0
-197 7146 0
-198 7146 0
-7144 7147 0
-7148 0
-7145 7149 0
-7147 7149 0
-7145 -7147 7150 0
-7148 7150 0
-7145 -7148 0
-7146 -7150 0
-7153 114 0
-114 7153 0
-7154 156 0
-156 7154 0
-7155 198 0
-198 7155 0
-7153 7156 0
-7154 7157 0
-7156 7157 0
-7154 -7156 0
-7155 -7157 0
-7159 145 0
-145 7159 0
-7160 187 0
-187 7160 0
-7159 7161 0
-7160 -7161 0
-7163 145 146 0
-145 7163 0
-146 7163 0
-7164 187 188 0
-187 7164 0
-188 7164 0
-7165 146 0
-146 7165 0
-7166 188 0
-188 7166 0
-7165 7167 0
-7166 -7167 0
-7169 146 147 0
-146 7169 0
-147 7169 0
-7170 188 189 0
-188 7170 0
-189 7170 0
-7171 147 0
-147 7171 0
-7172 189 0
-189 7172 0
-7171 7173 0
-7172 -7173 0
-7175 147 148 0
-147 7175 0
-148 7175 0
-7176 189 190 0
-189 7176 0
-190 7176 0
-7177 148 0
-148 7177 0
-7178 190 0
-190 7178 0
-7177 7179 0
-7178 -7179 0
-7181 148 149 0
-148 7181 0
-149 7181 0
-7182 190 191 0
-190 7182 0
-191 7182 0
-7183 149 0
-149 7183 0
-7184 191 0
-191 7184 0
-7183 7185 0
-7184 -7185 0
-7187 149 150 0
-149 7187 0
-150 7187 0
-7188 191 192 0
-191 7188 0
-192 7188 0
-7189 150 0
-150 7189 0
-7190 192 0
-192 7190 0
-7189 7191 0
-7190 -7191 0
-7193 7 0
-7 7193 0
-7194 37 0
-37 7194 0
-7193 7195 0
-7194 -7195 0
-7197 7 8 0
-7 7197 0
-8 7197 0
-7198 37 38 0
-37 7198 0
-38 7198 0
-7199 8 0
-8 7199 0
-7200 38 0
-38 7200 0
-7199 7201 0
-7200 -7201 0
-7203 8 9 0
-8 7203 0
-9 7203 0
-7204 38 39 0
-38 7204 0
-39 7204 0
-7205 9 0
-9 7205 0
-7206 39 0
-39 7206 0
-7205 7207 0
-7206 -7207 0
-7209 9 10 0
-9 7209 0
-10 7209 0
-7210 39 40 0
-39 7210 0
-40 7210 0
-7211 10 0
-10 7211 0
-7212 40 0
-40 7212 0
-7211 7213 0
-7212 -7213 0
-7215 10 11 0
-10 7215 0
-11 7215 0
-7216 40 41 0
-40 7216 0
-41 7216 0
-7217 11 0
-11 7217 0
-7218 41 0
-41 7218 0
-7217 7219 0
-7218 -7219 0
-7221 11 12 0
-11 7221 0
-12 7221 0
-7222 41 42 0
-41 7222 0
-42 7222 0
-7223 12 0
-12 7223 0
-7224 42 0
-42 7224 0
-7223 7225 0
-7224 -7225 0
-7227 13 0
-13 7227 0
-7228 43 0
-43 7228 0
-7229 73 0
-73 7229 0
-7227 7230 0
-7228 7231 0
-7230 7231 0
-7228 -7230 0
-7229 -7231 0
-7233 13 14 0
-13 7233 0
-14 7233 0
-7234 43 44 0
-43 7234 0
-44 7234 0
-7235 73 74 0
-73 7235 0
-74 7235 0
-7233 7236 0
-7237 0
-7234 7238 0
-7236 7238 0
-7234 -7236 7239 0
-7237 7239 0
-7234 -7237 0
-7235 -7239 0
-7242 13 14 15 0
-13 7242 0
-14 7242 0
-15 7242 0
-7243 43 44 45 0
-43 7243 0
-44 7243 0
-45 7243 0
-7244 73 74 75 0
-73 7244 0
-74 7244 0
-75 7244 0
-7245 14 0
-14 7245 0
-7246 44 0
-44 7246 0
-7247 74 0
-74 7247 0
-7245 7248 0
-7246 7249 0
-7248 7249 0
-7246 -7248 0
-7247 -7249 0
-7251 14 15 0
-14 7251 0
-15 7251 0
-7252 44 45 0
-44 7252 0
-45 7252 0
-7253 74 75 0
-74 7253 0
-75 7253 0
-7251 7254 0
-7255 0
-7252 7256 0
-7254 7256 0
-7252 -7254 7257 0
-7255 7257 0
-7252 -7255 0
-7253 -7257 0
-7260 14 15 16 0
-14 7260 0
-15 7260 0
-16 7260 0
-7261 44 45 46 0
-44 7261 0
-45 7261 0
-46 7261 0
-7262 74 75 76 0
-74 7262 0
-75 7262 0
-76 7262 0
-7263 15 0
-15 7263 0
-7264 45 0
-45 7264 0
-7265 75 0
-75 7265 0
-7263 7266 0
-7264 7267 0
-7266 7267 0
-7264 -7266 0
-7265 -7267 0
-7269 15 16 0
-15 7269 0
-16 7269 0
-7270 45 46 0
-45 7270 0
-46 7270 0
-7271 75 76 0
-75 7271 0
-76 7271 0
-7269 7272 0
-7273 0
-7270 7274 0
-7272 7274 0
-7270 -7272 7275 0
-7273 7275 0
-7270 -7273 0
-7271 -7275 0
-7278 15 16 17 0
-15 7278 0
-16 7278 0
-17 7278 0
-7279 45 46 47 0
-45 7279 0
-46 7279 0
-47 7279 0
-7280 75 76 77 0
-75 7280 0
-76 7280 0
-77 7280 0
-7281 16 0
-16 7281 0
-7282 46 0
-46 7282 0
-7283 76 0
-76 7283 0
-7281 7284 0
-7282 7285 0
-7284 7285 0
-7282 -7284 0
-7283 -7285 0
-7287 16 17 0
-16 7287 0
-17 7287 0
-7288 46 47 0
-46 7288 0
-47 7288 0
-7289 76 77 0
-76 7289 0
-77 7289 0
-7287 7290 0
-7291 0
-7288 7292 0
-7290 7292 0
-7288 -7290 7293 0
-7291 7293 0
-7288 -7291 0
-7289 -7293 0
-7296 16 17 18 0
-16 7296 0
-17 7296 0
-18 7296 0
-7297 46 47 48 0
-46 7297 0
-47 7297 0
-48 7297 0
-7298 76 77 78 0
-76 7298 0
-77 7298 0
-78 7298 0
-7299 17 0
-17 7299 0
-7300 47 0
-47 7300 0
-7301 77 0
-77 7301 0
-7299 7302 0
-7300 7303 0
-7302 7303 0
-7300 -7302 0
-7301 -7303 0
-7305 17 18 0
-17 7305 0
-18 7305 0
-7306 47 48 0
-47 7306 0
-48 7306 0
-7307 77 78 0
-77 7307 0
-78 7307 0
-7305 7308 0
-7309 0
-7306 7310 0
-7308 7310 0
-7306 -7308 7311 0
-7309 7311 0
-7306 -7309 0
-7307 -7311 0
-7314 18 0
-18 7314 0
-7315 48 0
-48 7315 0
-7316 78 0
-78 7316 0
-7314 7317 0
-7315 7318 0
-7317 7318 0
-7315 -7317 0
-7316 -7318 0
-7320 19 0
-19 7320 0
-7321 49 0
-49 7321 0
-7322 79 0
-79 7322 0
-7323 109 0
-109 7323 0
-7320 7324 0
-7321 7325 0
-7324 7325 0
-7321 -7324 0
-7322 7326 0
-7325 7326 0
-7322 -7325 0
-7323 -7326 0
-7328 19 20 0
-19 7328 0
-20 7328 0
-7329 49 50 0
-49 7329 0
-50 7329 0
-7330 79 80 0
-79 7330 0
-80 7330 0
-7331 109 110 0
-109 7331 0
-110 7331 0
-7328 7332 0
-7333 0
-7329 7334 0
-7332 7334 0
-7329 -7332 7335 0
-7333 7335 0
-7329 -7333 0
-7330 7336 0
-7334 7336 0
-7330 -7334 7337 0
-7335 7337 0
-7330 -7335 0
-7331 -7337 0
-7340 19 20 21 0
-19 7340 0
-20 7340 0
-21 7340 0
-7341 49 50 51 0
-49 7341 0
-50 7341 0
-51 7341 0
-7342 79 80 81 0
-79 7342 0
-80 7342 0
-81 7342 0
-7343 109 110 111 0
-109 7343 0
-110 7343 0
-111 7343 0
-7340 7344 0
-7345 0
-7346 0
-7341 7347 0
-7344 7347 0
-7341 -7344 7348 0
-7345 7348 0
-7341 -7345 7349 0
-7346 7349 0
-7341 -7346 0
-7342 7350 0
-7347 7350 0
-7342 -7347 7351 0
-7348 7351 0
-7342 -7348 7352 0
-7349 7352 0
-7342 -7349 0
-7343 -7352 0
-7356 19 20 21 22 0
-19 7356 0
-20 7356 0
-21 7356 0
-22 7356 0
-7357 49 50 51 52 0
-49 7357 0
-50 7357 0
-51 7357 0
-52 7357 0
-7358 79 80 81 82 0
-79 7358 0
-80 7358 0
-81 7358 0
-82 7358 0
-7359 109 110 111 112 0
-109 7359 0
-110 7359 0
-111 7359 0
-112 7359 0
-7360 20 0
-20 7360 0
-7361 50 0
-50 7361 0
-7362 80 0
-80 7362 0
-7363 110 0
-110 7363 0
-7360 7364 0
-7361 7365 0
-7364 7365 0
-7361 -7364 0
-7362 7366 0
-7365 7366 0
-7362 -7365 0
-7363 -7366 0
-7368 20 21 0
-20 7368 0
-21 7368 0
-7369 50 51 0
-50 7369 0
-51 7369 0
-7370 80 81 0
-80 7370 0
-81 7370 0
-7371 110 111 0
-110 7371 0
-111 7371 0
-7368 7372 0
-7373 0
-7369 7374 0
-7372 7374 0
-7369 -7372 7375 0
-7373 7375 0
-7369 -7373 0
-7370 7376 0
-7374 7376 0
-7370 -7374 7377 0
-7375 7377 0
-7370 -7375 0
-7371 -7377 0
-7380 20 21 22 0
-20 7380 0
-21 7380 0
-22 7380 0
-7381 50 51 52 0
-50 7381 0
-51 7381 0
-52 7381 0
-7382 80 81 82 0
-80 7382 0
-81 7382 0
-82 7382 0
-7383 110 111 112 0
-110 7383 0
-111 7383 0
-112 7383 0
-7380 7384 0
-7385 0
-7386 0
-7381 7387 0
-7384 7387 0
-7381 -7384 7388 0
-7385 7388 0
-7381 -7385 7389 0
-7386 7389 0
-7381 -7386 0
-7382 7390 0
-7387 7390 0
-7382 -7387 7391 0
-7388 7391 0
-7382 -7388 7392 0
-7389 7392 0
-7382 -7389 0
-7383 -7392 0
-7396 20 21 22 23 0
-20 7396 0
-21 7396 0
-22 7396 0
-23 7396 0
-7397 50 51 52 53 0
-50 7397 0
-51 7397 0
-52 7397 0
-53 7397 0
-7398 80 81 82 83 0
-80 7398 0
-81 7398 0
-82 7398 0
-83 7398 0
-7399 110 111 112 113 0
-110 7399 0
-111 7399 0
-112 7399 0
-113 7399 0
-7400 21 0
-21 7400 0
-7401 51 0
-51 7401 0
-7402 81 0
-81 7402 0
-7403 111 0
-111 7403 0
-7400 7404 0
-7401 7405 0
-7404 7405 0
-7401 -7404 0
-7402 7406 0
-7405 7406 0
-7402 -7405 0
-7403 -7406 0
-7408 21 22 0
-21 7408 0
-22 7408 0
-7409 51 52 0
-51 7409 0
-52 7409 0
-7410 81 82 0
-81 7410 0
-82 7410 0
-7411 111 112 0
-111 7411 0
-112 7411 0
-7408 7412 0
-7413 0
-7409 7414 0
-7412 7414 0
-7409 -7412 7415 0
-7413 7415 0
-7409 -7413 0
-7410 7416 0
-7414 7416 0
-7410 -7414 7417 0
-7415 7417 0
-7410 -7415 0
-7411 -7417 0
-7420 21 22 23 0
-21 7420 0
-22 7420 0
-23 7420 0
-7421 51 52 53 0
-51 7421 0
-52 7421 0
-53 7421 0
-7422 81 82 83 0
-81 7422 0
-82 7422 0
-83 7422 0
-7423 111 112 113 0
-111 7423 0
-112 7423 0
-113 7423 0
-7420 7424 0
-7425 0
-7426 0
-7421 7427 0
-7424 7427 0
-7421 -7424 7428 0
-7425 7428 0
-7421 -7425 7429 0
-7426 7429 0
-7421 -7426 0
-7422 7430 0
-7427 7430 0
-7422 -7427 7431 0
-7428 7431 0
-7422 -7428 7432 0
-7429 7432 0
-7422 -7429 0
-7423 -7432 0
-7436 21 22 23 24 0
-21 7436 0
-22 7436 0
-23 7436 0
-24 7436 0
-7437 51 52 53 54 0
-51 7437 0
-52 7437 0
-53 7437 0
-54 7437 0
-7438 81 82 83 84 0
-81 7438 0
-82 7438 0
-83 7438 0
-84 7438 0
-7439 111 112 113 114 0
-111 7439 0
-112 7439 0
-113 7439 0
-114 7439 0
-7440 22 0
-22 7440 0
-7441 52 0
-52 7441 0
-7442 82 0
-82 7442 0
-7443 112 0
-112 7443 0
-7440 7444 0
-7441 7445 0
-7444 7445 0
-7441 -7444 0
-7442 7446 0
-7445 7446 0
-7442 -7445 0
-7443 -7446 0
-7448 22 23 0
-22 7448 0
-23 7448 0
-7449 52 53 0
-52 7449 0
-53 7449 0
-7450 82 83 0
-82 7450 0
-83 7450 0
-7451 112 113 0
-112 7451 0
-113 7451 0
-7448 7452 0
-7453 0
-7449 7454 0
-7452 7454 0
-7449 -7452 7455 0
-7453 7455 0
-7449 -7453 0
-7450 7456 0
-7454 7456 0
-7450 -7454 7457 0
-7455 7457 0
-7450 -7455 0
-7451 -7457 0
-7460 22 23 24 0
-22 7460 0
-23 7460 0
-24 7460 0
-7461 52 53 54 0
-52 7461 0
-53 7461 0
-54 7461 0
-7462 82 83 84 0
-82 7462 0
-83 7462 0
-84 7462 0
-7463 112 113 114 0
-112 7463 0
-113 7463 0
-114 7463 0
-7460 7464 0
-7465 0
-7466 0
-7461 7467 0
-7464 7467 0
-7461 -7464 7468 0
-7465 7468 0
-7461 -7465 7469 0
-7466 7469 0
-7461 -7466 0
-7462 7470 0
-7467 7470 0
-7462 -7467 7471 0
-7468 7471 0
-7462 -7468 7472 0
-7469 7472 0
-7462 -7469 0
-7463 -7472 0
-7476 23 0
-23 7476 0
-7477 53 0
-53 7477 0
-7478 83 0
-83 7478 0
-7479 113 0
-113 7479 0
-7476 7480 0
-7477 7481 0
-7480 7481 0
-7477 -7480 0
-7478 7482 0
-7481 7482 0
-7478 -7481 0
-7479 -7482 0
-7484 23 24 0
-23 7484 0
-24 7484 0
-7485 53 54 0
-53 7485 0
-54 7485 0
-7486 83 84 0
-83 7486 0
-84 7486 0
-7487 113 114 0
-113 7487 0
-114 7487 0
-7484 7488 0
-7489 0
-7485 7490 0
-7488 7490 0
-7485 -7488 7491 0
-7489 7491 0
-7485 -7489 0
-7486 7492 0
-7490 7492 0
-7486 -7490 7493 0
-7491 7493 0
-7486 -7491 0
-7487 -7493 0
-7496 24 0
-24 7496 0
-7497 54 0
-54 7497 0
-7498 84 0
-84 7498 0
-7499 114 0
-114 7499 0
-7496 7500 0
-7497 7501 0
-7500 7501 0
-7497 -7500 0
-7498 7502 0
-7501 7502 0
-7498 -7501 0
-7499 -7502 0
-7504 25 0
-25 7504 0
-7505 55 0
-55 7505 0
-7506 85 0
-85 7506 0
-7507 115 0
-115 7507 0
-7508 145 0
-145 7508 0
-7504 7509 0
-7505 7510 0
-7509 7510 0
-7505 -7509 0
-7506 7511 0
-7510 7511 0
-7506 -7510 0
-7507 7512 0
-7511 7512 0
-7507 -7511 0
-7508 -7512 0
-7514 25 26 0
-25 7514 0
-26 7514 0
-7515 55 56 0
-55 7515 0
-56 7515 0
-7516 85 86 0
-85 7516 0
-86 7516 0
-7517 115 116 0
-115 7517 0
-116 7517 0
-7518 145 146 0
-145 7518 0
-146 7518 0
-7514 7519 0
-7520 0
-7515 7521 0
-7519 7521 0
-7515 -7519 7522 0
-7520 7522 0
-7515 -7520 0
-7516 7523 0
-7521 7523 0
-7516 -7521 7524 0
-7522 7524 0
-7516 -7522 0
-7517 7525 0
-7523 7525 0
-7517 -7523 7526 0
-7524 7526 0
-7517 -7524 0
-7518 -7526 0
-7529 25 26 27 0
-25 7529 0
-26 7529 0
-27 7529 0
-7530 55 56 57 0
-55 7530 0
-56 7530 0
-57 7530 0
-7531 85 86 87 0
-85 7531 0
-86 7531 0
-87 7531 0
-7532 115 116 117 0
-115 7532 0
-116 7532 0
-117 7532 0
-7533 145 146 147 0
-145 7533 0
-146 7533 0
-147 7533 0
-7529 7534 0
-7535 0
-7536 0
-7530 7537 0
-7534 7537 0
-7530 -7534 7538 0
-7535 7538 0
-7530 -7535 7539 0
-7536 7539 0
-7530 -7536 0
-7531 7540 0
-7537 7540 0
-7531 -7537 7541 0
-7538 7541 0
-7531 -7538 7542 0
-7539 7542 0
-7531 -7539 0
-7532 7543 0
-7540 7543 0
-7532 -7540 7544 0
-7541 7544 0
-7532 -7541 7545 0
-7542 7545 0
-7532 -7542 0
-7533 -7545 0
-7549 25 26 27 28 0
-25 7549 0
-26 7549 0
-27 7549 0
-28 7549 0
-7550 55 56 57 58 0
-55 7550 0
-56 7550 0
-57 7550 0
-58 7550 0
-7551 85 86 87 88 0
-85 7551 0
-86 7551 0
-87 7551 0
-88 7551 0
-7552 115 116 117 118 0
-115 7552 0
-116 7552 0
-117 7552 0
-118 7552 0
-7553 145 146 147 148 0
-145 7553 0
-146 7553 0
-147 7553 0
-148 7553 0
-7549 7554 0
-7555 0
-7556 0
-7557 0
-7550 7558 0
-7554 7558 0
-7550 -7554 7559 0
-7555 7559 0
-7550 -7555 7560 0
-7556 7560 0
-7550 -7556 7561 0
-7557 7561 0
-7550 -7557 0
-7551 7562 0
-7558 7562 0
-7551 -7558 7563 0
-7559 7563 0
-7551 -7559 7564 0
-7560 7564 0
-7551 -7560 7565 0
-7561 7565 0
-7551 -7561 0
-7552 7566 0
-7562 7566 0
-7552 -7562 7567 0
-7563 7567 0
-7552 -7563 7568 0
-7564 7568 0
-7552 -7564 7569 0
-7565 7569 0
-7552 -7565 0
-7553 -7569 0
-7574 25 26 27 28 29 0
-25 7574 0
-26 7574 0
-27 7574 0
-28 7574 0
-29 7574 0
-7575 55 56 57 58 59 0
-55 7575 0
-56 7575 0
-57 7575 0
-58 7575 0
-59 7575 0
-7576 85 86 87 88 89 0
-85 7576 0
-86 7576 0
-87 7576 0
-88 7576 0
-89 7576 0
-7577 115 116 117 118 119 0
-115 7577 0
-116 7577 0
-117 7577 0
-118 7577 0
-119 7577 0
-7578 145 146 147 148 149 0
-145 7578 0
-146 7578 0
-147 7578 0
-148 7578 0
-149 7578 0
-7579 26 0
-26 7579 0
-7580 56 0
-56 7580 0
-7581 86 0
-86 7581 0
-7582 116 0
-116 7582 0
-7583 146 0
-146 7583 0
-7579 7584 0
-7580 7585 0
-7584 7585 0
-7580 -7584 0
-7581 7586 0
-7585 7586 0
-7581 -7585 0
-7582 7587 0
-7586 7587 0
-7582 -7586 0
-7583 -7587 0
-7589 26 27 0
-26 7589 0
-27 7589 0
-7590 56 57 0
-56 7590 0
-57 7590 0
-7591 86 87 0
-86 7591 0
-87 7591 0
-7592 116 117 0
-116 7592 0
-117 7592 0
-7593 146 147 0
-146 7593 0
-147 7593 0
-7589 7594 0
-7595 0
-7590 7596 0
-7594 7596 0
-7590 -7594 7597 0
-7595 7597 0
-7590 -7595 0
-7591 7598 0
-7596 7598 0
-7591 -7596 7599 0
-7597 7599 0
-7591 -7597 0
-7592 7600 0
-7598 7600 0
-7592 -7598 7601 0
-7599 7601 0
-7592 -7599 0
-7593 -7601 0
-7604 26 27 28 0
-26 7604 0
-27 7604 0
-28 7604 0
-7605 56 57 58 0
-56 7605 0
-57 7605 0
-58 7605 0
-7606 86 87 88 0
-86 7606 0
-87 7606 0
-88 7606 0
-7607 116 117 118 0
-116 7607 0
-117 7607 0
-118 7607 0
-7608 146 147 148 0
-146 7608 0
-147 7608 0
-148 7608 0
-7604 7609 0
-7610 0
-7611 0
-7605 7612 0
-7609 7612 0
-7605 -7609 7613 0
-7610 7613 0
-7605 -7610 7614 0
-7611 7614 0
-7605 -7611 0
-7606 7615 0
-7612 7615 0
-7606 -7612 7616 0
-7613 7616 0
-7606 -7613 7617 0
-7614 7617 0
-7606 -7614 0
-7607 7618 0
-7615 7618 0
-7607 -7615 7619 0
-7616 7619 0
-7607 -7616 7620 0
-7617 7620 0
-7607 -7617 0
-7608 -7620 0
-7624 26 27 28 29 0
-26 7624 0
-27 7624 0
-28 7624 0
-29 7624 0
-7625 56 57 58 59 0
-56 7625 0
-57 7625 0
-58 7625 0
-59 7625 0
-7626 86 87 88 89 0
-86 7626 0
-87 7626 0
-88 7626 0
-89 7626 0
-7627 116 117 118 119 0
-116 7627 0
-117 7627 0
-118 7627 0
-119 7627 0
-7628 146 147 148 149 0
-146 7628 0
-147 7628 0
-148 7628 0
-149 7628 0
-7624 7629 0
-7630 0
-7631 0
-7632 0
-7625 7633 0
-7629 7633 0
-7625 -7629 7634 0
-7630 7634 0
-7625 -7630 7635 0
-7631 7635 0
-7625 -7631 7636 0
-7632 7636 0
-7625 -7632 0
-7626 7637 0
-7633 7637 0
-7626 -7633 7638 0
-7634 7638 0
-7626 -7634 7639 0
-7635 7639 0
-7626 -7635 7640 0
-7636 7640 0
-7626 -7636 0
-7627 7641 0
-7637 7641 0
-7627 -7637 7642 0
-7638 7642 0
-7627 -7638 7643 0
-7639 7643 0
-7627 -7639 7644 0
-7640 7644 0
-7627 -7640 0
-7628 -7644 0
-7649 26 27 28 29 30 0
-26 7649 0
-27 7649 0
-28 7649 0
-29 7649 0
-30 7649 0
-7650 56 57 58 59 60 0
-56 7650 0
-57 7650 0
-58 7650 0
-59 7650 0
-60 7650 0
-7651 86 87 88 89 90 0
-86 7651 0
-87 7651 0
-88 7651 0
-89 7651 0
-90 7651 0
-7652 116 117 118 119 120 0
-116 7652 0
-117 7652 0
-118 7652 0
-119 7652 0
-120 7652 0
-7653 146 147 148 149 150 0
-146 7653 0
-147 7653 0
-148 7653 0
-149 7653 0
-150 7653 0
-7654 27 0
-27 7654 0
-7655 57 0
-57 7655 0
-7656 87 0
-87 7656 0
-7657 117 0
-117 7657 0
-7658 147 0
-147 7658 0
-7654 7659 0
-7655 7660 0
-7659 7660 0
-7655 -7659 0
-7656 7661 0
-7660 7661 0
-7656 -7660 0
-7657 7662 0
-7661 7662 0
-7657 -7661 0
-7658 -7662 0
-7664 27 28 0
-27 7664 0
-28 7664 0
-7665 57 58 0
-57 7665 0
-58 7665 0
-7666 87 88 0
-87 7666 0
-88 7666 0
-7667 117 118 0
-117 7667 0
-118 7667 0
-7668 147 148 0
-147 7668 0
-148 7668 0
-7664 7669 0
-7670 0
-7665 7671 0
-7669 7671 0
-7665 -7669 7672 0
-7670 7672 0
-7665 -7670 0
-7666 7673 0
-7671 7673 0
-7666 -7671 7674 0
-7672 7674 0
-7666 -7672 0
-7667 7675 0
-7673 7675 0
-7667 -7673 7676 0
-7674 7676 0
-7667 -7674 0
-7668 -7676 0
-7679 27 28 29 0
-27 7679 0
-28 7679 0
-29 7679 0
-7680 57 58 59 0
-57 7680 0
-58 7680 0
-59 7680 0
-7681 87 88 89 0
-87 7681 0
-88 7681 0
-89 7681 0
-7682 117 118 119 0
-117 7682 0
-118 7682 0
-119 7682 0
-7683 147 148 149 0
-147 7683 0
-148 7683 0
-149 7683 0
-7679 7684 0
-7685 0
-7686 0
-7680 7687 0
-7684 7687 0
-7680 -7684 7688 0
-7685 7688 0
-7680 -7685 7689 0
-7686 7689 0
-7680 -7686 0
-7681 7690 0
-7687 7690 0
-7681 -7687 7691 0
-7688 7691 0
-7681 -7688 7692 0
-7689 7692 0
-7681 -7689 0
-7682 7693 0
-7690 7693 0
-7682 -7690 7694 0
-7691 7694 0
-7682 -7691 7695 0
-7692 7695 0
-7682 -7692 0
-7683 -7695 0
-7699 27 28 29 30 0
-27 7699 0
-28 7699 0
-29 7699 0
-30 7699 0
-7700 57 58 59 60 0
-57 7700 0
-58 7700 0
-59 7700 0
-60 7700 0
-7701 87 88 89 90 0
-87 7701 0
-88 7701 0
-89 7701 0
-90 7701 0
-7702 117 118 119 120 0
-117 7702 0
-118 7702 0
-119 7702 0
-120 7702 0
-7703 147 148 149 150 0
-147 7703 0
-148 7703 0
-149 7703 0
-150 7703 0
-7699 7704 0
-7705 0
-7706 0
-7707 0
-7700 7708 0
-7704 7708 0
-7700 -7704 7709 0
-7705 7709 0
-7700 -7705 7710 0
-7706 7710 0
-7700 -7706 7711 0
-7707 7711 0
-7700 -7707 0
-7701 7712 0
-7708 7712 0
-7701 -7708 7713 0
-7709 7713 0
-7701 -7709 7714 0
-7710 7714 0
-7701 -7710 7715 0
-7711 7715 0
-7701 -7711 0
-7702 7716 0
-7712 7716 0
-7702 -7712 7717 0
-7713 7717 0
-7702 -7713 7718 0
-7714 7718 0
-7702 -7714 7719 0
-7715 7719 0
-7702 -7715 0
-7703 -7719 0
-7724 28 0
-28 7724 0
-7725 58 0
-58 7725 0
-7726 88 0
-88 7726 0
-7727 118 0
-118 7727 0
-7728 148 0
-148 7728 0
-7724 7729 0
-7725 7730 0
-7729 7730 0
-7725 -7729 0
-7726 7731 0
-7730 7731 0
-7726 -7730 0
-7727 7732 0
-7731 7732 0
-7727 -7731 0
-7728 -7732 0
-7734 28 29 0
-28 7734 0
-29 7734 0
-7735 58 59 0
-58 7735 0
-59 7735 0
-7736 88 89 0
-88 7736 0
-89 7736 0
-7737 118 119 0
-118 7737 0
-119 7737 0
-7738 148 149 0
-148 7738 0
-149 7738 0
-7734 7739 0
-7740 0
-7735 7741 0
-7739 7741 0
-7735 -7739 7742 0
-7740 7742 0
-7735 -7740 0
-7736 7743 0
-7741 7743 0
-7736 -7741 7744 0
-7742 7744 0
-7736 -7742 0
-7737 7745 0
-7743 7745 0
-7737 -7743 7746 0
-7744 7746 0
-7737 -7744 0
-7738 -7746 0
-7749 28 29 30 0
-28 7749 0
-29 7749 0
-30 7749 0
-7750 58 59 60 0
-58 7750 0
-59 7750 0
-60 7750 0
-7751 88 89 90 0
-88 7751 0
-89 7751 0
-90 7751 0
-7752 118 119 120 0
-118 7752 0
-119 7752 0
-120 7752 0
-7753 148 149 150 0
-148 7753 0
-149 7753 0
-150 7753 0
-7749 7754 0
-7755 0
-7756 0
-7750 7757 0
-7754 7757 0
-7750 -7754 7758 0
-7755 7758 0
-7750 -7755 7759 0
-7756 7759 0
-7750 -7756 0
-7751 7760 0
-7757 7760 0
-7751 -7757 7761 0
-7758 7761 0
-7751 -7758 7762 0
-7759 7762 0
-7751 -7759 0
-7752 7763 0
-7760 7763 0
-7752 -7760 7764 0
-7761 7764 0
-7752 -7761 7765 0
-7762 7765 0
-7752 -7762 0
-7753 -7765 0
-7769 29 0
-29 7769 0
-7770 59 0
-59 7770 0
-7771 89 0
-89 7771 0
-7772 119 0
-119 7772 0
-7773 149 0
-149 7773 0
-7769 7774 0
-7770 7775 0
-7774 7775 0
-7770 -7774 0
-7771 7776 0
-7775 7776 0
-7771 -7775 0
-7772 7777 0
-7776 7777 0
-7772 -7776 0
-7773 -7777 0
-7779 29 30 0
-29 7779 0
-30 7779 0
-7780 59 60 0
-59 7780 0
-60 7780 0
-7781 89 90 0
-89 7781 0
-90 7781 0
-7782 119 120 0
-119 7782 0
-120 7782 0
-7783 149 150 0
-149 7783 0
-150 7783 0
-7779 7784 0
-7785 0
-7780 7786 0
-7784 7786 0
-7780 -7784 7787 0
-7785 7787 0
-7780 -7785 0
-7781 7788 0
-7786 7788 0
-7781 -7786 7789 0
-7787 7789 0
-7781 -7787 0
-7782 7790 0
-7788 7790 0
-7782 -7788 7791 0
-7789 7791 0
-7782 -7789 0
-7783 -7791 0
-7794 30 0
-30 7794 0
-7795 60 0
-60 7795 0
-7796 90 0
-90 7796 0
-7797 120 0
-120 7797 0
-7798 150 0
-150 7798 0
-7794 7799 0
-7795 7800 0
-7799 7800 0
-7795 -7799 0
-7796 7801 0
-7800 7801 0
-7796 -7800 0
-7797 7802 0
-7801 7802 0
-7797 -7801 0
-7798 -7802 0
-7804 31 0
-31 7804 0
-7805 61 0
-61 7805 0
-7806 91 0
-91 7806 0
-7807 121 0
-121 7807 0
-7808 151 0
-151 7808 0
-7809 181 0
-181 7809 0
-7804 7810 0
-7805 7811 0
-7810 7811 0
-7805 -7810 0
-7806 7812 0
-7811 7812 0
-7806 -7811 0
-7807 7813 0
-7812 7813 0
-7807 -7812 0
-7808 7814 0
-7813 7814 0
-7808 -7813 0
-7809 -7814 0
-7816 31 32 0
-31 7816 0
-32 7816 0
-7817 61 62 0
-61 7817 0
-62 7817 0
-7818 91 92 0
-91 7818 0
-92 7818 0
-7819 121 122 0
-121 7819 0
-122 7819 0
-7820 151 152 0
-151 7820 0
-152 7820 0
-7821 181 182 0
-181 7821 0
-182 7821 0
-7816 7822 0
-7823 0
-7817 7824 0
-7822 7824 0
-7817 -7822 7825 0
-7823 7825 0
-7817 -7823 0
-7818 7826 0
-7824 7826 0
-7818 -7824 7827 0
-7825 7827 0
-7818 -7825 0
-7819 7828 0
-7826 7828 0
-7819 -7826 7829 0
-7827 7829 0
-7819 -7827 0
-7820 7830 0
-7828 7830 0
-7820 -7828 7831 0
-7829 7831 0
-7820 -7829 0
-7821 -7831 0
-7834 31 32 33 0
-31 7834 0
-32 7834 0
-33 7834 0
-7835 61 62 63 0
-61 7835 0
-62 7835 0
-63 7835 0
-7836 91 92 93 0
-91 7836 0
-92 7836 0
-93 7836 0
-7837 121 122 123 0
-121 7837 0
-122 7837 0
-123 7837 0
-7838 151 152 153 0
-151 7838 0
-152 7838 0
-153 7838 0
-7839 181 182 183 0
-181 7839 0
-182 7839 0
-183 7839 0
-7834 7840 0
-7841 0
-7842 0
-7835 7843 0
-7840 7843 0
-7835 -7840 7844 0
-7841 7844 0
-7835 -7841 7845 0
-7842 7845 0
-7835 -7842 0
-7836 7846 0
-7843 7846 0
-7836 -7843 7847 0
-7844 7847 0
-7836 -7844 7848 0
-7845 7848 0
-7836 -7845 0
-7837 7849 0
-7846 7849 0
-7837 -7846 7850 0
-7847 7850 0
-7837 -7847 7851 0
-7848 7851 0
-7837 -7848 0
-7838 7852 0
-7849 7852 0
-7838 -7849 7853 0
-7850 7853 0
-7838 -7850 7854 0
-7851 7854 0
-7838 -7851 0
-7839 -7854 0
-7858 31 32 33 34 0
-31 7858 0
-32 7858 0
-33 7858 0
-34 7858 0
-7859 61 62 63 64 0
-61 7859 0
-62 7859 0
-63 7859 0
-64 7859 0
-7860 91 92 93 94 0
-91 7860 0
-92 7860 0
-93 7860 0
-94 7860 0
-7861 121 122 123 124 0
-121 7861 0
-122 7861 0
-123 7861 0
-124 7861 0
-7862 151 152 153 154 0
-151 7862 0
-152 7862 0
-153 7862 0
-154 7862 0
-7863 181 182 183 184 0
-181 7863 0
-182 7863 0
-183 7863 0
-184 7863 0
-7858 7864 0
-7865 0
-7866 0
-7867 0
-7859 7868 0
-7864 7868 0
-7859 -7864 7869 0
-7865 7869 0
-7859 -7865 7870 0
-7866 7870 0
-7859 -7866 7871 0
-7867 7871 0
-7859 -7867 0
-7860 7872 0
-7868 7872 0
-7860 -7868 7873 0
-7869 7873 0
-7860 -7869 7874 0
-7870 7874 0
-7860 -7870 7875 0
-7871 7875 0
-7860 -7871 0
-7861 7876 0
-7872 7876 0
-7861 -7872 7877 0
-7873 7877 0
-7861 -7873 7878 0
-7874 7878 0
-7861 -7874 7879 0
-7875 7879 0
-7861 -7875 0
-7862 7880 0
-7876 7880 0
-7862 -7876 7881 0
-7877 7881 0
-7862 -7877 7882 0
-7878 7882 0
-7862 -7878 7883 0
-7879 7883 0
-7862 -7879 0
-7863 -7883 0
-7888 31 32 33 34 35 0
-31 7888 0
-32 7888 0
-33 7888 0
-34 7888 0
-35 7888 0
-7889 61 62 63 64 65 0
-61 7889 0
-62 7889 0
-63 7889 0
-64 7889 0
-65 7889 0
-7890 91 92 93 94 95 0
-91 7890 0
-92 7890 0
-93 7890 0
-94 7890 0
-95 7890 0
-7891 121 122 123 124 125 0
-121 7891 0
-122 7891 0
-123 7891 0
-124 7891 0
-125 7891 0
-7892 151 152 153 154 155 0
-151 7892 0
-152 7892 0
-153 7892 0
-154 7892 0
-155 7892 0
-7893 181 182 183 184 185 0
-181 7893 0
-182 7893 0
-183 7893 0
-184 7893 0
-185 7893 0
-7888 7894 0
-7895 0
-7896 0
-7897 0
-7898 0
-7889 7899 0
-7894 7899 0
-7889 -7894 7900 0
-7895 7900 0
-7889 -7895 7901 0
-7896 7901 0
-7889 -7896 7902 0
-7897 7902 0
-7889 -7897 7903 0
-7898 7903 0
-7889 -7898 0
-7890 7904 0
-7899 7904 0
-7890 -7899 7905 0
-7900 7905 0
-7890 -7900 7906 0
-7901 7906 0
-7890 -7901 7907 0
-7902 7907 0
-7890 -7902 7908 0
-7903 7908 0
-7890 -7903 0
-7891 7909 0
-7904 7909 0
-7891 -7904 7910 0
-7905 7910 0
-7891 -7905 7911 0
-7906 7911 0
-7891 -7906 7912 0
-7907 7912 0
-7891 -7907 7913 0
-7908 7913 0
-7891 -7908 0
-7892 7914 0
-7909 7914 0
-7892 -7909 7915 0
-7910 7915 0
-7892 -7910 7916 0
-7911 7916 0
-7892 -7911 7917 0
-7912 7917 0
-7892 -7912 7918 0
-7913 7918 0
-7892 -7913 0
-7893 -7918 0
-7924 31 32 33 34 35 36 0
-31 7924 0
-32 7924 0
-33 7924 0
-34 7924 0
-35 7924 0
-36 7924 0
-7925 61 62 63 64 65 66 0
-61 7925 0
-62 7925 0
-63 7925 0
-64 7925 0
-65 7925 0
-66 7925 0
-7926 91 92 93 94 95 96 0
-91 7926 0
-92 7926 0
-93 7926 0
-94 7926 0
-95 7926 0
-96 7926 0
-7927 121 122 123 124 125 126 0
-121 7927 0
-122 7927 0
-123 7927 0
-124 7927 0
-125 7927 0
-126 7927 0
-7928 151 152 153 154 155 156 0
-151 7928 0
-152 7928 0
-153 7928 0
-154 7928 0
-155 7928 0
-156 7928 0
-7929 181 182 183 184 185 186 0
-181 7929 0
-182 7929 0
-183 7929 0
-184 7929 0
-185 7929 0
-186 7929 0
-7930 32 0
-32 7930 0
-7931 62 0
-62 7931 0
-7932 92 0
-92 7932 0
-7933 122 0
-122 7933 0
-7934 152 0
-152 7934 0
-7935 182 0
-182 7935 0
-7930 7936 0
-7931 7937 0
-7936 7937 0
-7931 -7936 0
-7932 7938 0
-7937 7938 0
-7932 -7937 0
-7933 7939 0
-7938 7939 0
-7933 -7938 0
-7934 7940 0
-7939 7940 0
-7934 -7939 0
-7935 -7940 0
-7942 32 33 0
-32 7942 0
-33 7942 0
-7943 62 63 0
-62 7943 0
-63 7943 0
-7944 92 93 0
-92 7944 0
-93 7944 0
-7945 122 123 0
-122 7945 0
-123 7945 0
-7946 152 153 0
-152 7946 0
-153 7946 0
-7947 182 183 0
-182 7947 0
-183 7947 0
-7942 7948 0
-7949 0
-7943 7950 0
-7948 7950 0
-7943 -7948 7951 0
-7949 7951 0
-7943 -7949 0
-7944 7952 0
-7950 7952 0
-7944 -7950 7953 0
-7951 7953 0
-7944 -7951 0
-7945 7954 0
-7952 7954 0
-7945 -7952 7955 0
-7953 7955 0
-7945 -7953 0
-7946 7956 0
-7954 7956 0
-7946 -7954 7957 0
-7955 7957 0
-7946 -7955 0
-7947 -7957 0
-7960 32 33 34 0
-32 7960 0
-33 7960 0
-34 7960 0
-7961 62 63 64 0
-62 7961 0
-63 7961 0
-64 7961 0
-7962 92 93 94 0
-92 7962 0
-93 7962 0
-94 7962 0
-7963 122 123 124 0
-122 7963 0
-123 7963 0
-124 7963 0
-7964 152 153 154 0
-152 7964 0
-153 7964 0
-154 7964 0
-7965 182 183 184 0
-182 7965 0
-183 7965 0
-184 7965 0
-7960 7966 0
-7967 0
-7968 0
-7961 7969 0
-7966 7969 0
-7961 -7966 7970 0
-7967 7970 0
-7961 -7967 7971 0
-7968 7971 0
-7961 -7968 0
-7962 7972 0
-7969 7972 0
-7962 -7969 7973 0
-7970 7973 0
-7962 -7970 7974 0
-7971 7974 0
-7962 -7971 0
-7963 7975 0
-7972 7975 0
-7963 -7972 7976 0
-7973 7976 0
-7963 -7973 7977 0
-7974 7977 0
-7963 -7974 0
-7964 7978 0
-7975 7978 0
-7964 -7975 7979 0
-7976 7979 0
-7964 -7976 7980 0
-7977 7980 0
-7964 -7977 0
-7965 -7980 0
-7984 32 33 34 35 0
-32 7984 0
-33 7984 0
-34 7984 0
-35 7984 0
-7985 62 63 64 65 0
-62 7985 0
-63 7985 0
-64 7985 0
-65 7985 0
-7986 92 93 94 95 0
-92 7986 0
-93 7986 0
-94 7986 0
-95 7986 0
-7987 122 123 124 125 0
-122 7987 0
-123 7987 0
-124 7987 0
-125 7987 0
-7988 152 153 154 155 0
-152 7988 0
-153 7988 0
-154 7988 0
-155 7988 0
-7989 182 183 184 185 0
-182 7989 0
-183 7989 0
-184 7989 0
-185 7989 0
-7984 7990 0
-7991 0
-7992 0
-7993 0
-7985 7994 0
-7990 7994 0
-7985 -7990 7995 0
-7991 7995 0
-7985 -7991 7996 0
-7992 7996 0
-7985 -7992 7997 0
-7993 7997 0
-7985 -7993 0
-7986 7998 0
-7994 7998 0
-7986 -7994 7999 0
-7995 7999 0
-7986 -7995 8000 0
-7996 8000 0
-7986 -7996 8001 0
-7997 8001 0
-7986 -7997 0
-7987 8002 0
-7998 8002 0
-7987 -7998 8003 0
-7999 8003 0
-7987 -7999 8004 0
-8000 8004 0
-7987 -8000 8005 0
-8001 8005 0
-7987 -8001 0
-7988 8006 0
-8002 8006 0
-7988 -8002 8007 0
-8003 8007 0
-7988 -8003 8008 0
-8004 8008 0
-7988 -8004 8009 0
-8005 8009 0
-7988 -8005 0
-7989 -8009 0
-8014 32 33 34 35 36 0
-32 8014 0
-33 8014 0
-34 8014 0
-35 8014 0
-36 8014 0
-8015 62 63 64 65 66 0
-62 8015 0
-63 8015 0
-64 8015 0
-65 8015 0
-66 8015 0
-8016 92 93 94 95 96 0
-92 8016 0
-93 8016 0
-94 8016 0
-95 8016 0
-96 8016 0
-8017 122 123 124 125 126 0
-122 8017 0
-123 8017 0
-124 8017 0
-125 8017 0
-126 8017 0
-8018 152 153 154 155 156 0
-152 8018 0
-153 8018 0
-154 8018 0
-155 8018 0
-156 8018 0
-8019 182 183 184 185 186 0
-182 8019 0
-183 8019 0
-184 8019 0
-185 8019 0
-186 8019 0
-8014 8020 0
-8021 0
-8022 0
-8023 0
-8024 0
-8015 8025 0
-8020 8025 0
-8015 -8020 8026 0
-8021 8026 0
-8015 -8021 8027 0
-8022 8027 0
-8015 -8022 8028 0
-8023 8028 0
-8015 -8023 8029 0
-8024 8029 0
-8015 -8024 0
-8016 8030 0
-8025 8030 0
-8016 -8025 8031 0
-8026 8031 0
-8016 -8026 8032 0
-8027 8032 0
-8016 -8027 8033 0
-8028 8033 0
-8016 -8028 8034 0
-8029 8034 0
-8016 -8029 0
-8017 8035 0
-8030 8035 0
-8017 -8030 8036 0
-8031 8036 0
-8017 -8031 8037 0
-8032 8037 0
-8017 -8032 8038 0
-8033 8038 0
-8017 -8033 8039 0
-8034 8039 0
-8017 -8034 0
-8018 8040 0
-8035 8040 0
-8018 -8035 8041 0
-8036 8041 0
-8018 -8036 8042 0
-8037 8042 0
-8018 -8037 8043 0
-8038 8043 0
-8018 -8038 8044 0
-8039 8044 0
-8018 -8039 0
-8019 -8044 0
-8050 33 0
-33 8050 0
-8051 63 0
-63 8051 0
-8052 93 0
-93 8052 0
-8053 123 0
-123 8053 0
-8054 153 0
-153 8054 0
-8055 183 0
-183 8055 0
-8050 8056 0
-8051 8057 0
-8056 8057 0
-8051 -8056 0
-8052 8058 0
-8057 8058 0
-8052 -8057 0
-8053 8059 0
-8058 8059 0
-8053 -8058 0
-8054 8060 0
-8059 8060 0
-8054 -8059 0
-8055 -8060 0
-8062 33 34 0
-33 8062 0
-34 8062 0
-8063 63 64 0
-63 8063 0
-64 8063 0
-8064 93 94 0
-93 8064 0
-94 8064 0
-8065 123 124 0
-123 8065 0
-124 8065 0
-8066 153 154 0
-153 8066 0
-154 8066 0
-8067 183 184 0
-183 8067 0
-184 8067 0
-8062 8068 0
-8069 0
-8063 8070 0
-8068 8070 0
-8063 -8068 8071 0
-8069 8071 0
-8063 -8069 0
-8064 8072 0
-8070 8072 0
-8064 -8070 8073 0
-8071 8073 0
-8064 -8071 0
-8065 8074 0
-8072 8074 0
-8065 -8072 8075 0
-8073 8075 0
-8065 -8073 0
-8066 8076 0
-8074 8076 0
-8066 -8074 8077 0
-8075 8077 0
-8066 -8075 0
-8067 -8077 0
-8080 33 34 35 0
-33 8080 0
-34 8080 0
-35 8080 0
-8081 63 64 65 0
-63 8081 0
-64 8081 0
-65 8081 0
-8082 93 94 95 0
-93 8082 0
-94 8082 0
-95 8082 0
-8083 123 124 125 0
-123 8083 0
-124 8083 0
-125 8083 0
-8084 153 154 155 0
-153 8084 0
-154 8084 0
-155 8084 0
-8085 183 184 185 0
-183 8085 0
-184 8085 0
-185 8085 0
-8080 8086 0
-8087 0
-8088 0
-8081 8089 0
-8086 8089 0
-8081 -8086 8090 0
-8087 8090 0
-8081 -8087 8091 0
-8088 8091 0
-8081 -8088 0
-8082 8092 0
-8089 8092 0
-8082 -8089 8093 0
-8090 8093 0
-8082 -8090 8094 0
-8091 8094 0
-8082 -8091 0
-8083 8095 0
-8092 8095 0
-8083 -8092 8096 0
-8093 8096 0
-8083 -8093 8097 0
-8094 8097 0
-8083 -8094 0
-8084 8098 0
-8095 8098 0
-8084 -8095 8099 0
-8096 8099 0
-8084 -8096 8100 0
-8097 8100 0
-8084 -8097 0
-8085 -8100 0
-8104 33 34 35 36 0
-33 8104 0
-34 8104 0
-35 8104 0
-36 8104 0
-8105 63 64 65 66 0
-63 8105 0
-64 8105 0
-65 8105 0
-66 8105 0
-8106 93 94 95 96 0
-93 8106 0
-94 8106 0
-95 8106 0
-96 8106 0
-8107 123 124 125 126 0
-123 8107 0
-124 8107 0
-125 8107 0
-126 8107 0
-8108 153 154 155 156 0
-153 8108 0
-154 8108 0
-155 8108 0
-156 8108 0
-8109 183 184 185 186 0
-183 8109 0
-184 8109 0
-185 8109 0
-186 8109 0
-8104 8110 0
-8111 0
-8112 0
-8113 0
-8105 8114 0
-8110 8114 0
-8105 -8110 8115 0
-8111 8115 0
-8105 -8111 8116 0
-8112 8116 0
-8105 -8112 8117 0
-8113 8117 0
-8105 -8113 0
-8106 8118 0
-8114 8118 0
-8106 -8114 8119 0
-8115 8119 0
-8106 -8115 8120 0
-8116 8120 0
-8106 -8116 8121 0
-8117 8121 0
-8106 -8117 0
-8107 8122 0
-8118 8122 0
-8107 -8118 8123 0
-8119 8123 0
-8107 -8119 8124 0
-8120 8124 0
-8107 -8120 8125 0
-8121 8125 0
-8107 -8121 0
-8108 8126 0
-8122 8126 0
-8108 -8122 8127 0
-8123 8127 0
-8108 -8123 8128 0
-8124 8128 0
-8108 -8124 8129 0
-8125 8129 0
-8108 -8125 0
-8109 -8129 0
-8134 34 0
-34 8134 0
-8135 64 0
-64 8135 0
-8136 94 0
-94 8136 0
-8137 124 0
-124 8137 0
-8138 154 0
-154 8138 0
-8139 184 0
-184 8139 0
-8134 8140 0
-8135 8141 0
-8140 8141 0
-8135 -8140 0
-8136 8142 0
-8141 8142 0
-8136 -8141 0
-8137 8143 0
-8142 8143 0
-8137 -8142 0
-8138 8144 0
-8143 8144 0
-8138 -8143 0
-8139 -8144 0
-8146 34 35 0
-34 8146 0
-35 8146 0
-8147 64 65 0
-64 8147 0
-65 8147 0
-8148 94 95 0
-94 8148 0
-95 8148 0
-8149 124 125 0
-124 8149 0
-125 8149 0
-8150 154 155 0
-154 8150 0
-155 8150 0
-8151 184 185 0
-184 8151 0
-185 8151 0
-8146 8152 0
-8153 0
-8147 8154 0
-8152 8154 0
-8147 -8152 8155 0
-8153 8155 0
-8147 -8153 0
-8148 8156 0
-8154 8156 0
-8148 -8154 8157 0
-8155 8157 0
-8148 -8155 0
-8149 8158 0
-8156 8158 0
-8149 -8156 8159 0
-8157 8159 0
-8149 -8157 0
-8150 8160 0
-8158 8160 0
-8150 -8158 8161 0
-8159 8161 0
-8150 -8159 0
-8151 -8161 0
-8164 34 35 36 0
-34 8164 0
-35 8164 0
-36 8164 0
-8165 64 65 66 0
-64 8165 0
-65 8165 0
-66 8165 0
-8166 94 95 96 0
-94 8166 0
-95 8166 0
-96 8166 0
-8167 124 125 126 0
-124 8167 0
-125 8167 0
-126 8167 0
-8168 154 155 156 0
-154 8168 0
-155 8168 0
-156 8168 0
-8169 184 185 186 0
-184 8169 0
-185 8169 0
-186 8169 0
-8164 8170 0
-8171 0
-8172 0
-8165 8173 0
-8170 8173 0
-8165 -8170 8174 0
-8171 8174 0
-8165 -8171 8175 0
-8172 8175 0
-8165 -8172 0
-8166 8176 0
-8173 8176 0
-8166 -8173 8177 0
-8174 8177 0
-8166 -8174 8178 0
-8175 8178 0
-8166 -8175 0
-8167 8179 0
-8176 8179 0
-8167 -8176 8180 0
-8177 8180 0
-8167 -8177 8181 0
-8178 8181 0
-8167 -8178 0
-8168 8182 0
-8179 8182 0
-8168 -8179 8183 0
-8180 8183 0
-8168 -8180 8184 0
-8181 8184 0
-8168 -8181 0
-8169 -8184 0
-8188 35 0
-35 8188 0
-8189 65 0
-65 8189 0
-8190 95 0
-95 8190 0
-8191 125 0
-125 8191 0
-8192 155 0
-155 8192 0
-8193 185 0
-185 8193 0
-8188 8194 0
-8189 8195 0
-8194 8195 0
-8189 -8194 0
-8190 8196 0
-8195 8196 0
-8190 -8195 0
-8191 8197 0
-8196 8197 0
-8191 -8196 0
-8192 8198 0
-8197 8198 0
-8192 -8197 0
-8193 -8198 0
-8200 35 36 0
-35 8200 0
-36 8200 0
-8201 65 66 0
-65 8201 0
-66 8201 0
-8202 95 96 0
-95 8202 0
-96 8202 0
-8203 125 126 0
-125 8203 0
-126 8203 0
-8204 155 156 0
-155 8204 0
-156 8204 0
-8205 185 186 0
-185 8205 0
-186 8205 0
-8200 8206 0
-8207 0
-8201 8208 0
-8206 8208 0
-8201 -8206 8209 0
-8207 8209 0
-8201 -8207 0
-8202 8210 0
-8208 8210 0
-8202 -8208 8211 0
-8209 8211 0
-8202 -8209 0
-8203 8212 0
-8210 8212 0
-8203 -8210 8213 0
-8211 8213 0
-8203 -8211 0
-8204 8214 0
-8212 8214 0
-8204 -8212 8215 0
-8213 8215 0
-8204 -8213 0
-8205 -8215 0
-8218 36 0
-36 8218 0
-8219 66 0
-66 8219 0
-8220 96 0
-96 8220 0
-8221 126 0
-126 8221 0
-8222 156 0
-156 8222 0
-8223 186 0
-186 8223 0
-8218 8224 0
-8219 8225 0
-8224 8225 0
-8219 -8224 0
-8220 8226 0
-8225 8226 0
-8220 -8225 0
-8221 8227 0
-8226 8227 0
-8221 -8226 0
-8222 8228 0
-8227 8228 0
-8222 -8227 0
-8223 -8228 0
-8230 67 0
-67 8230 0
-8231 97 0
-97 8231 0
-8232 127 0
-127 8232 0
-8233 157 0
-157 8233 0
-8234 187 0
-187 8234 0
-8230 8235 0
-8231 8236 0
-8235 8236 0
-8231 -8235 0
-8232 8237 0
-8236 8237 0
-8232 -8236 0
-8233 8238 0
-8237 8238 0
-8233 -8237 0
-8234 -8238 0
-8240 67 68 0
-67 8240 0
-68 8240 0
-8241 97 98 0
-97 8241 0
-98 8241 0
-8242 127 128 0
-127 8242 0
-128 8242 0
-8243 157 158 0
-157 8243 0
-158 8243 0
-8244 187 188 0
-187 8244 0
-188 8244 0
-8240 8245 0
-8246 0
-8241 8247 0
-8245 8247 0
-8241 -8245 8248 0
-8246 8248 0
-8241 -8246 0
-8242 8249 0
-8247 8249 0
-8242 -8247 8250 0
-8248 8250 0
-8242 -8248 0
-8243 8251 0
-8249 8251 0
-8243 -8249 8252 0
-8250 8252 0
-8243 -8250 0
-8244 -8252 0
-8255 67 68 69 0
-67 8255 0
-68 8255 0
-69 8255 0
-8256 97 98 99 0
-97 8256 0
-98 8256 0
-99 8256 0
-8257 127 128 129 0
-127 8257 0
-128 8257 0
-129 8257 0
-8258 157 158 159 0
-157 8258 0
-158 8258 0
-159 8258 0
-8259 187 188 189 0
-187 8259 0
-188 8259 0
-189 8259 0
-8255 8260 0
-8261 0
-8262 0
-8256 8263 0
-8260 8263 0
-8256 -8260 8264 0
-8261 8264 0
-8256 -8261 8265 0
-8262 8265 0
-8256 -8262 0
-8257 8266 0
-8263 8266 0
-8257 -8263 8267 0
-8264 8267 0
-8257 -8264 8268 0
-8265 8268 0
-8257 -8265 0
-8258 8269 0
-8266 8269 0
-8258 -8266 8270 0
-8267 8270 0
-8258 -8267 8271 0
-8268 8271 0
-8258 -8268 0
-8259 -8271 0
-8275 67 68 69 70 0
-67 8275 0
-68 8275 0
-69 8275 0
-70 8275 0
-8276 97 98 99 100 0
-97 8276 0
-98 8276 0
-99 8276 0
-100 8276 0
-8277 127 128 129 130 0
-127 8277 0
-128 8277 0
-129 8277 0
-130 8277 0
-8278 157 158 159 160 0
-157 8278 0
-158 8278 0
-159 8278 0
-160 8278 0
-8279 187 188 189 190 0
-187 8279 0
-188 8279 0
-189 8279 0
-190 8279 0
-8275 8280 0
-8281 0
-8282 0
-8283 0
-8276 8284 0
-8280 8284 0
-8276 -8280 8285 0
-8281 8285 0
-8276 -8281 8286 0
-8282 8286 0
-8276 -8282 8287 0
-8283 8287 0
-8276 -8283 0
-8277 8288 0
-8284 8288 0
-8277 -8284 8289 0
-8285 8289 0
-8277 -8285 8290 0
-8286 8290 0
-8277 -8286 8291 0
-8287 8291 0
-8277 -8287 0
-8278 8292 0
-8288 8292 0
-8278 -8288 8293 0
-8289 8293 0
-8278 -8289 8294 0
-8290 8294 0
-8278 -8290 8295 0
-8291 8295 0
-8278 -8291 0
-8279 -8295 0
-8300 67 68 69 70 71 0
-67 8300 0
-68 8300 0
-69 8300 0
-70 8300 0
-71 8300 0
-8301 97 98 99 100 101 0
-97 8301 0
-98 8301 0
-99 8301 0
-100 8301 0
-101 8301 0
-8302 127 128 129 130 131 0
-127 8302 0
-128 8302 0
-129 8302 0
-130 8302 0
-131 8302 0
-8303 157 158 159 160 161 0
-157 8303 0
-158 8303 0
-159 8303 0
-160 8303 0
-161 8303 0
-8304 187 188 189 190 191 0
-187 8304 0
-188 8304 0
-189 8304 0
-190 8304 0
-191 8304 0
-8305 68 0
-68 8305 0
-8306 98 0
-98 8306 0
-8307 128 0
-128 8307 0
-8308 158 0
-158 8308 0
-8309 188 0
-188 8309 0
-8305 8310 0
-8306 8311 0
-8310 8311 0
-8306 -8310 0
-8307 8312 0
-8311 8312 0
-8307 -8311 0
-8308 8313 0
-8312 8313 0
-8308 -8312 0
-8309 -8313 0
-8315 68 69 0
-68 8315 0
-69 8315 0
-8316 98 99 0
-98 8316 0
-99 8316 0
-8317 128 129 0
-128 8317 0
-129 8317 0
-8318 158 159 0
-158 8318 0
-159 8318 0
-8319 188 189 0
-188 8319 0
-189 8319 0
-8315 8320 0
-8321 0
-8316 8322 0
-8320 8322 0
-8316 -8320 8323 0
-8321 8323 0
-8316 -8321 0
-8317 8324 0
-8322 8324 0
-8317 -8322 8325 0
-8323 8325 0
-8317 -8323 0
-8318 8326 0
-8324 8326 0
-8318 -8324 8327 0
-8325 8327 0
-8318 -8325 0
-8319 -8327 0
-8330 68 69 70 0
-68 8330 0
-69 8330 0
-70 8330 0
-8331 98 99 100 0
-98 8331 0
-99 8331 0
-100 8331 0
-8332 128 129 130 0
-128 8332 0
-129 8332 0
-130 8332 0
-8333 158 159 160 0
-158 8333 0
-159 8333 0
-160 8333 0
-8334 188 189 190 0
-188 8334 0
-189 8334 0
-190 8334 0
-8330 8335 0
-8336 0
-8337 0
-8331 8338 0
-8335 8338 0
-8331 -8335 8339 0
-8336 8339 0
-8331 -8336 8340 0
-8337 8340 0
-8331 -8337 0
-8332 8341 0
-8338 8341 0
-8332 -8338 8342 0
-8339 8342 0
-8332 -8339 8343 0
-8340 8343 0
-8332 -8340 0
-8333 8344 0
-8341 8344 0
-8333 -8341 8345 0
-8342 8345 0
-8333 -8342 8346 0
-8343 8346 0
-8333 -8343 0
-8334 -8346 0
-8350 68 69 70 71 0
-68 8350 0
-69 8350 0
-70 8350 0
-71 8350 0
-8351 98 99 100 101 0
-98 8351 0
-99 8351 0
-100 8351 0
-101 8351 0
-8352 128 129 130 131 0
-128 8352 0
-129 8352 0
-130 8352 0
-131 8352 0
-8353 158 159 160 161 0
-158 8353 0
-159 8353 0
-160 8353 0
-161 8353 0
-8354 188 189 190 191 0
-188 8354 0
-189 8354 0
-190 8354 0
-191 8354 0
-8350 8355 0
-8356 0
-8357 0
-8358 0
-8351 8359 0
-8355 8359 0
-8351 -8355 8360 0
-8356 8360 0
-8351 -8356 8361 0
-8357 8361 0
-8351 -8357 8362 0
-8358 8362 0
-8351 -8358 0
-8352 8363 0
-8359 8363 0
-8352 -8359 8364 0
-8360 8364 0
-8352 -8360 8365 0
-8361 8365 0
-8352 -8361 8366 0
-8362 8366 0
-8352 -8362 0
-8353 8367 0
-8363 8367 0
-8353 -8363 8368 0
-8364 8368 0
-8353 -8364 8369 0
-8365 8369 0
-8353 -8365 8370 0
-8366 8370 0
-8353 -8366 0
-8354 -8370 0
-8375 68 69 70 71 72 0
-68 8375 0
-69 8375 0
-70 8375 0
-71 8375 0
-72 8375 0
-8376 98 99 100 101 102 0
-98 8376 0
-99 8376 0
-100 8376 0
-101 8376 0
-102 8376 0
-8377 128 129 130 131 132 0
-128 8377 0
-129 8377 0
-130 8377 0
-131 8377 0
-132 8377 0
-8378 158 159 160 161 162 0
-158 8378 0
-159 8378 0
-160 8378 0
-161 8378 0
-162 8378 0
-8379 188 189 190 191 192 0
-188 8379 0
-189 8379 0
-190 8379 0
-191 8379 0
-192 8379 0
-8380 69 0
-69 8380 0
-8381 99 0
-99 8381 0
-8382 129 0
-129 8382 0
-8383 159 0
-159 8383 0
-8384 189 0
-189 8384 0
-8380 8385 0
-8381 8386 0
-8385 8386 0
-8381 -8385 0
-8382 8387 0
-8386 8387 0
-8382 -8386 0
-8383 8388 0
-8387 8388 0
-8383 -8387 0
-8384 -8388 0
-8390 69 70 0
-69 8390 0
-70 8390 0
-8391 99 100 0
-99 8391 0
-100 8391 0
-8392 129 130 0
-129 8392 0
-130 8392 0
-8393 159 160 0
-159 8393 0
-160 8393 0
-8394 189 190 0
-189 8394 0
-190 8394 0
-8390 8395 0
-8396 0
-8391 8397 0
-8395 8397 0
-8391 -8395 8398 0
-8396 8398 0
-8391 -8396 0
-8392 8399 0
-8397 8399 0
-8392 -8397 8400 0
-8398 8400 0
-8392 -8398 0
-8393 8401 0
-8399 8401 0
-8393 -8399 8402 0
-8400 8402 0
-8393 -8400 0
-8394 -8402 0
-8405 69 70 71 0
-69 8405 0
-70 8405 0
-71 8405 0
-8406 99 100 101 0
-99 8406 0
-100 8406 0
-101 8406 0
-8407 129 130 131 0
-129 8407 0
-130 8407 0
-131 8407 0
-8408 159 160 161 0
-159 8408 0
-160 8408 0
-161 8408 0
-8409 189 190 191 0
-189 8409 0
-190 8409 0
-191 8409 0
-8405 8410 0
-8411 0
-8412 0
-8406 8413 0
-8410 8413 0
-8406 -8410 8414 0
-8411 8414 0
-8406 -8411 8415 0
-8412 8415 0
-8406 -8412 0
-8407 8416 0
-8413 8416 0
-8407 -8413 8417 0
-8414 8417 0
-8407 -8414 8418 0
-8415 8418 0
-8407 -8415 0
-8408 8419 0
-8416 8419 0
-8408 -8416 8420 0
-8417 8420 0
-8408 -8417 8421 0
-8418 8421 0
-8408 -8418 0
-8409 -8421 0
-8425 69 70 71 72 0
-69 8425 0
-70 8425 0
-71 8425 0
-72 8425 0
-8426 99 100 101 102 0
-99 8426 0
-100 8426 0
-101 8426 0
-102 8426 0
-8427 129 130 131 132 0
-129 8427 0
-130 8427 0
-131 8427 0
-132 8427 0
-8428 159 160 161 162 0
-159 8428 0
-160 8428 0
-161 8428 0
-162 8428 0
-8429 189 190 191 192 0
-189 8429 0
-190 8429 0
-191 8429 0
-192 8429 0
-8425 8430 0
-8431 0
-8432 0
-8433 0
-8426 8434 0
-8430 8434 0
-8426 -8430 8435 0
-8431 8435 0
-8426 -8431 8436 0
-8432 8436 0
-8426 -8432 8437 0
-8433 8437 0
-8426 -8433 0
-8427 8438 0
-8434 8438 0
-8427 -8434 8439 0
-8435 8439 0
-8427 -8435 8440 0
-8436 8440 0
-8427 -8436 8441 0
-8437 8441 0
-8427 -8437 0
-8428 8442 0
-8438 8442 0
-8428 -8438 8443 0
-8439 8443 0
-8428 -8439 8444 0
-8440 8444 0
-8428 -8440 8445 0
-8441 8445 0
-8428 -8441 0
-8429 -8445 0
-8450 70 0
-70 8450 0
-8451 100 0
-100 8451 0
-8452 130 0
-130 8452 0
-8453 160 0
-160 8453 0
-8454 190 0
-190 8454 0
-8450 8455 0
-8451 8456 0
-8455 8456 0
-8451 -8455 0
-8452 8457 0
-8456 8457 0
-8452 -8456 0
-8453 8458 0
-8457 8458 0
-8453 -8457 0
-8454 -8458 0
-8460 70 71 0
-70 8460 0
-71 8460 0
-8461 100 101 0
-100 8461 0
-101 8461 0
-8462 130 131 0
-130 8462 0
-131 8462 0
-8463 160 161 0
-160 8463 0
-161 8463 0
-8464 190 191 0
-190 8464 0
-191 8464 0
-8460 8465 0
-8466 0
-8461 8467 0
-8465 8467 0
-8461 -8465 8468 0
-8466 8468 0
-8461 -8466 0
-8462 8469 0
-8467 8469 0
-8462 -8467 8470 0
-8468 8470 0
-8462 -8468 0
-8463 8471 0
-8469 8471 0
-8463 -8469 8472 0
-8470 8472 0
-8463 -8470 0
-8464 -8472 0
-8475 70 71 72 0
-70 8475 0
-71 8475 0
-72 8475 0
-8476 100 101 102 0
-100 8476 0
-101 8476 0
-102 8476 0
-8477 130 131 132 0
-130 8477 0
-131 8477 0
-132 8477 0
-8478 160 161 162 0
-160 8478 0
-161 8478 0
-162 8478 0
-8479 190 191 192 0
-190 8479 0
-191 8479 0
-192 8479 0
-8475 8480 0
-8481 0
-8482 0
-8476 8483 0
-8480 8483 0
-8476 -8480 8484 0
-8481 8484 0
-8476 -8481 8485 0
-8482 8485 0
-8476 -8482 0
-8477 8486 0
-8483 8486 0
-8477 -8483 8487 0
-8484 8487 0
-8477 -8484 8488 0
-8485 8488 0
-8477 -8485 0
-8478 8489 0
-8486 8489 0
-8478 -8486 8490 0
-8487 8490 0
-8478 -8487 8491 0
-8488 8491 0
-8478 -8488 0
-8479 -8491 0
-8495 71 0
-71 8495 0
-8496 101 0
-101 8496 0
-8497 131 0
-131 8497 0
-8498 161 0
-161 8498 0
-8499 191 0
-191 8499 0
-8495 8500 0
-8496 8501 0
-8500 8501 0
-8496 -8500 0
-8497 8502 0
-8501 8502 0
-8497 -8501 0
-8498 8503 0
-8502 8503 0
-8498 -8502 0
-8499 -8503 0
-8505 71 72 0
-71 8505 0
-72 8505 0
-8506 101 102 0
-101 8506 0
-102 8506 0
-8507 131 132 0
-131 8507 0
-132 8507 0
-8508 161 162 0
-161 8508 0
-162 8508 0
-8509 191 192 0
-191 8509 0
-192 8509 0
-8505 8510 0
-8511 0
-8506 8512 0
-8510 8512 0
-8506 -8510 8513 0
-8511 8513 0
-8506 -8511 0
-8507 8514 0
-8512 8514 0
-8507 -8512 8515 0
-8513 8515 0
-8507 -8513 0
-8508 8516 0
-8514 8516 0
-8508 -8514 8517 0
-8515 8517 0
-8508 -8515 0
-8509 -8517 0
-8520 72 0
-72 8520 0
-8521 102 0
-102 8521 0
-8522 132 0
-132 8522 0
-8523 162 0
-162 8523 0
-8524 192 0
-192 8524 0
-8520 8525 0
-8521 8526 0
-8525 8526 0
-8521 -8525 0
-8522 8527 0
-8526 8527 0
-8522 -8526 0
-8523 8528 0
-8527 8528 0
-8523 -8527 0
-8524 -8528 0
-8530 103 0
-103 8530 0
-8531 133 0
-133 8531 0
-8532 163 0
-163 8532 0
-8533 193 0
-193 8533 0
-8530 8534 0
-8531 8535 0
-8534 8535 0
-8531 -8534 0
-8532 8536 0
-8535 8536 0
-8532 -8535 0
-8533 -8536 0
-8538 103 104 0
-103 8538 0
-104 8538 0
-8539 133 134 0
-133 8539 0
-134 8539 0
-8540 163 164 0
-163 8540 0
-164 8540 0
-8541 193 194 0
-193 8541 0
-194 8541 0
-8538 8542 0
-8543 0
-8539 8544 0
-8542 8544 0
-8539 -8542 8545 0
-8543 8545 0
-8539 -8543 0
-8540 8546 0
-8544 8546 0
-8540 -8544 8547 0
-8545 8547 0
-8540 -8545 0
-8541 -8547 0
-8550 103 104 105 0
-103 8550 0
-104 8550 0
-105 8550 0
-8551 133 134 135 0
-133 8551 0
-134 8551 0
-135 8551 0
-8552 163 164 165 0
-163 8552 0
-164 8552 0
-165 8552 0
-8553 193 194 195 0
-193 8553 0
-194 8553 0
-195 8553 0
-8550 8554 0
-8555 0
-8556 0
-8551 8557 0
-8554 8557 0
-8551 -8554 8558 0
-8555 8558 0
-8551 -8555 8559 0
-8556 8559 0
-8551 -8556 0
-8552 8560 0
-8557 8560 0
-8552 -8557 8561 0
-8558 8561 0
-8552 -8558 8562 0
-8559 8562 0
-8552 -8559 0
-8553 -8562 0
-8566 103 104 105 106 0
-103 8566 0
-104 8566 0
-105 8566 0
-106 8566 0
-8567 133 134 135 136 0
-133 8567 0
-134 8567 0
-135 8567 0
-136 8567 0
-8568 163 164 165 166 0
-163 8568 0
-164 8568 0
-165 8568 0
-166 8568 0
-8569 193 194 195 196 0
-193 8569 0
-194 8569 0
-195 8569 0
-196 8569 0
-8570 104 0
-104 8570 0
-8571 134 0
-134 8571 0
-8572 164 0
-164 8572 0
-8573 194 0
-194 8573 0
-8570 8574 0
-8571 8575 0
-8574 8575 0
-8571 -8574 0
-8572 8576 0
-8575 8576 0
-8572 -8575 0
-8573 -8576 0
-8578 104 105 0
-104 8578 0
-105 8578 0
-8579 134 135 0
-134 8579 0
-135 8579 0
-8580 164 165 0
-164 8580 0
-165 8580 0
-8581 194 195 0
-194 8581 0
-195 8581 0
-8578 8582 0
-8583 0
-8579 8584 0
-8582 8584 0
-8579 -8582 8585 0
-8583 8585 0
-8579 -8583 0
-8580 8586 0
-8584 8586 0
-8580 -8584 8587 0
-8585 8587 0
-8580 -8585 0
-8581 -8587 0
-8590 104 105 106 0
-104 8590 0
-105 8590 0
-106 8590 0
-8591 134 135 136 0
-134 8591 0
-135 8591 0
-136 8591 0
-8592 164 165 166 0
-164 8592 0
-165 8592 0
-166 8592 0
-8593 194 195 196 0
-194 8593 0
-195 8593 0
-196 8593 0
-8590 8594 0
-8595 0
-8596 0
-8591 8597 0
-8594 8597 0
-8591 -8594 8598 0
-8595 8598 0
-8591 -8595 8599 0
-8596 8599 0
-8591 -8596 0
-8592 8600 0
-8597 8600 0
-8592 -8597 8601 0
-8598 8601 0
-8592 -8598 8602 0
-8599 8602 0
-8592 -8599 0
-8593 -8602 0
-8606 104 105 106 107 0
-104 8606 0
-105 8606 0
-106 8606 0
-107 8606 0
-8607 134 135 136 137 0
-134 8607 0
-135 8607 0
-136 8607 0
-137 8607 0
-8608 164 165 166 167 0
-164 8608 0
-165 8608 0
-166 8608 0
-167 8608 0
-8609 194 195 196 197 0
-194 8609 0
-195 8609 0
-196 8609 0
-197 8609 0
-8610 105 0
-105 8610 0
-8611 135 0
-135 8611 0
-8612 165 0
-165 8612 0
-8613 195 0
-195 8613 0
-8610 8614 0
-8611 8615 0
-8614 8615 0
-8611 -8614 0
-8612 8616 0
-8615 8616 0
-8612 -8615 0
-8613 -8616 0
-8618 105 106 0
-105 8618 0
-106 8618 0
-8619 135 136 0
-135 8619 0
-136 8619 0
-8620 165 166 0
-165 8620 0
-166 8620 0
-8621 195 196 0
-195 8621 0
-196 8621 0
-8618 8622 0
-8623 0
-8619 8624 0
-8622 8624 0
-8619 -8622 8625 0
-8623 8625 0
-8619 -8623 0
-8620 8626 0
-8624 8626 0
-8620 -8624 8627 0
-8625 8627 0
-8620 -8625 0
-8621 -8627 0
-8630 105 106 107 0
-105 8630 0
-106 8630 0
-107 8630 0
-8631 135 136 137 0
-135 8631 0
-136 8631 0
-137 8631 0
-8632 165 166 167 0
-165 8632 0
-166 8632 0
-167 8632 0
-8633 195 196 197 0
-195 8633 0
-196 8633 0
-197 8633 0
-8630 8634 0
-8635 0
-8636 0
-8631 8637 0
-8634 8637 0
-8631 -8634 8638 0
-8635 8638 0
-8631 -8635 8639 0
-8636 8639 0
-8631 -8636 0
-8632 8640 0
-8637 8640 0
-8632 -8637 8641 0
-8638 8641 0
-8632 -8638 8642 0
-8639 8642 0
-8632 -8639 0
-8633 -8642 0
-8646 105 106 107 108 0
-105 8646 0
-106 8646 0
-107 8646 0
-108 8646 0
-8647 135 136 137 138 0
-135 8647 0
-136 8647 0
-137 8647 0
-138 8647 0
-8648 165 166 167 168 0
-165 8648 0
-166 8648 0
-167 8648 0
-168 8648 0
-8649 195 196 197 198 0
-195 8649 0
-196 8649 0
-197 8649 0
-198 8649 0
-8650 106 0
-106 8650 0
-8651 136 0
-136 8651 0
-8652 166 0
-166 8652 0
-8653 196 0
-196 8653 0
-8650 8654 0
-8651 8655 0
-8654 8655 0
-8651 -8654 0
-8652 8656 0
-8655 8656 0
-8652 -8655 0
-8653 -8656 0
-8658 106 107 0
-106 8658 0
-107 8658 0
-8659 136 137 0
-136 8659 0
-137 8659 0
-8660 166 167 0
-166 8660 0
-167 8660 0
-8661 196 197 0
-196 8661 0
-197 8661 0
-8658 8662 0
-8663 0
-8659 8664 0
-8662 8664 0
-8659 -8662 8665 0
-8663 8665 0
-8659 -8663 0
-8660 8666 0
-8664 8666 0
-8660 -8664 8667 0
-8665 8667 0
-8660 -8665 0
-8661 -8667 0
-8670 106 107 108 0
-106 8670 0
-107 8670 0
-108 8670 0
-8671 136 137 138 0
-136 8671 0
-137 8671 0
-138 8671 0
-8672 166 167 168 0
-166 8672 0
-167 8672 0
-168 8672 0
-8673 196 197 198 0
-196 8673 0
-197 8673 0
-198 8673 0
-8670 8674 0
-8675 0
-8676 0
-8671 8677 0
-8674 8677 0
-8671 -8674 8678 0
-8675 8678 0
-8671 -8675 8679 0
-8676 8679 0
-8671 -8676 0
-8672 8680 0
-8677 8680 0
-8672 -8677 8681 0
-8678 8681 0
-8672 -8678 8682 0
-8679 8682 0
-8672 -8679 0
-8673 -8682 0
-8686 107 0
-107 8686 0
-8687 137 0
-137 8687 0
-8688 167 0
-167 8688 0
-8689 197 0
-197 8689 0
-8686 8690 0
-8687 8691 0
-8690 8691 0
-8687 -8690 0
-8688 8692 0
-8691 8692 0
-8688 -8691 0
-8689 -8692 0
-8694 107 108 0
-107 8694 0
-108 8694 0
-8695 137 138 0
-137 8695 0
-138 8695 0
-8696 167 168 0
-167 8696 0
-168 8696 0
-8697 197 198 0
-197 8697 0
-198 8697 0
-8694 8698 0
-8699 0
-8695 8700 0
-8698 8700 0
-8695 -8698 8701 0
-8699 8701 0
-8695 -8699 0
-8696 8702 0
-8700 8702 0
-8696 -8700 8703 0
-8701 8703 0
-8696 -8701 0
-8697 -8703 0
-8706 108 0
-108 8706 0
-8707 138 0
-138 8707 0
-8708 168 0
-168 8708 0
-8709 198 0
-198 8709 0
-8706 8710 0
-8707 8711 0
-8710 8711 0
-8707 -8710 0
-8708 8712 0
-8711 8712 0
-8708 -8711 0
-8709 -8712 0
-8714 139 0
-139 8714 0
-8715 169 0
-169 8715 0
-8716 199 0
-199 8716 0
-8714 8717 0
-8715 8718 0
-8717 8718 0
-8715 -8717 0
-8716 -8718 0
-8720 139 140 0
-139 8720 0
-140 8720 0
-8721 169 170 0
-169 8721 0
-170 8721 0
-8722 199 200 0
-199 8722 0
-200 8722 0
-8720 8723 0
-8724 0
-8721 8725 0
-8723 8725 0
-8721 -8723 8726 0
-8724 8726 0
-8721 -8724 0
-8722 -8726 0
-8729 139 140 141 0
-139 8729 0
-140 8729 0
-141 8729 0
-8730 169 170 171 0
-169 8730 0
-170 8730 0
-171 8730 0
-8731 199 200 201 0
-199 8731 0
-200 8731 0
-201 8731 0
-8732 140 0
-140 8732 0
-8733 170 0
-170 8733 0
-8734 200 0
-200 8734 0
-8732 8735 0
-8733 8736 0
-8735 8736 0
-8733 -8735 0
-8734 -8736 0
-8738 140 141 0
-140 8738 0
-141 8738 0
-8739 170 171 0
-170 8739 0
-171 8739 0
-8740 200 201 0
-200 8740 0
-201 8740 0
-8738 8741 0
-8742 0
-8739 8743 0
-8741 8743 0
-8739 -8741 8744 0
-8742 8744 0
-8739 -8742 0
-8740 -8744 0
-8747 140 141 142 0
-140 8747 0
-141 8747 0
-142 8747 0
-8748 170 171 172 0
-170 8748 0
-171 8748 0
-172 8748 0
-8749 200 201 202 0
-200 8749 0
-201 8749 0
-202 8749 0
-8750 141 0
-141 8750 0
-8751 171 0
-171 8751 0
-8752 201 0
-201 8752 0
-8750 8753 0
-8751 8754 0
-8753 8754 0
-8751 -8753 0
-8752 -8754 0
-8756 141 142 0
-141 8756 0
-142 8756 0
-8757 171 172 0
-171 8757 0
-172 8757 0
-8758 201 202 0
-201 8758 0
-202 8758 0
-8756 8759 0
-8760 0
-8757 8761 0
-8759 8761 0
-8757 -8759 8762 0
-8760 8762 0
-8757 -8760 0
-8758 -8762 0
-8765 141 142 143 0
-141 8765 0
-142 8765 0
-143 8765 0
-8766 171 172 173 0
-171 8766 0
-172 8766 0
-173 8766 0
-8767 201 202 203 0
-201 8767 0
-202 8767 0
-203 8767 0
-8768 142 0
-142 8768 0
-8769 172 0
-172 8769 0
-8770 202 0
-202 8770 0
-8768 8771 0
-8769 8772 0
-8771 8772 0
-8769 -8771 0
-8770 -8772 0
-8774 142 143 0
-142 8774 0
-143 8774 0
-8775 172 173 0
-172 8775 0
-173 8775 0
-8776 202 203 0
-202 8776 0
-203 8776 0
-8774 8777 0
-8778 0
-8775 8779 0
-8777 8779 0
-8775 -8777 8780 0
-8778 8780 0
-8775 -8778 0
-8776 -8780 0
-8783 142 143 144 0
-142 8783 0
-143 8783 0
-144 8783 0
-8784 172 173 174 0
-172 8784 0
-173 8784 0
-174 8784 0
-8785 202 203 204 0
-202 8785 0
-203 8785 0
-204 8785 0
-8786 143 0
-143 8786 0
-8787 173 0
-173 8787 0
-8788 203 0
-203 8788 0
-8786 8789 0
-8787 8790 0
-8789 8790 0
-8787 -8789 0
-8788 -8790 0
-8792 143 144 0
-143 8792 0
-144 8792 0
-8793 173 174 0
-173 8793 0
-174 8793 0
-8794 203 204 0
-203 8794 0
-204 8794 0
-8792 8795 0
-8796 0
-8793 8797 0
-8795 8797 0
-8793 -8795 8798 0
-8796 8798 0
-8793 -8796 0
-8794 -8798 0
-8801 144 0
-144 8801 0
-8802 174 0
-174 8802 0
-8803 204 0
-204 8803 0
-8801 8804 0
-8802 8805 0
-8804 8805 0
-8802 -8804 0
-8803 -8805 0
-8807 175 0
-175 8807 0
-8808 205 0
-205 8808 0
-8807 8809 0
-8808 -8809 0
-8811 175 176 0
-175 8811 0
-176 8811 0
-8812 205 206 0
-205 8812 0
-206 8812 0
-8813 176 0
-176 8813 0
-8814 206 0
-206 8814 0
-8813 8815 0
-8814 -8815 0
-8817 176 177 0
-176 8817 0
-177 8817 0
-8818 206 207 0
-206 8818 0
-207 8818 0
-8819 177 0
-177 8819 0
-8820 207 0
-207 8820 0
-8819 8821 0
-8820 -8821 0
-8823 177 178 0
-177 8823 0
-178 8823 0
-8824 207 208 0
-207 8824 0
-208 8824 0
-8825 178 0
-178 8825 0
-8826 208 0
-208 8826 0
-8825 8827 0
-8826 -8827 0
-8829 178 179 0
-178 8829 0
-179 8829 0
-8830 208 209 0
-208 8830 0
-209 8830 0
-8831 179 0
-179 8831 0
-8832 209 0
-209 8832 0
-8831 8833 0
-8832 -8833 0
-8835 179 180 0
-179 8835 0
-180 8835 0
-8836 209 210 0
-209 8836 0
-210 8836 0
-8837 180 0
-180 8837 0
-8838 210 0
-210 8838 0
-8837 8839 0
-8838 -8839 0
