p cnf 5882 12972
-1 344 0
-2 345 0
-344 345 0
-2 -344 0
-3 346 0
-345 346 0
-3 -345 0
-4 347 0
-346 347 0
-4 -346 0
-5 348 0
-347 348 0
-5 -347 0
-6 349 0
-348 349 0
-6 -348 0
-7 -349 0
1 2 3 4 5 6 7 0
-8 351 0
-9 352 0
-351 352 0
-9 -351 0
-10 353 0
-352 353 0
-10 -352 0
-11 354 0
-353 354 0
-11 -353 0
-12 355 0
-354 355 0
-12 -354 0
-13 356 0
-355 356 0
-13 -355 0
-14 -356 0
8 9 10 11 12 13 14 0
-15 358 0
-16 359 0
-358 359 0
-16 -358 0
-17 360 0
-359 360 0
-17 -359 0
-18 361 0
-360 361 0
-18 -360 0
-19 362 0
-361 362 0
-19 -361 0
-20 363 0
-362 363 0
-20 -362 0
-21 -363 0
15 16 17 18 19 20 21 0
-22 365 0
-23 366 0
-365 366 0
-23 -365 0
-24 367 0
-366 367 0
-24 -366 0
-25 368 0
-367 368 0
-25 -367 0
-26 369 0
-368 369 0
-26 -368 0
-27 370 0
-369 370 0
-27 -369 0
-28 -370 0
22 23 24 25 26 27 28 0
-29 372 0
-30 373 0
-372 373 0
-30 -372 0
-31 374 0
-373 374 0
-31 -373 0
-32 375 0
-374 375 0
-32 -374 0
-33 376 0
-375 376 0
-33 -375 0
-34 377 0
-376 377 0
-34 -376 0
-35 -377 0
29 30 31 32 33 34 35 0
-36 379 0
-37 380 0
-379 380 0
-37 -379 0
-38 381 0
-380 381 0
-38 -380 0
-39 382 0
-381 382 0
-39 -381 0
-40 383 0
-382 383 0
-40 -382 0
-41 384 0
-383 384 0
-41 -383 0
-42 -384 0
36 37 38 39 40 41 42 0
-43 386 0
-44 387 0
-386 387 0
-44 -386 0
-45 388 0
-387 388 0
-45 -387 0
-46 389 0
-388 389 0
-46 -388 0
-47 390 0
-389 390 0
-47 -389 0
-48 391 0
-390 391 0
-48 -390 0
-49 -391 0
43 44 45 46 47 48 49 0
-50 393 0
-51 394 0
-393 394 0
-51 -393 0
-52 395 0
-394 395 0
-52 -394 0
-53 396 0
-395 396 0
-53 -395 0
-54 397 0
-396 397 0
-54 -396 0
-55 398 0
-397 398 0
-55 -397 0
-56 -398 0
50 51 52 53 54 55 56 0
-57 400 0
-58 401 0
-400 401 0
-58 -400 0
-59 402 0
-401 402 0
-59 -401 0
-60 403 0
-402 403 0
-60 -402 0
-61 404 0
-403 404 0
-61 -403 0
-62 405 0
-404 405 0
-62 -404 0
-63 -405 0
57 58 59 60 61 62 63 0
-64 407 0
-65 408 0
-407 408 0
-65 -407 0
-66 409 0
-408 409 0
-66 -408 0
-67 410 0
-409 410 0
-67 -409 0
-68 411 0
-410 411 0
-68 -410 0
-69 412 0
-411 412 0
-69 -411 0
-70 -412 0
64 65 66 67 68 69 70 0
-71 414 0
-72 415 0
-414 415 0
-72 -414 0
-73 416 0
-415 416 0
-73 -415 0
-74 417 0
-416 417 0
-74 -416 0
-75 418 0
-417 418 0
-75 -417 0
-76 419 0
-418 419 0
-76 -418 0
-77 -419 0
71 72 73 74 75 76 77 0
-78 421 0
-79 422 0
-421 422 0
-79 -421 0
-80 423 0
-422 423 0
-80 -422 0
-81 424 0
-423 424 0
-81 -423 0
-82 425 0
-424 425 0
-82 -424 0
-83 426 0
-425 426 0
-83 -425 0
-84 -426 0
78 79 80 81 82 83 84 0
-85 428 0
-86 429 0
-428 429 0
-86 -428 0
-87 430 0
-429 430 0
-87 -429 0
-88 431 0
-430 431 0
-88 -430 0
-89 432 0
-431 432 0
-89 -431 0
-90 433 0
-432 433 0
-90 -432 0
-91 -433 0
85 86 87 88 89 90 91 0
-92 435 0
-93 436 0
-435 436 0
-93 -435 0
-94 437 0
-436 437 0
-94 -436 0
-95 438 0
-437 438 0
-95 -437 0
-96 439 0
-438 439 0
-96 -438 0
-97 440 0
-439 440 0
-97 -439 0
-98 -440 0
92 93 94 95 96 97 98 0
-99 442 0
-100 443 0
-442 443 0
-100 -442 0
-101 444 0
-443 444 0
-101 -443 0
-102 445 0
-444 445 0
-102 -444 0
-103 446 0
-445 446 0
-103 -445 0
-104 447 0
-446 447 0
-104 -446 0
-105 -447 0
99 100 101 102 103 104 105 0
-106 449 0
-107 450 0
-449 450 0
-107 -449 0
-108 451 0
-450 451 0
-108 -450 0
-109 452 0
-451 452 0
-109 -451 0
-110 453 0
-452 453 0
-110 -452 0
-111 454 0
-453 454 0
-111 -453 0
-112 -454 0
106 107 108 109 110 111 112 0
-113 456 0
-114 457 0
-456 457 0
-114 -456 0
-115 458 0
-457 458 0
-115 -457 0
-116 459 0
-458 459 0
-116 -458 0
-117 460 0
-459 460 0
-117 -459 0
-118 461 0
-460 461 0
-118 -460 0
-119 -461 0
113 114 115 116 117 118 119 0
-120 463 0
-121 464 0
-463 464 0
-121 -463 0
-122 465 0
-464 465 0
-122 -464 0
-123 466 0
-465 466 0
-123 -465 0
-124 467 0
-466 467 0
-124 -466 0
-125 468 0
-467 468 0
-125 -467 0
-126 -468 0
120 121 122 123 124 125 126 0
-127 470 0
-128 471 0
-470 471 0
-128 -470 0
-129 472 0
-471 472 0
-129 -471 0
-130 473 0
-472 473 0
-130 -472 0
-131 474 0
-473 474 0
-131 -473 0
-132 475 0
-474 475 0
-132 -474 0
-133 -475 0
127 128 129 130 131 132 133 0
-134 477 0
-135 478 0
-477 478 0
-135 -477 0
-136 479 0
-478 479 0
-136 -478 0
-137 480 0
-479 480 0
-137 -479 0
-138 481 0
-480 481 0
-138 -480 0
-139 482 0
-481 482 0
-139 -481 0
-140 -482 0
134 135 136 137 138 139 140 0
-141 484 0
-142 485 0
-484 485 0
-142 -484 0
-143 486 0
-485 486 0
-143 -485 0
-144 487 0
-486 487 0
-144 -486 0
-145 488 0
-487 488 0
-145 -487 0
-146 489 0
-488 489 0
-146 -488 0
-147 -489 0
141 142 143 144 145 146 147 0
-148 491 0
-149 492 0
-491 492 0
-149 -491 0
-150 493 0
-492 493 0
-150 -492 0
-151 494 0
-493 494 0
-151 -493 0
-152 495 0
-494 495 0
-152 -494 0
-153 496 0
-495 496 0
-153 -495 0
-154 -496 0
148 149 150 151 152 153 154 0
-155 498 0
-156 499 0
-498 499 0
-156 -498 0
-157 500 0
-499 500 0
-157 -499 0
-158 501 0
-500 501 0
-158 -500 0
-159 502 0
-501 502 0
-159 -501 0
-160 503 0
-502 503 0
-160 -502 0
-161 -503 0
155 156 157 158 159 160 161 0
-162 505 0
-163 506 0
-505 506 0
-163 -505 0
-164 507 0
-506 507 0
-164 -506 0
-165 508 0
-507 508 0
-165 -507 0
-166 509 0
-508 509 0
-166 -508 0
-167 510 0
-509 510 0
-167 -509 0
-168 -510 0
162 163 164 165 166 167 168 0
-169 512 0
-170 513 0
-512 513 0
-170 -512 0
-171 514 0
-513 514 0
-171 -513 0
-172 515 0
-514 515 0
-172 -514 0
-173 516 0
-515 516 0
-173 -515 0
-174 517 0
-516 517 0
-174 -516 0
-175 -517 0
169 170 171 172 173 174 175 0
-176 519 0
-177 520 0
-519 520 0
-177 -519 0
-178 521 0
-520 521 0
-178 -520 0
-179 522 0
-521 522 0
-179 -521 0
-180 523 0
-522 523 0
-180 -522 0
-181 524 0
-523 524 0
-181 -523 0
-182 -524 0
176 177 178 179 180 181 182 0
-183 526 0
-184 527 0
-526 527 0
-184 -526 0
-185 528 0
-527 528 0
-185 -527 0
-186 529 0
-528 529 0
-186 -528 0
-187 530 0
-529 530 0
-187 -529 0
-188 531 0
-530 531 0
-188 -530 0
-189 -531 0
183 184 185 186 187 188 189 0
-190 533 0
-191 534 0
-533 534 0
-191 -533 0
-192 535 0
-534 535 0
-192 -534 0
-193 536 0
-535 536 0
-193 -535 0
-194 537 0
-536 537 0
-194 -536 0
-195 538 0
-537 538 0
-195 -537 0
-196 -538 0
190 191 192 193 194 195 196 0
-197 540 0
-198 541 0
-540 541 0
-198 -540 0
-199 542 0
-541 542 0
-199 -541 0
-200 543 0
-542 543 0
-200 -542 0
-201 544 0
-543 544 0
-201 -543 0
-202 545 0
-544 545 0
-202 -544 0
-203 -545 0
197 198 199 200 201 202 203 0
-204 547 0
-205 548 0
-547 548 0
-205 -547 0
-206 549 0
-548 549 0
-206 -548 0
-207 550 0
-549 550 0
-207 -549 0
-208 551 0
-550 551 0
-208 -550 0
-209 552 0
-551 552 0
-209 -551 0
-210 -552 0
204 205 206 207 208 209 210 0
-211 554 0
-212 555 0
-554 555 0
-212 -554 0
-213 556 0
-555 556 0
-213 -555 0
-214 557 0
-556 557 0
-214 -556 0
-215 558 0
-557 558 0
-215 -557 0
-216 559 0
-558 559 0
-216 -558 0
-217 -559 0
211 212 213 214 215 216 217 0
-218 561 0
-219 562 0
-561 562 0
-219 -561 0
-220 563 0
-562 563 0
-220 -562 0
-221 564 0
-563 564 0
-221 -563 0
-222 565 0
-564 565 0
-222 -564 0
-223 566 0
-565 566 0
-223 -565 0
-224 -566 0
218 219 220 221 222 223 224 0
-225 568 0
-226 569 0
-568 569 0
-226 -568 0
-227 570 0
-569 570 0
-227 -569 0
-228 571 0
-570 571 0
-228 -570 0
-229 572 0
-571 572 0
-229 -571 0
-230 573 0
-572 573 0
-230 -572 0
-231 -573 0
225 226 227 228 229 230 231 0
-232 575 0
-233 576 0
-575 576 0
-233 -575 0
-234 577 0
-576 577 0
-234 -576 0
-235 578 0
-577 578 0
-235 -577 0
-236 579 0
-578 579 0
-236 -578 0
-237 580 0
-579 580 0
-237 -579 0
-238 -580 0
232 233 234 235 236 237 238 0
-239 582 0
-240 583 0
-582 583 0
-240 -582 0
-241 584 0
-583 584 0
-241 -583 0
-242 585 0
-584 585 0
-242 -584 0
-243 586 0
-585 586 0
-243 -585 0
-244 587 0
-586 587 0
-244 -586 0
-245 -587 0
239 240 241 242 243 244 245 0
-246 589 0
-247 590 0
-589 590 0
-247 -589 0
-248 591 0
-590 591 0
-248 -590 0
-249 592 0
-591 592 0
-249 -591 0
-250 593 0
-592 593 0
-250 -592 0
-251 594 0
-593 594 0
-251 -593 0
-252 -594 0
246 247 248 249 250 251 252 0
-253 596 0
-254 597 0
-596 597 0
-254 -596 0
-255 598 0
-597 598 0
-255 -597 0
-256 599 0
-598 599 0
-256 -598 0
-257 600 0
-599 600 0
-257 -599 0
-258 601 0
-600 601 0
-258 -600 0
-259 -601 0
253 254 255 256 257 258 259 0
-260 603 0
-261 604 0
-603 604 0
-261 -603 0
-262 605 0
-604 605 0
-262 -604 0
-263 606 0
-605 606 0
-263 -605 0
-264 607 0
-606 607 0
-264 -606 0
-265 608 0
-607 608 0
-265 -607 0
-266 -608 0
260 261 262 263 264 265 266 0
-267 610 0
-268 611 0
-610 611 0
-268 -610 0
-269 612 0
-611 612 0
-269 -611 0
-270 613 0
-612 613 0
-270 -612 0
-271 614 0
-613 614 0
-271 -613 0
-272 615 0
-614 615 0
-272 -614 0
-273 -615 0
267 268 269 270 271 272 273 0
-274 617 0
-275 618 0
-617 618 0
-275 -617 0
-276 619 0
-618 619 0
-276 -618 0
-277 620 0
-619 620 0
-277 -619 0
-278 621 0
-620 621 0
-278 -620 0
-279 622 0
-621 622 0
-279 -621 0
-280 -622 0
274 275 276 277 278 279 280 0
-281 624 0
-282 625 0
-624 625 0
-282 -624 0
-283 626 0
-625 626 0
-283 -625 0
-284 627 0
-626 627 0
-284 -626 0
-285 628 0
-627 628 0
-285 -627 0
-286 629 0
-628 629 0
-286 -628 0
-287 -629 0
281 282 283 284 285 286 287 0
-288 631 0
-289 632 0
-631 632 0
-289 -631 0
-290 633 0
-632 633 0
-290 -632 0
-291 634 0
-633 634 0
-291 -633 0
-292 635 0
-634 635 0
-292 -634 0
-293 636 0
-635 636 0
-293 -635 0
-294 -636 0
288 289 290 291 292 293 294 0
-295 638 0
-296 639 0
-638 639 0
-296 -638 0
-297 640 0
-639 640 0
-297 -639 0
-298 641 0
-640 641 0
-298 -640 0
-299 642 0
-641 642 0
-299 -641 0
-300 643 0
-642 643 0
-300 -642 0
-301 -643 0
295 296 297 298 299 300 301 0
-302 645 0
-303 646 0
-645 646 0
-303 -645 0
-304 647 0
-646 647 0
-304 -646 0
-305 648 0
-647 648 0
-305 -647 0
-306 649 0
-648 649 0
-306 -648 0
-307 650 0
-649 650 0
-307 -649 0
-308 -650 0
302 303 304 305 306 307 308 0
-309 652 0
-310 653 0
-652 653 0
-310 -652 0
-311 654 0
-653 654 0
-311 -653 0
-312 655 0
-654 655 0
-312 -654 0
-313 656 0
-655 656 0
-313 -655 0
-314 657 0
-656 657 0
-314 -656 0
-315 -657 0
309 310 311 312 313 314 315 0
-316 659 0
-317 660 0
-659 660 0
-317 -659 0
-318 661 0
-660 661 0
-318 -660 0
-319 662 0
-661 662 0
-319 -661 0
-320 663 0
-662 663 0
-320 -662 0
-321 664 0
-663 664 0
-321 -663 0
-322 -664 0
316 317 318 319 320 321 322 0
-323 666 0
-324 667 0
-666 667 0
-324 -666 0
-325 668 0
-667 668 0
-325 -667 0
-326 669 0
-668 669 0
-326 -668 0
-327 670 0
-669 670 0
-327 -669 0
-328 671 0
-670 671 0
-328 -670 0
-329 -671 0
323 324 325 326 327 328 329 0
-330 673 0
-331 674 0
-673 674 0
-331 -673 0
-332 675 0
-674 675 0
-332 -674 0
-333 676 0
-675 676 0
-333 -675 0
-334 677 0
-676 677 0
-334 -676 0
-335 678 0
-677 678 0
-335 -677 0
-336 -678 0
330 331 332 333 334 335 336 0
-337 680 0
-338 681 0
-680 681 0
-338 -680 0
-339 682 0
-681 682 0
-339 -681 0
-340 683 0
-682 683 0
-340 -682 0
-341 684 0
-683 684 0
-341 -683 0
-342 685 0
-684 685 0
-342 -684 0
-343 -685 0
337 338 339 340 341 342 343 0
-36 0
-37 0
-38 0
-39 0
-40 0
-42 0
-2 0
-3 0
-4 0
-5 0
-6 0
-7 0
-15 0
-16 0
-18 0
-19 0
-20 0
-21 0
-29 0
-30 0
-31 0
-32 0
-34 0
-35 0
-43 0
-44 0
-45 0
-46 0
-47 0
-48 0
-22 0
-23 0
-24 0
-26 0
-27 0
-28 0
-8 0
-10 0
-11 0
-12 0
-13 0
-14 0
-687 1 0
-1 687 0
-688 8 0
-8 688 0
-689 15 0
-15 689 0
-690 22 0
-22 690 0
-691 29 0
-29 691 0
-692 36 0
-36 692 0
-693 43 0
-43 693 0
-687 694 0
-688 695 0
-694 695 0
-688 -694 0
-689 696 0
-695 696 0
-689 -695 0
-690 697 0
-696 697 0
-690 -696 0
-691 698 0
-697 698 0
-691 -697 0
-692 699 0
-698 699 0
-692 -698 0
-693 -699 0
-701 1 2 3 4 5 0
-1 701 0
-2 701 0
-3 701 0
-4 701 0
-5 701 0
-702 8 9 10 11 12 0
-8 702 0
-9 702 0
-10 702 0
-11 702 0
-12 702 0
-703 15 16 17 18 19 0
-15 703 0
-16 703 0
-17 703 0
-18 703 0
-19 703 0
-704 22 23 24 25 26 0
-22 704 0
-23 704 0
-24 704 0
-25 704 0
-26 704 0
-705 29 30 31 32 33 0
-29 705 0
-30 705 0
-31 705 0
-32 705 0
-33 705 0
-706 36 37 38 39 40 0
-36 706 0
-37 706 0
-38 706 0
-39 706 0
-40 706 0
-707 43 44 45 46 47 0
-43 707 0
-44 707 0
-45 707 0
-46 707 0
-47 707 0
-701 708 0
-709 0
-710 0
-711 0
-712 0
-702 713 0
-708 713 0
-702 -708 714 0
-709 714 0
-702 -709 715 0
-710 715 0
-702 -710 716 0
-711 716 0
-702 -711 717 0
-712 717 0
-702 -712 0
-703 718 0
-713 718 0
-703 -713 719 0
-714 719 0
-703 -714 720 0
-715 720 0
-703 -715 721 0
-716 721 0
-703 -716 722 0
-717 722 0
-703 -717 0
-704 723 0
-718 723 0
-704 -718 724 0
-719 724 0
-704 -719 725 0
-720 725 0
-704 -720 726 0
-721 726 0
-704 -721 727 0
-722 727 0
-704 -722 0
-705 728 0
-723 728 0
-705 -723 729 0
-724 729 0
-705 -724 730 0
-725 730 0
-705 -725 731 0
-726 731 0
-705 -726 732 0
-727 732 0
-705 -727 0
-706 733 0
-728 733 0
-706 -728 734 0
-729 734 0
-706 -729 735 0
-730 735 0
-706 -730 736 0
-731 736 0
-706 -731 737 0
-732 737 0
-706 -732 0
-707 -737 0
-743 2 0
-2 743 0
-744 9 0
-9 744 0
-745 16 0
-16 745 0
-746 23 0
-23 746 0
-747 30 0
-30 747 0
-748 37 0
-37 748 0
-749 44 0
-44 749 0
-743 750 0
-744 751 0
-750 751 0
-744 -750 0
-745 752 0
-751 752 0
-745 -751 0
-746 753 0
-752 753 0
-746 -752 0
-747 754 0
-753 754 0
-747 -753 0
-748 755 0
-754 755 0
-748 -754 0
-749 -755 0
-757 2 3 4 5 6 0
-2 757 0
-3 757 0
-4 757 0
-5 757 0
-6 757 0
-758 9 10 11 12 13 0
-9 758 0
-10 758 0
-11 758 0
-12 758 0
-13 758 0
-759 16 17 18 19 20 0
-16 759 0
-17 759 0
-18 759 0
-19 759 0
-20 759 0
-760 23 24 25 26 27 0
-23 760 0
-24 760 0
-25 760 0
-26 760 0
-27 760 0
-761 30 31 32 33 34 0
-30 761 0
-31 761 0
-32 761 0
-33 761 0
-34 761 0
-762 37 38 39 40 41 0
-37 762 0
-38 762 0
-39 762 0
-40 762 0
-41 762 0
-763 44 45 46 47 48 0
-44 763 0
-45 763 0
-46 763 0
-47 763 0
-48 763 0
-757 764 0
-765 0
-766 0
-767 0
-768 0
-758 769 0
-764 769 0
-758 -764 770 0
-765 770 0
-758 -765 771 0
-766 771 0
-758 -766 772 0
-767 772 0
-758 -767 773 0
-768 773 0
-758 -768 0
-759 774 0
-769 774 0
-759 -769 775 0
-770 775 0
-759 -770 776 0
-771 776 0
-759 -771 777 0
-772 777 0
-759 -772 778 0
-773 778 0
-759 -773 0
-760 779 0
-774 779 0
-760 -774 780 0
-775 780 0
-760 -775 781 0
-776 781 0
-760 -776 782 0
-777 782 0
-760 -777 783 0
-778 783 0
-760 -778 0
-761 784 0
-779 784 0
-761 -779 785 0
-780 785 0
-761 -780 786 0
-781 786 0
-761 -781 787 0
-782 787 0
-761 -782 788 0
-783 788 0
-761 -783 0
-762 789 0
-784 789 0
-762 -784 790 0
-785 790 0
-762 -785 791 0
-786 791 0
-762 -786 792 0
-787 792 0
-762 -787 793 0
-788 793 0
-762 -788 0
-763 -793 0
-799 3 0
-3 799 0
-800 10 0
-10 800 0
-801 17 0
-17 801 0
-802 24 0
-24 802 0
-803 31 0
-31 803 0
-804 38 0
-38 804 0
-805 45 0
-45 805 0
-799 806 0
-800 807 0
-806 807 0
-800 -806 0
-801 808 0
-807 808 0
-801 -807 0
-802 809 0
-808 809 0
-802 -808 0
-803 810 0
-809 810 0
-803 -809 0
-804 811 0
-810 811 0
-804 -810 0
-805 -811 0
-813 3 4 5 6 7 0
-3 813 0
-4 813 0
-5 813 0
-6 813 0
-7 813 0
-814 10 11 12 13 14 0
-10 814 0
-11 814 0
-12 814 0
-13 814 0
-14 814 0
-815 17 18 19 20 21 0
-17 815 0
-18 815 0
-19 815 0
-20 815 0
-21 815 0
-816 24 25 26 27 28 0
-24 816 0
-25 816 0
-26 816 0
-27 816 0
-28 816 0
-817 31 32 33 34 35 0
-31 817 0
-32 817 0
-33 817 0
-34 817 0
-35 817 0
-818 38 39 40 41 42 0
-38 818 0
-39 818 0
-40 818 0
-41 818 0
-42 818 0
-819 45 46 47 48 49 0
-45 819 0
-46 819 0
-47 819 0
-48 819 0
-49 819 0
-813 820 0
-821 0
-822 0
-823 0
-824 0
-814 825 0
-820 825 0
-814 -820 826 0
-821 826 0
-814 -821 827 0
-822 827 0
-814 -822 828 0
-823 828 0
-814 -823 829 0
-824 829 0
-814 -824 0
-815 830 0
-825 830 0
-815 -825 831 0
-826 831 0
-815 -826 832 0
-827 832 0
-815 -827 833 0
-828 833 0
-815 -828 834 0
-829 834 0
-815 -829 0
-816 835 0
-830 835 0
-816 -830 836 0
-831 836 0
-816 -831 837 0
-832 837 0
-816 -832 838 0
-833 838 0
-816 -833 839 0
-834 839 0
-816 -834 0
-817 840 0
-835 840 0
-817 -835 841 0
-836 841 0
-817 -836 842 0
-837 842 0
-817 -837 843 0
-838 843 0
-817 -838 844 0
-839 844 0
-817 -839 0
-818 845 0
-840 845 0
-818 -840 846 0
-841 846 0
-818 -841 847 0
-842 847 0
-818 -842 848 0
-843 848 0
-818 -843 849 0
-844 849 0
-818 -844 0
-819 -849 0
-855 4 0
-4 855 0
-856 11 0
-11 856 0
-857 18 0
-18 857 0
-858 25 0
-25 858 0
-859 32 0
-32 859 0
-860 39 0
-39 860 0
-861 46 0
-46 861 0
-855 862 0
-856 863 0
-862 863 0
-856 -862 0
-857 864 0
-863 864 0
-857 -863 0
-858 865 0
-864 865 0
-858 -864 0
-859 866 0
-865 866 0
-859 -865 0
-860 867 0
-866 867 0
-860 -866 0
-861 -867 0
-869 5 0
-5 869 0
-870 12 0
-12 870 0
-871 19 0
-19 871 0
-872 26 0
-26 872 0
-873 33 0
-33 873 0
-874 40 0
-40 874 0
-875 47 0
-47 875 0
-869 876 0
-870 877 0
-876 877 0
-870 -876 0
-871 878 0
-877 878 0
-871 -877 0
-872 879 0
-878 879 0
-872 -878 0
-873 880 0
-879 880 0
-873 -879 0
-874 881 0
-880 881 0
-874 -880 0
-875 -881 0
-883 6 0
-6 883 0
-884 13 0
-13 884 0
-885 20 0
-20 885 0
-886 27 0
-27 886 0
-887 34 0
-34 887 0
-888 41 0
-41 888 0
-889 48 0
-48 889 0
-883 890 0
-884 891 0
-890 891 0
-884 -890 0
-885 892 0
-891 892 0
-885 -891 0
-886 893 0
-892 893 0
-886 -892 0
-887 894 0
-893 894 0
-887 -893 0
-888 895 0
-894 895 0
-888 -894 0
-889 -895 0
-897 7 0
-7 897 0
-898 14 0
-14 898 0
-899 21 0
-21 899 0
-900 28 0
-28 900 0
-901 35 0
-35 901 0
-902 42 0
-42 902 0
-903 49 0
-49 903 0
-897 904 0
-898 905 0
-904 905 0
-898 -904 0
-899 906 0
-905 906 0
-899 -905 0
-900 907 0
-906 907 0
-900 -906 0
-901 908 0
-907 908 0
-901 -907 0
-902 909 0
-908 909 0
-902 -908 0
-903 -909 0
-911 50 0
-50 911 0
-912 57 0
-57 912 0
-913 64 0
-64 913 0
-914 71 0
-71 914 0
-915 78 0
-78 915 0
-916 85 0
-85 916 0
-917 92 0
-92 917 0
-911 918 0
-912 919 0
-918 919 0
-912 -918 0
-913 920 0
-919 920 0
-913 -919 0
-914 921 0
-920 921 0
-914 -920 0
-915 922 0
-921 922 0
-915 -921 0
-916 923 0
-922 923 0
-916 -922 0
-917 -923 0
-925 50 51 52 53 54 0
-50 925 0
-51 925 0
-52 925 0
-53 925 0
-54 925 0
-926 57 58 59 60 61 0
-57 926 0
-58 926 0
-59 926 0
-60 926 0
-61 926 0
-927 64 65 66 67 68 0
-64 927 0
-65 927 0
-66 927 0
-67 927 0
-68 927 0
-928 71 72 73 74 75 0
-71 928 0
-72 928 0
-73 928 0
-74 928 0
-75 928 0
-929 78 79 80 81 82 0
-78 929 0
-79 929 0
-80 929 0
-81 929 0
-82 929 0
-930 85 86 87 88 89 0
-85 930 0
-86 930 0
-87 930 0
-88 930 0
-89 930 0
-931 92 93 94 95 96 0
-92 931 0
-93 931 0
-94 931 0
-95 931 0
-96 931 0
-925 932 0
-933 0
-934 0
-935 0
-936 0
-926 937 0
-932 937 0
-926 -932 938 0
-933 938 0
-926 -933 939 0
-934 939 0
-926 -934 940 0
-935 940 0
-926 -935 941 0
-936 941 0
-926 -936 0
-927 942 0
-937 942 0
-927 -937 943 0
-938 943 0
-927 -938 944 0
-939 944 0
-927 -939 945 0
-940 945 0
-927 -940 946 0
-941 946 0
-927 -941 0
-928 947 0
-942 947 0
-928 -942 948 0
-943 948 0
-928 -943 949 0
-944 949 0
-928 -944 950 0
-945 950 0
-928 -945 951 0
-946 951 0
-928 -946 0
-929 952 0
-947 952 0
-929 -947 953 0
-948 953 0
-929 -948 954 0
-949 954 0
-929 -949 955 0
-950 955 0
-929 -950 956 0
-951 956 0
-929 -951 0
-930 957 0
-952 957 0
-930 -952 958 0
-953 958 0
-930 -953 959 0
-954 959 0
-930 -954 960 0
-955 960 0
-930 -955 961 0
-956 961 0
-930 -956 0
-931 -961 0
-967 51 0
-51 967 0
-968 58 0
-58 968 0
-969 65 0
-65 969 0
-970 72 0
-72 970 0
-971 79 0
-79 971 0
-972 86 0
-86 972 0
-973 93 0
-93 973 0
-967 974 0
-968 975 0
-974 975 0
-968 -974 0
-969 976 0
-975 976 0
-969 -975 0
-970 977 0
-976 977 0
-970 -976 0
-971 978 0
-977 978 0
-971 -977 0
-972 979 0
-978 979 0
-972 -978 0
-973 -979 0
-981 51 52 53 54 55 0
-51 981 0
-52 981 0
-53 981 0
-54 981 0
-55 981 0
-982 58 59 60 61 62 0
-58 982 0
-59 982 0
-60 982 0
-61 982 0
-62 982 0
-983 65 66 67 68 69 0
-65 983 0
-66 983 0
-67 983 0
-68 983 0
-69 983 0
-984 72 73 74 75 76 0
-72 984 0
-73 984 0
-74 984 0
-75 984 0
-76 984 0
-985 79 80 81 82 83 0
-79 985 0
-80 985 0
-81 985 0
-82 985 0
-83 985 0
-986 86 87 88 89 90 0
-86 986 0
-87 986 0
-88 986 0
-89 986 0
-90 986 0
-987 93 94 95 96 97 0
-93 987 0
-94 987 0
-95 987 0
-96 987 0
-97 987 0
-981 988 0
-989 0
-990 0
-991 0
-992 0
-982 993 0
-988 993 0
-982 -988 994 0
-989 994 0
-982 -989 995 0
-990 995 0
-982 -990 996 0
-991 996 0
-982 -991 997 0
-992 997 0
-982 -992 0
-983 998 0
-993 998 0
-983 -993 999 0
-994 999 0
-983 -994 1000 0
-995 1000 0
-983 -995 1001 0
-996 1001 0
-983 -996 1002 0
-997 1002 0
-983 -997 0
-984 1003 0
-998 1003 0
-984 -998 1004 0
-999 1004 0
-984 -999 1005 0
-1000 1005 0
-984 -1000 1006 0
-1001 1006 0
-984 -1001 1007 0
-1002 1007 0
-984 -1002 0
-985 1008 0
-1003 1008 0
-985 -1003 1009 0
-1004 1009 0
-985 -1004 1010 0
-1005 1010 0
-985 -1005 1011 0
-1006 1011 0
-985 -1006 1012 0
-1007 1012 0
-985 -1007 0
-986 1013 0
-1008 1013 0
-986 -1008 1014 0
-1009 1014 0
-986 -1009 1015 0
-1010 1015 0
-986 -1010 1016 0
-1011 1016 0
-986 -1011 1017 0
-1012 1017 0
-986 -1012 0
-987 -1017 0
-1023 52 0
-52 1023 0
-1024 59 0
-59 1024 0
-1025 66 0
-66 1025 0
-1026 73 0
-73 1026 0
-1027 80 0
-80 1027 0
-1028 87 0
-87 1028 0
-1029 94 0
-94 1029 0
-1023 1030 0
-1024 1031 0
-1030 1031 0
-1024 -1030 0
-1025 1032 0
-1031 1032 0
-1025 -1031 0
-1026 1033 0
-1032 1033 0
-1026 -1032 0
-1027 1034 0
-1033 1034 0
-1027 -1033 0
-1028 1035 0
-1034 1035 0
-1028 -1034 0
-1029 -1035 0
-1037 52 53 54 55 56 0
-52 1037 0
-53 1037 0
-54 1037 0
-55 1037 0
-56 1037 0
-1038 59 60 61 62 63 0
-59 1038 0
-60 1038 0
-61 1038 0
-62 1038 0
-63 1038 0
-1039 66 67 68 69 70 0
-66 1039 0
-67 1039 0
-68 1039 0
-69 1039 0
-70 1039 0
-1040 73 74 75 76 77 0
-73 1040 0
-74 1040 0
-75 1040 0
-76 1040 0
-77 1040 0
-1041 80 81 82 83 84 0
-80 1041 0
-81 1041 0
-82 1041 0
-83 1041 0
-84 1041 0
-1042 87 88 89 90 91 0
-87 1042 0
-88 1042 0
-89 1042 0
-90 1042 0
-91 1042 0
-1043 94 95 96 97 98 0
-94 1043 0
-95 1043 0
-96 1043 0
-97 1043 0
-98 1043 0
-1037 1044 0
-1045 0
-1046 0
-1047 0
-1048 0
-1038 1049 0
-1044 1049 0
-1038 -1044 1050 0
-1045 1050 0
-1038 -1045 1051 0
-1046 1051 0
-1038 -1046 1052 0
-1047 1052 0
-1038 -1047 1053 0
-1048 1053 0
-1038 -1048 0
-1039 1054 0
-1049 1054 0
-1039 -1049 1055 0
-1050 1055 0
-1039 -1050 1056 0
-1051 1056 0
-1039 -1051 1057 0
-1052 1057 0
-1039 -1052 1058 0
-1053 1058 0
-1039 -1053 0
-1040 1059 0
-1054 1059 0
-1040 -1054 1060 0
-1055 1060 0
-1040 -1055 1061 0
-1056 1061 0
-1040 -1056 1062 0
-1057 1062 0
-1040 -1057 1063 0
-1058 1063 0
-1040 -1058 0
-1041 1064 0
-1059 1064 0
-1041 -1059 1065 0
-1060 1065 0
-1041 -1060 1066 0
-1061 1066 0
-1041 -1061 1067 0
-1062 1067 0
-1041 -1062 1068 0
-1063 1068 0
-1041 -1063 0
-1042 1069 0
-1064 1069 0
-1042 -1064 1070 0
-1065 1070 0
-1042 -1065 1071 0
-1066 1071 0
-1042 -1066 1072 0
-1067 1072 0
-1042 -1067 1073 0
-1068 1073 0
-1042 -1068 0
-1043 -1073 0
-1079 53 0
-53 1079 0
-1080 60 0
-60 1080 0
-1081 67 0
-67 1081 0
-1082 74 0
-74 1082 0
-1083 81 0
-81 1083 0
-1084 88 0
-88 1084 0
-1085 95 0
-95 1085 0
-1079 1086 0
-1080 1087 0
-1086 1087 0
-1080 -1086 0
-1081 1088 0
-1087 1088 0
-1081 -1087 0
-1082 1089 0
-1088 1089 0
-1082 -1088 0
-1083 1090 0
-1089 1090 0
-1083 -1089 0
-1084 1091 0
-1090 1091 0
-1084 -1090 0
-1085 -1091 0
-1093 54 0
-54 1093 0
-1094 61 0
-61 1094 0
-1095 68 0
-68 1095 0
-1096 75 0
-75 1096 0
-1097 82 0
-82 1097 0
-1098 89 0
-89 1098 0
-1099 96 0
-96 1099 0
-1093 1100 0
-1094 1101 0
-1100 1101 0
-1094 -1100 0
-1095 1102 0
-1101 1102 0
-1095 -1101 0
-1096 1103 0
-1102 1103 0
-1096 -1102 0
-1097 1104 0
-1103 1104 0
-1097 -1103 0
-1098 1105 0
-1104 1105 0
-1098 -1104 0
-1099 -1105 0
-1107 55 0
-55 1107 0
-1108 62 0
-62 1108 0
-1109 69 0
-69 1109 0
-1110 76 0
-76 1110 0
-1111 83 0
-83 1111 0
-1112 90 0
-90 1112 0
-1113 97 0
-97 1113 0
-1107 1114 0
-1108 1115 0
-1114 1115 0
-1108 -1114 0
-1109 1116 0
-1115 1116 0
-1109 -1115 0
-1110 1117 0
-1116 1117 0
-1110 -1116 0
-1111 1118 0
-1117 1118 0
-1111 -1117 0
-1112 1119 0
-1118 1119 0
-1112 -1118 0
-1113 -1119 0
-1121 56 0
-56 1121 0
-1122 63 0
-63 1122 0
-1123 70 0
-70 1123 0
-1124 77 0
-77 1124 0
-1125 84 0
-84 1125 0
-1126 91 0
-91 1126 0
-1127 98 0
-98 1127 0
-1121 1128 0
-1122 1129 0
-1128 1129 0
-1122 -1128 0
-1123 1130 0
-1129 1130 0
-1123 -1129 0
-1124 1131 0
-1130 1131 0
-1124 -1130 0
-1125 1132 0
-1131 1132 0
-1125 -1131 0
-1126 1133 0
-1132 1133 0
-1126 -1132 0
-1127 -1133 0
-1135 99 0
-99 1135 0
-1136 106 0
-106 1136 0
-1137 113 0
-113 1137 0
-1138 120 0
-120 1138 0
-1139 127 0
-127 1139 0
-1140 134 0
-134 1140 0
-1141 141 0
-141 1141 0
-1135 1142 0
-1136 1143 0
-1142 1143 0
-1136 -1142 0
-1137 1144 0
-1143 1144 0
-1137 -1143 0
-1138 1145 0
-1144 1145 0
-1138 -1144 0
-1139 1146 0
-1145 1146 0
-1139 -1145 0
-1140 1147 0
-1146 1147 0
-1140 -1146 0
-1141 -1147 0
-1149 99 100 101 102 103 0
-99 1149 0
-100 1149 0
-101 1149 0
-102 1149 0
-103 1149 0
-1150 106 107 108 109 110 0
-106 1150 0
-107 1150 0
-108 1150 0
-109 1150 0
-110 1150 0
-1151 113 114 115 116 117 0
-113 1151 0
-114 1151 0
-115 1151 0
-116 1151 0
-117 1151 0
-1152 120 121 122 123 124 0
-120 1152 0
-121 1152 0
-122 1152 0
-123 1152 0
-124 1152 0
-1153 127 128 129 130 131 0
-127 1153 0
-128 1153 0
-129 1153 0
-130 1153 0
-131 1153 0
-1154 134 135 136 137 138 0
-134 1154 0
-135 1154 0
-136 1154 0
-137 1154 0
-138 1154 0
-1155 141 142 143 144 145 0
-141 1155 0
-142 1155 0
-143 1155 0
-144 1155 0
-145 1155 0
-1149 1156 0
-1157 0
-1158 0
-1159 0
-1160 0
-1150 1161 0
-1156 1161 0
-1150 -1156 1162 0
-1157 1162 0
-1150 -1157 1163 0
-1158 1163 0
-1150 -1158 1164 0
-1159 1164 0
-1150 -1159 1165 0
-1160 1165 0
-1150 -1160 0
-1151 1166 0
-1161 1166 0
-1151 -1161 1167 0
-1162 1167 0
-1151 -1162 1168 0
-1163 1168 0
-1151 -1163 1169 0
-1164 1169 0
-1151 -1164 1170 0
-1165 1170 0
-1151 -1165 0
-1152 1171 0
-1166 1171 0
-1152 -1166 1172 0
-1167 1172 0
-1152 -1167 1173 0
-1168 1173 0
-1152 -1168 1174 0
-1169 1174 0
-1152 -1169 1175 0
-1170 1175 0
-1152 -1170 0
-1153 1176 0
-1171 1176 0
-1153 -1171 1177 0
-1172 1177 0
-1153 -1172 1178 0
-1173 1178 0
-1153 -1173 1179 0
-1174 1179 0
-1153 -1174 1180 0
-1175 1180 0
-1153 -1175 0
-1154 1181 0
-1176 1181 0
-1154 -1176 1182 0
-1177 1182 0
-1154 -1177 1183 0
-1178 1183 0
-1154 -1178 1184 0
-1179 1184 0
-1154 -1179 1185 0
-1180 1185 0
-1154 -1180 0
-1155 -1185 0
-1191 100 0
-100 1191 0
-1192 107 0
-107 1192 0
-1193 114 0
-114 1193 0
-1194 121 0
-121 1194 0
-1195 128 0
-128 1195 0
-1196 135 0
-135 1196 0
-1197 142 0
-142 1197 0
-1191 1198 0
-1192 1199 0
-1198 1199 0
-1192 -1198 0
-1193 1200 0
-1199 1200 0
-1193 -1199 0
-1194 1201 0
-1200 1201 0
-1194 -1200 0
-1195 1202 0
-1201 1202 0
-1195 -1201 0
-1196 1203 0
-1202 1203 0
-1196 -1202 0
-1197 -1203 0
-1205 100 101 102 103 104 0
-100 1205 0
-101 1205 0
-102 1205 0
-103 1205 0
-104 1205 0
-1206 107 108 109 110 111 0
-107 1206 0
-108 1206 0
-109 1206 0
-110 1206 0
-111 1206 0
-1207 114 115 116 117 118 0
-114 1207 0
-115 1207 0
-116 1207 0
-117 1207 0
-118 1207 0
-1208 121 122 123 124 125 0
-121 1208 0
-122 1208 0
-123 1208 0
-124 1208 0
-125 1208 0
-1209 128 129 130 131 132 0
-128 1209 0
-129 1209 0
-130 1209 0
-131 1209 0
-132 1209 0
-1210 135 136 137 138 139 0
-135 1210 0
-136 1210 0
-137 1210 0
-138 1210 0
-139 1210 0
-1211 142 143 144 145 146 0
-142 1211 0
-143 1211 0
-144 1211 0
-145 1211 0
-146 1211 0
-1205 1212 0
-1213 0
-1214 0
-1215 0
-1216 0
-1206 1217 0
-1212 1217 0
-1206 -1212 1218 0
-1213 1218 0
-1206 -1213 1219 0
-1214 1219 0
-1206 -1214 1220 0
-1215 1220 0
-1206 -1215 1221 0
-1216 1221 0
-1206 -1216 0
-1207 1222 0
-1217 1222 0
-1207 -1217 1223 0
-1218 1223 0
-1207 -1218 1224 0
-1219 1224 0
-1207 -1219 1225 0
-1220 1225 0
-1207 -1220 1226 0
-1221 1226 0
-1207 -1221 0
-1208 1227 0
-1222 1227 0
-1208 -1222 1228 0
-1223 1228 0
-1208 -1223 1229 0
-1224 1229 0
-1208 -1224 1230 0
-1225 1230 0
-1208 -1225 1231 0
-1226 1231 0
-1208 -1226 0
-1209 1232 0
-1227 1232 0
-1209 -1227 1233 0
-1228 1233 0
-1209 -1228 1234 0
-1229 1234 0
-1209 -1229 1235 0
-1230 1235 0
-1209 -1230 1236 0
-1231 1236 0
-1209 -1231 0
-1210 1237 0
-1232 1237 0
-1210 -1232 1238 0
-1233 1238 0
-1210 -1233 1239 0
-1234 1239 0
-1210 -1234 1240 0
-1235 1240 0
-1210 -1235 1241 0
-1236 1241 0
-1210 -1236 0
-1211 -1241 0
-1247 101 0
-101 1247 0
-1248 108 0
-108 1248 0
-1249 115 0
-115 1249 0
-1250 122 0
-122 1250 0
-1251 129 0
-129 1251 0
-1252 136 0
-136 1252 0
-1253 143 0
-143 1253 0
-1247 1254 0
-1248 1255 0
-1254 1255 0
-1248 -1254 0
-1249 1256 0
-1255 1256 0
-1249 -1255 0
-1250 1257 0
-1256 1257 0
-1250 -1256 0
-1251 1258 0
-1257 1258 0
-1251 -1257 0
-1252 1259 0
-1258 1259 0
-1252 -1258 0
-1253 -1259 0
-1261 101 102 103 104 105 0
-101 1261 0
-102 1261 0
-103 1261 0
-104 1261 0
-105 1261 0
-1262 108 109 110 111 112 0
-108 1262 0
-109 1262 0
-110 1262 0
-111 1262 0
-112 1262 0
-1263 115 116 117 118 119 0
-115 1263 0
-116 1263 0
-117 1263 0
-118 1263 0
-119 1263 0
-1264 122 123 124 125 126 0
-122 1264 0
-123 1264 0
-124 1264 0
-125 1264 0
-126 1264 0
-1265 129 130 131 132 133 0
-129 1265 0
-130 1265 0
-131 1265 0
-132 1265 0
-133 1265 0
-1266 136 137 138 139 140 0
-136 1266 0
-137 1266 0
-138 1266 0
-139 1266 0
-140 1266 0
-1267 143 144 145 146 147 0
-143 1267 0
-144 1267 0
-145 1267 0
-146 1267 0
-147 1267 0
-1261 1268 0
-1269 0
-1270 0
-1271 0
-1272 0
-1262 1273 0
-1268 1273 0
-1262 -1268 1274 0
-1269 1274 0
-1262 -1269 1275 0
-1270 1275 0
-1262 -1270 1276 0
-1271 1276 0
-1262 -1271 1277 0
-1272 1277 0
-1262 -1272 0
-1263 1278 0
-1273 1278 0
-1263 -1273 1279 0
-1274 1279 0
-1263 -1274 1280 0
-1275 1280 0
-1263 -1275 1281 0
-1276 1281 0
-1263 -1276 1282 0
-1277 1282 0
-1263 -1277 0
-1264 1283 0
-1278 1283 0
-1264 -1278 1284 0
-1279 1284 0
-1264 -1279 1285 0
-1280 1285 0
-1264 -1280 1286 0
-1281 1286 0
-1264 -1281 1287 0
-1282 1287 0
-1264 -1282 0
-1265 1288 0
-1283 1288 0
-1265 -1283 1289 0
-1284 1289 0
-1265 -1284 1290 0
-1285 1290 0
-1265 -1285 1291 0
-1286 1291 0
-1265 -1286 1292 0
-1287 1292 0
-1265 -1287 0
-1266 1293 0
-1288 1293 0
-1266 -1288 1294 0
-1289 1294 0
-1266 -1289 1295 0
-1290 1295 0
-1266 -1290 1296 0
-1291 1296 0
-1266 -1291 1297 0
-1292 1297 0
-1266 -1292 0
-1267 -1297 0
-1303 102 0
-102 1303 0
-1304 109 0
-109 1304 0
-1305 116 0
-116 1305 0
-1306 123 0
-123 1306 0
-1307 130 0
-130 1307 0
-1308 137 0
-137 1308 0
-1309 144 0
-144 1309 0
-1303 1310 0
-1304 1311 0
-1310 1311 0
-1304 -1310 0
-1305 1312 0
-1311 1312 0
-1305 -1311 0
-1306 1313 0
-1312 1313 0
-1306 -1312 0
-1307 1314 0
-1313 1314 0
-1307 -1313 0
-1308 1315 0
-1314 1315 0
-1308 -1314 0
-1309 -1315 0
-1317 103 0
-103 1317 0
-1318 110 0
-110 1318 0
-1319 117 0
-117 1319 0
-1320 124 0
-124 1320 0
-1321 131 0
-131 1321 0
-1322 138 0
-138 1322 0
-1323 145 0
-145 1323 0
-1317 1324 0
-1318 1325 0
-1324 1325 0
-1318 -1324 0
-1319 1326 0
-1325 1326 0
-1319 -1325 0
-1320 1327 0
-1326 1327 0
-1320 -1326 0
-1321 1328 0
-1327 1328 0
-1321 -1327 0
-1322 1329 0
-1328 1329 0
-1322 -1328 0
-1323 -1329 0
-1331 104 0
-104 1331 0
-1332 111 0
-111 1332 0
-1333 118 0
-118 1333 0
-1334 125 0
-125 1334 0
-1335 132 0
-132 1335 0
-1336 139 0
-139 1336 0
-1337 146 0
-146 1337 0
-1331 1338 0
-1332 1339 0
-1338 1339 0
-1332 -1338 0
-1333 1340 0
-1339 1340 0
-1333 -1339 0
-1334 1341 0
-1340 1341 0
-1334 -1340 0
-1335 1342 0
-1341 1342 0
-1335 -1341 0
-1336 1343 0
-1342 1343 0
-1336 -1342 0
-1337 -1343 0
-1345 105 0
-105 1345 0
-1346 112 0
-112 1346 0
-1347 119 0
-119 1347 0
-1348 126 0
-126 1348 0
-1349 133 0
-133 1349 0
-1350 140 0
-140 1350 0
-1351 147 0
-147 1351 0
-1345 1352 0
-1346 1353 0
-1352 1353 0
-1346 -1352 0
-1347 1354 0
-1353 1354 0
-1347 -1353 0
-1348 1355 0
-1354 1355 0
-1348 -1354 0
-1349 1356 0
-1355 1356 0
-1349 -1355 0
-1350 1357 0
-1356 1357 0
-1350 -1356 0
-1351 -1357 0
-1359 148 0
-148 1359 0
-1360 155 0
-155 1360 0
-1361 162 0
-162 1361 0
-1362 169 0
-169 1362 0
-1363 176 0
-176 1363 0
-1364 183 0
-183 1364 0
-1365 190 0
-190 1365 0
-1359 1366 0
-1360 1367 0
-1366 1367 0
-1360 -1366 0
-1361 1368 0
-1367 1368 0
-1361 -1367 0
-1362 1369 0
-1368 1369 0
-1362 -1368 0
-1363 1370 0
-1369 1370 0
-1363 -1369 0
-1364 1371 0
-1370 1371 0
-1364 -1370 0
-1365 -1371 0
-1373 148 149 150 151 152 0
-148 1373 0
-149 1373 0
-150 1373 0
-151 1373 0
-152 1373 0
-1374 155 156 157 158 159 0
-155 1374 0
-156 1374 0
-157 1374 0
-158 1374 0
-159 1374 0
-1375 162 163 164 165 166 0
-162 1375 0
-163 1375 0
-164 1375 0
-165 1375 0
-166 1375 0
-1376 169 170 171 172 173 0
-169 1376 0
-170 1376 0
-171 1376 0
-172 1376 0
-173 1376 0
-1377 176 177 178 179 180 0
-176 1377 0
-177 1377 0
-178 1377 0
-179 1377 0
-180 1377 0
-1378 183 184 185 186 187 0
-183 1378 0
-184 1378 0
-185 1378 0
-186 1378 0
-187 1378 0
-1379 190 191 192 193 194 0
-190 1379 0
-191 1379 0
-192 1379 0
-193 1379 0
-194 1379 0
-1373 1380 0
-1381 0
-1382 0
-1383 0
-1384 0
-1374 1385 0
-1380 1385 0
-1374 -1380 1386 0
-1381 1386 0
-1374 -1381 1387 0
-1382 1387 0
-1374 -1382 1388 0
-1383 1388 0
-1374 -1383 1389 0
-1384 1389 0
-1374 -1384 0
-1375 1390 0
-1385 1390 0
-1375 -1385 1391 0
-1386 1391 0
-1375 -1386 1392 0
-1387 1392 0
-1375 -1387 1393 0
-1388 1393 0
-1375 -1388 1394 0
-1389 1394 0
-1375 -1389 0
-1376 1395 0
-1390 1395 0
-1376 -1390 1396 0
-1391 1396 0
-1376 -1391 1397 0
-1392 1397 0
-1376 -1392 1398 0
-1393 1398 0
-1376 -1393 1399 0
-1394 1399 0
-1376 -1394 0
-1377 1400 0
-1395 1400 0
-1377 -1395 1401 0
-1396 1401 0
-1377 -1396 1402 0
-1397 1402 0
-1377 -1397 1403 0
-1398 1403 0
-1377 -1398 1404 0
-1399 1404 0
-1377 -1399 0
-1378 1405 0
-1400 1405 0
-1378 -1400 1406 0
-1401 1406 0
-1378 -1401 1407 0
-1402 1407 0
-1378 -1402 1408 0
-1403 1408 0
-1378 -1403 1409 0
-1404 1409 0
-1378 -1404 0
-1379 -1409 0
-1415 149 0
-149 1415 0
-1416 156 0
-156 1416 0
-1417 163 0
-163 1417 0
-1418 170 0
-170 1418 0
-1419 177 0
-177 1419 0
-1420 184 0
-184 1420 0
-1421 191 0
-191 1421 0
-1415 1422 0
-1416 1423 0
-1422 1423 0
-1416 -1422 0
-1417 1424 0
-1423 1424 0
-1417 -1423 0
-1418 1425 0
-1424 1425 0
-1418 -1424 0
-1419 1426 0
-1425 1426 0
-1419 -1425 0
-1420 1427 0
-1426 1427 0
-1420 -1426 0
-1421 -1427 0
-1429 149 150 151 152 153 0
-149 1429 0
-150 1429 0
-151 1429 0
-152 1429 0
-153 1429 0
-1430 156 157 158 159 160 0
-156 1430 0
-157 1430 0
-158 1430 0
-159 1430 0
-160 1430 0
-1431 163 164 165 166 167 0
-163 1431 0
-164 1431 0
-165 1431 0
-166 1431 0
-167 1431 0
-1432 170 171 172 173 174 0
-170 1432 0
-171 1432 0
-172 1432 0
-173 1432 0
-174 1432 0
-1433 177 178 179 180 181 0
-177 1433 0
-178 1433 0
-179 1433 0
-180 1433 0
-181 1433 0
-1434 184 185 186 187 188 0
-184 1434 0
-185 1434 0
-186 1434 0
-187 1434 0
-188 1434 0
-1435 191 192 193 194 195 0
-191 1435 0
-192 1435 0
-193 1435 0
-194 1435 0
-195 1435 0
-1429 1436 0
-1437 0
-1438 0
-1439 0
-1440 0
-1430 1441 0
-1436 1441 0
-1430 -1436 1442 0
-1437 1442 0
-1430 -1437 1443 0
-1438 1443 0
-1430 -1438 1444 0
-1439 1444 0
-1430 -1439 1445 0
-1440 1445 0
-1430 -1440 0
-1431 1446 0
-1441 1446 0
-1431 -1441 1447 0
-1442 1447 0
-1431 -1442 1448 0
-1443 1448 0
-1431 -1443 1449 0
-1444 1449 0
-1431 -1444 1450 0
-1445 1450 0
-1431 -1445 0
-1432 1451 0
-1446 1451 0
-1432 -1446 1452 0
-1447 1452 0
-1432 -1447 1453 0
-1448 1453 0
-1432 -1448 1454 0
-1449 1454 0
-1432 -1449 1455 0
-1450 1455 0
-1432 -1450 0
-1433 1456 0
-1451 1456 0
-1433 -1451 1457 0
-1452 1457 0
-1433 -1452 1458 0
-1453 1458 0
-1433 -1453 1459 0
-1454 1459 0
-1433 -1454 1460 0
-1455 1460 0
-1433 -1455 0
-1434 1461 0
-1456 1461 0
-1434 -1456 1462 0
-1457 1462 0
-1434 -1457 1463 0
-1458 1463 0
-1434 -1458 1464 0
-1459 1464 0
-1434 -1459 1465 0
-1460 1465 0
-1434 -1460 0
-1435 -1465 0
-1471 150 0
-150 1471 0
-1472 157 0
-157 1472 0
-1473 164 0
-164 1473 0
-1474 171 0
-171 1474 0
-1475 178 0
-178 1475 0
-1476 185 0
-185 1476 0
-1477 192 0
-192 1477 0
-1471 1478 0
-1472 1479 0
-1478 1479 0
-1472 -1478 0
-1473 1480 0
-1479 1480 0
-1473 -1479 0
-1474 1481 0
-1480 1481 0
-1474 -1480 0
-1475 1482 0
-1481 1482 0
-1475 -1481 0
-1476 1483 0
-1482 1483 0
-1476 -1482 0
-1477 -1483 0
-1485 150 151 152 153 154 0
-150 1485 0
-151 1485 0
-152 1485 0
-153 1485 0
-154 1485 0
-1486 157 158 159 160 161 0
-157 1486 0
-158 1486 0
-159 1486 0
-160 1486 0
-161 1486 0
-1487 164 165 166 167 168 0
-164 1487 0
-165 1487 0
-166 1487 0
-167 1487 0
-168 1487 0
-1488 171 172 173 174 175 0
-171 1488 0
-172 1488 0
-173 1488 0
-174 1488 0
-175 1488 0
-1489 178 179 180 181 182 0
-178 1489 0
-179 1489 0
-180 1489 0
-181 1489 0
-182 1489 0
-1490 185 186 187 188 189 0
-185 1490 0
-186 1490 0
-187 1490 0
-188 1490 0
-189 1490 0
-1491 192 193 194 195 196 0
-192 1491 0
-193 1491 0
-194 1491 0
-195 1491 0
-196 1491 0
-1485 1492 0
-1493 0
-1494 0
-1495 0
-1496 0
-1486 1497 0
-1492 1497 0
-1486 -1492 1498 0
-1493 1498 0
-1486 -1493 1499 0
-1494 1499 0
-1486 -1494 1500 0
-1495 1500 0
-1486 -1495 1501 0
-1496 1501 0
-1486 -1496 0
-1487 1502 0
-1497 1502 0
-1487 -1497 1503 0
-1498 1503 0
-1487 -1498 1504 0
-1499 1504 0
-1487 -1499 1505 0
-1500 1505 0
-1487 -1500 1506 0
-1501 1506 0
-1487 -1501 0
-1488 1507 0
-1502 1507 0
-1488 -1502 1508 0
-1503 1508 0
-1488 -1503 1509 0
-1504 1509 0
-1488 -1504 1510 0
-1505 1510 0
-1488 -1505 1511 0
-1506 1511 0
-1488 -1506 0
-1489 1512 0
-1507 1512 0
-1489 -1507 1513 0
-1508 1513 0
-1489 -1508 1514 0
-1509 1514 0
-1489 -1509 1515 0
-1510 1515 0
-1489 -1510 1516 0
-1511 1516 0
-1489 -1511 0
-1490 1517 0
-1512 1517 0
-1490 -1512 1518 0
-1513 1518 0
-1490 -1513 1519 0
-1514 1519 0
-1490 -1514 1520 0
-1515 1520 0
-1490 -1515 1521 0
-1516 1521 0
-1490 -1516 0
-1491 -1521 0
-1527 151 0
-151 1527 0
-1528 158 0
-158 1528 0
-1529 165 0
-165 1529 0
-1530 172 0
-172 1530 0
-1531 179 0
-179 1531 0
-1532 186 0
-186 1532 0
-1533 193 0
-193 1533 0
-1527 1534 0
-1528 1535 0
-1534 1535 0
-1528 -1534 0
-1529 1536 0
-1535 1536 0
-1529 -1535 0
-1530 1537 0
-1536 1537 0
-1530 -1536 0
-1531 1538 0
-1537 1538 0
-1531 -1537 0
-1532 1539 0
-1538 1539 0
-1532 -1538 0
-1533 -1539 0
-1541 152 0
-152 1541 0
-1542 159 0
-159 1542 0
-1543 166 0
-166 1543 0
-1544 173 0
-173 1544 0
-1545 180 0
-180 1545 0
-1546 187 0
-187 1546 0
-1547 194 0
-194 1547 0
-1541 1548 0
-1542 1549 0
-1548 1549 0
-1542 -1548 0
-1543 1550 0
-1549 1550 0
-1543 -1549 0
-1544 1551 0
-1550 1551 0
-1544 -1550 0
-1545 1552 0
-1551 1552 0
-1545 -1551 0
-1546 1553 0
-1552 1553 0
-1546 -1552 0
-1547 -1553 0
-1555 153 0
-153 1555 0
-1556 160 0
-160 1556 0
-1557 167 0
-167 1557 0
-1558 174 0
-174 1558 0
-1559 181 0
-181 1559 0
-1560 188 0
-188 1560 0
-1561 195 0
-195 1561 0
-1555 1562 0
-1556 1563 0
-1562 1563 0
-1556 -1562 0
-1557 1564 0
-1563 1564 0
-1557 -1563 0
-1558 1565 0
-1564 1565 0
-1558 -1564 0
-1559 1566 0
-1565 1566 0
-1559 -1565 0
-1560 1567 0
-1566 1567 0
-1560 -1566 0
-1561 -1567 0
-1569 154 0
-154 1569 0
-1570 161 0
-161 1570 0
-1571 168 0
-168 1571 0
-1572 175 0
-175 1572 0
-1573 182 0
-182 1573 0
-1574 189 0
-189 1574 0
-1575 196 0
-196 1575 0
-1569 1576 0
-1570 1577 0
-1576 1577 0
-1570 -1576 0
-1571 1578 0
-1577 1578 0
-1571 -1577 0
-1572 1579 0
-1578 1579 0
-1572 -1578 0
-1573 1580 0
-1579 1580 0
-1573 -1579 0
-1574 1581 0
-1580 1581 0
-1574 -1580 0
-1575 -1581 0
-1583 197 0
-197 1583 0
-1584 204 0
-204 1584 0
-1585 211 0
-211 1585 0
-1586 218 0
-218 1586 0
-1587 225 0
-225 1587 0
-1588 232 0
-232 1588 0
-1589 239 0
-239 1589 0
-1583 1590 0
-1584 1591 0
-1590 1591 0
-1584 -1590 0
-1585 1592 0
-1591 1592 0
-1585 -1591 0
-1586 1593 0
-1592 1593 0
-1586 -1592 0
-1587 1594 0
-1593 1594 0
-1587 -1593 0
-1588 1595 0
-1594 1595 0
-1588 -1594 0
-1589 -1595 0
-1597 197 198 199 200 201 0
-197 1597 0
-198 1597 0
-199 1597 0
-200 1597 0
-201 1597 0
-1598 204 205 206 207 208 0
-204 1598 0
-205 1598 0
-206 1598 0
-207 1598 0
-208 1598 0
-1599 211 212 213 214 215 0
-211 1599 0
-212 1599 0
-213 1599 0
-214 1599 0
-215 1599 0
-1600 218 219 220 221 222 0
-218 1600 0
-219 1600 0
-220 1600 0
-221 1600 0
-222 1600 0
-1601 225 226 227 228 229 0
-225 1601 0
-226 1601 0
-227 1601 0
-228 1601 0
-229 1601 0
-1602 232 233 234 235 236 0
-232 1602 0
-233 1602 0
-234 1602 0
-235 1602 0
-236 1602 0
-1603 239 240 241 242 243 0
-239 1603 0
-240 1603 0
-241 1603 0
-242 1603 0
-243 1603 0
-1597 1604 0
-1605 0
-1606 0
-1607 0
-1608 0
-1598 1609 0
-1604 1609 0
-1598 -1604 1610 0
-1605 1610 0
-1598 -1605 1611 0
-1606 1611 0
-1598 -1606 1612 0
-1607 1612 0
-1598 -1607 1613 0
-1608 1613 0
-1598 -1608 0
-1599 1614 0
-1609 1614 0
-1599 -1609 1615 0
-1610 1615 0
-1599 -1610 1616 0
-1611 1616 0
-1599 -1611 1617 0
-1612 1617 0
-1599 -1612 1618 0
-1613 1618 0
-1599 -1613 0
-1600 1619 0
-1614 1619 0
-1600 -1614 1620 0
-1615 1620 0
-1600 -1615 1621 0
-1616 1621 0
-1600 -1616 1622 0
-1617 1622 0
-1600 -1617 1623 0
-1618 1623 0
-1600 -1618 0
-1601 1624 0
-1619 1624 0
-1601 -1619 1625 0
-1620 1625 0
-1601 -1620 1626 0
-1621 1626 0
-1601 -1621 1627 0
-1622 1627 0
-1601 -1622 1628 0
-1623 1628 0
-1601 -1623 0
-1602 1629 0
-1624 1629 0
-1602 -1624 1630 0
-1625 1630 0
-1602 -1625 1631 0
-1626 1631 0
-1602 -1626 1632 0
-1627 1632 0
-1602 -1627 1633 0
-1628 1633 0
-1602 -1628 0
-1603 -1633 0
-1639 198 0
-198 1639 0
-1640 205 0
-205 1640 0
-1641 212 0
-212 1641 0
-1642 219 0
-219 1642 0
-1643 226 0
-226 1643 0
-1644 233 0
-233 1644 0
-1645 240 0
-240 1645 0
-1639 1646 0
-1640 1647 0
-1646 1647 0
-1640 -1646 0
-1641 1648 0
-1647 1648 0
-1641 -1647 0
-1642 1649 0
-1648 1649 0
-1642 -1648 0
-1643 1650 0
-1649 1650 0
-1643 -1649 0
-1644 1651 0
-1650 1651 0
-1644 -1650 0
-1645 -1651 0
-1653 198 199 200 201 202 0
-198 1653 0
-199 1653 0
-200 1653 0
-201 1653 0
-202 1653 0
-1654 205 206 207 208 209 0
-205 1654 0
-206 1654 0
-207 1654 0
-208 1654 0
-209 1654 0
-1655 212 213 214 215 216 0
-212 1655 0
-213 1655 0
-214 1655 0
-215 1655 0
-216 1655 0
-1656 219 220 221 222 223 0
-219 1656 0
-220 1656 0
-221 1656 0
-222 1656 0
-223 1656 0
-1657 226 227 228 229 230 0
-226 1657 0
-227 1657 0
-228 1657 0
-229 1657 0
-230 1657 0
-1658 233 234 235 236 237 0
-233 1658 0
-234 1658 0
-235 1658 0
-236 1658 0
-237 1658 0
-1659 240 241 242 243 244 0
-240 1659 0
-241 1659 0
-242 1659 0
-243 1659 0
-244 1659 0
-1653 1660 0
-1661 0
-1662 0
-1663 0
-1664 0
-1654 1665 0
-1660 1665 0
-1654 -1660 1666 0
-1661 1666 0
-1654 -1661 1667 0
-1662 1667 0
-1654 -1662 1668 0
-1663 1668 0
-1654 -1663 1669 0
-1664 1669 0
-1654 -1664 0
-1655 1670 0
-1665 1670 0
-1655 -1665 1671 0
-1666 1671 0
-1655 -1666 1672 0
-1667 1672 0
-1655 -1667 1673 0
-1668 1673 0
-1655 -1668 1674 0
-1669 1674 0
-1655 -1669 0
-1656 1675 0
-1670 1675 0
-1656 -1670 1676 0
-1671 1676 0
-1656 -1671 1677 0
-1672 1677 0
-1656 -1672 1678 0
-1673 1678 0
-1656 -1673 1679 0
-1674 1679 0
-1656 -1674 0
-1657 1680 0
-1675 1680 0
-1657 -1675 1681 0
-1676 1681 0
-1657 -1676 1682 0
-1677 1682 0
-1657 -1677 1683 0
-1678 1683 0
-1657 -1678 1684 0
-1679 1684 0
-1657 -1679 0
-1658 1685 0
-1680 1685 0
-1658 -1680 1686 0
-1681 1686 0
-1658 -1681 1687 0
-1682 1687 0
-1658 -1682 1688 0
-1683 1688 0
-1658 -1683 1689 0
-1684 1689 0
-1658 -1684 0
-1659 -1689 0
-1695 199 0
-199 1695 0
-1696 206 0
-206 1696 0
-1697 213 0
-213 1697 0
-1698 220 0
-220 1698 0
-1699 227 0
-227 1699 0
-1700 234 0
-234 1700 0
-1701 241 0
-241 1701 0
-1695 1702 0
-1696 1703 0
-1702 1703 0
-1696 -1702 0
-1697 1704 0
-1703 1704 0
-1697 -1703 0
-1698 1705 0
-1704 1705 0
-1698 -1704 0
-1699 1706 0
-1705 1706 0
-1699 -1705 0
-1700 1707 0
-1706 1707 0
-1700 -1706 0
-1701 -1707 0
-1709 199 200 201 202 203 0
-199 1709 0
-200 1709 0
-201 1709 0
-202 1709 0
-203 1709 0
-1710 206 207 208 209 210 0
-206 1710 0
-207 1710 0
-208 1710 0
-209 1710 0
-210 1710 0
-1711 213 214 215 216 217 0
-213 1711 0
-214 1711 0
-215 1711 0
-216 1711 0
-217 1711 0
-1712 220 221 222 223 224 0
-220 1712 0
-221 1712 0
-222 1712 0
-223 1712 0
-224 1712 0
-1713 227 228 229 230 231 0
-227 1713 0
-228 1713 0
-229 1713 0
-230 1713 0
-231 1713 0
-1714 234 235 236 237 238 0
-234 1714 0
-235 1714 0
-236 1714 0
-237 1714 0
-238 1714 0
-1715 241 242 243 244 245 0
-241 1715 0
-242 1715 0
-243 1715 0
-244 1715 0
-245 1715 0
-1709 1716 0
-1717 0
-1718 0
-1719 0
-1720 0
-1710 1721 0
-1716 1721 0
-1710 -1716 1722 0
-1717 1722 0
-1710 -1717 1723 0
-1718 1723 0
-1710 -1718 1724 0
-1719 1724 0
-1710 -1719 1725 0
-1720 1725 0
-1710 -1720 0
-1711 1726 0
-1721 1726 0
-1711 -1721 1727 0
-1722 1727 0
-1711 -1722 1728 0
-1723 1728 0
-1711 -1723 1729 0
-1724 1729 0
-1711 -1724 1730 0
-1725 1730 0
-1711 -1725 0
-1712 1731 0
-1726 1731 0
-1712 -1726 1732 0
-1727 1732 0
-1712 -1727 1733 0
-1728 1733 0
-1712 -1728 1734 0
-1729 1734 0
-1712 -1729 1735 0
-1730 1735 0
-1712 -1730 0
-1713 1736 0
-1731 1736 0
-1713 -1731 1737 0
-1732 1737 0
-1713 -1732 1738 0
-1733 1738 0
-1713 -1733 1739 0
-1734 1739 0
-1713 -1734 1740 0
-1735 1740 0
-1713 -1735 0
-1714 1741 0
-1736 1741 0
-1714 -1736 1742 0
-1737 1742 0
-1714 -1737 1743 0
-1738 1743 0
-1714 -1738 1744 0
-1739 1744 0
-1714 -1739 1745 0
-1740 1745 0
-1714 -1740 0
-1715 -1745 0
-1751 200 0
-200 1751 0
-1752 207 0
-207 1752 0
-1753 214 0
-214 1753 0
-1754 221 0
-221 1754 0
-1755 228 0
-228 1755 0
-1756 235 0
-235 1756 0
-1757 242 0
-242 1757 0
-1751 1758 0
-1752 1759 0
-1758 1759 0
-1752 -1758 0
-1753 1760 0
-1759 1760 0
-1753 -1759 0
-1754 1761 0
-1760 1761 0
-1754 -1760 0
-1755 1762 0
-1761 1762 0
-1755 -1761 0
-1756 1763 0
-1762 1763 0
-1756 -1762 0
-1757 -1763 0
-1765 201 0
-201 1765 0
-1766 208 0
-208 1766 0
-1767 215 0
-215 1767 0
-1768 222 0
-222 1768 0
-1769 229 0
-229 1769 0
-1770 236 0
-236 1770 0
-1771 243 0
-243 1771 0
-1765 1772 0
-1766 1773 0
-1772 1773 0
-1766 -1772 0
-1767 1774 0
-1773 1774 0
-1767 -1773 0
-1768 1775 0
-1774 1775 0
-1768 -1774 0
-1769 1776 0
-1775 1776 0
-1769 -1775 0
-1770 1777 0
-1776 1777 0
-1770 -1776 0
-1771 -1777 0
-1779 202 0
-202 1779 0
-1780 209 0
-209 1780 0
-1781 216 0
-216 1781 0
-1782 223 0
-223 1782 0
-1783 230 0
-230 1783 0
-1784 237 0
-237 1784 0
-1785 244 0
-244 1785 0
-1779 1786 0
-1780 1787 0
-1786 1787 0
-1780 -1786 0
-1781 1788 0
-1787 1788 0
-1781 -1787 0
-1782 1789 0
-1788 1789 0
-1782 -1788 0
-1783 1790 0
-1789 1790 0
-1783 -1789 0
-1784 1791 0
-1790 1791 0
-1784 -1790 0
-1785 -1791 0
-1793 203 0
-203 1793 0
-1794 210 0
-210 1794 0
-1795 217 0
-217 1795 0
-1796 224 0
-224 1796 0
-1797 231 0
-231 1797 0
-1798 238 0
-238 1798 0
-1799 245 0
-245 1799 0
-1793 1800 0
-1794 1801 0
-1800 1801 0
-1794 -1800 0
-1795 1802 0
-1801 1802 0
-1795 -1801 0
-1796 1803 0
-1802 1803 0
-1796 -1802 0
-1797 1804 0
-1803 1804 0
-1797 -1803 0
-1798 1805 0
-1804 1805 0
-1798 -1804 0
-1799 -1805 0
-1807 246 0
-246 1807 0
-1808 253 0
-253 1808 0
-1809 260 0
-260 1809 0
-1810 267 0
-267 1810 0
-1811 274 0
-274 1811 0
-1812 281 0
-281 1812 0
-1813 288 0
-288 1813 0
-1807 1814 0
-1808 1815 0
-1814 1815 0
-1808 -1814 0
-1809 1816 0
-1815 1816 0
-1809 -1815 0
-1810 1817 0
-1816 1817 0
-1810 -1816 0
-1811 1818 0
-1817 1818 0
-1811 -1817 0
-1812 1819 0
-1818 1819 0
-1812 -1818 0
-1813 -1819 0
-1821 246 247 248 249 250 0
-246 1821 0
-247 1821 0
-248 1821 0
-249 1821 0
-250 1821 0
-1822 253 254 255 256 257 0
-253 1822 0
-254 1822 0
-255 1822 0
-256 1822 0
-257 1822 0
-1823 260 261 262 263 264 0
-260 1823 0
-261 1823 0
-262 1823 0
-263 1823 0
-264 1823 0
-1824 267 268 269 270 271 0
-267 1824 0
-268 1824 0
-269 1824 0
-270 1824 0
-271 1824 0
-1825 274 275 276 277 278 0
-274 1825 0
-275 1825 0
-276 1825 0
-277 1825 0
-278 1825 0
-1826 281 282 283 284 285 0
-281 1826 0
-282 1826 0
-283 1826 0
-284 1826 0
-285 1826 0
-1827 288 289 290 291 292 0
-288 1827 0
-289 1827 0
-290 1827 0
-291 1827 0
-292 1827 0
-1821 1828 0
-1829 0
-1830 0
-1831 0
-1832 0
-1822 1833 0
-1828 1833 0
-1822 -1828 1834 0
-1829 1834 0
-1822 -1829 1835 0
-1830 1835 0
-1822 -1830 1836 0
-1831 1836 0
-1822 -1831 1837 0
-1832 1837 0
-1822 -1832 0
-1823 1838 0
-1833 1838 0
-1823 -1833 1839 0
-1834 1839 0
-1823 -1834 1840 0
-1835 1840 0
-1823 -1835 1841 0
-1836 1841 0
-1823 -1836 1842 0
-1837 1842 0
-1823 -1837 0
-1824 1843 0
-1838 1843 0
-1824 -1838 1844 0
-1839 1844 0
-1824 -1839 1845 0
-1840 1845 0
-1824 -1840 1846 0
-1841 1846 0
-1824 -1841 1847 0
-1842 1847 0
-1824 -1842 0
-1825 1848 0
-1843 1848 0
-1825 -1843 1849 0
-1844 1849 0
-1825 -1844 1850 0
-1845 1850 0
-1825 -1845 1851 0
-1846 1851 0
-1825 -1846 1852 0
-1847 1852 0
-1825 -1847 0
-1826 1853 0
-1848 1853 0
-1826 -1848 1854 0
-1849 1854 0
-1826 -1849 1855 0
-1850 1855 0
-1826 -1850 1856 0
-1851 1856 0
-1826 -1851 1857 0
-1852 1857 0
-1826 -1852 0
-1827 -1857 0
-1863 247 0
-247 1863 0
-1864 254 0
-254 1864 0
-1865 261 0
-261 1865 0
-1866 268 0
-268 1866 0
-1867 275 0
-275 1867 0
-1868 282 0
-282 1868 0
-1869 289 0
-289 1869 0
-1863 1870 0
-1864 1871 0
-1870 1871 0
-1864 -1870 0
-1865 1872 0
-1871 1872 0
-1865 -1871 0
-1866 1873 0
-1872 1873 0
-1866 -1872 0
-1867 1874 0
-1873 1874 0
-1867 -1873 0
-1868 1875 0
-1874 1875 0
-1868 -1874 0
-1869 -1875 0
-1877 247 248 249 250 251 0
-247 1877 0
-248 1877 0
-249 1877 0
-250 1877 0
-251 1877 0
-1878 254 255 256 257 258 0
-254 1878 0
-255 1878 0
-256 1878 0
-257 1878 0
-258 1878 0
-1879 261 262 263 264 265 0
-261 1879 0
-262 1879 0
-263 1879 0
-264 1879 0
-265 1879 0
-1880 268 269 270 271 272 0
-268 1880 0
-269 1880 0
-270 1880 0
-271 1880 0
-272 1880 0
-1881 275 276 277 278 279 0
-275 1881 0
-276 1881 0
-277 1881 0
-278 1881 0
-279 1881 0
-1882 282 283 284 285 286 0
-282 1882 0
-283 1882 0
-284 1882 0
-285 1882 0
-286 1882 0
-1883 289 290 291 292 293 0
-289 1883 0
-290 1883 0
-291 1883 0
-292 1883 0
-293 1883 0
-1877 1884 0
-1885 0
-1886 0
-1887 0
-1888 0
-1878 1889 0
-1884 1889 0
-1878 -1884 1890 0
-1885 1890 0
-1878 -1885 1891 0
-1886 1891 0
-1878 -1886 1892 0
-1887 1892 0
-1878 -1887 1893 0
-1888 1893 0
-1878 -1888 0
-1879 1894 0
-1889 1894 0
-1879 -1889 1895 0
-1890 1895 0
-1879 -1890 1896 0
-1891 1896 0
-1879 -1891 1897 0
-1892 1897 0
-1879 -1892 1898 0
-1893 1898 0
-1879 -1893 0
-1880 1899 0
-1894 1899 0
-1880 -1894 1900 0
-1895 1900 0
-1880 -1895 1901 0
-1896 1901 0
-1880 -1896 1902 0
-1897 1902 0
-1880 -1897 1903 0
-1898 1903 0
-1880 -1898 0
-1881 1904 0
-1899 1904 0
-1881 -1899 1905 0
-1900 1905 0
-1881 -1900 1906 0
-1901 1906 0
-1881 -1901 1907 0
-1902 1907 0
-1881 -1902 1908 0
-1903 1908 0
-1881 -1903 0
-1882 1909 0
-1904 1909 0
-1882 -1904 1910 0
-1905 1910 0
-1882 -1905 1911 0
-1906 1911 0
-1882 -1906 1912 0
-1907 1912 0
-1882 -1907 1913 0
-1908 1913 0
-1882 -1908 0
-1883 -1913 0
-1919 248 0
-248 1919 0
-1920 255 0
-255 1920 0
-1921 262 0
-262 1921 0
-1922 269 0
-269 1922 0
-1923 276 0
-276 1923 0
-1924 283 0
-283 1924 0
-1925 290 0
-290 1925 0
-1919 1926 0
-1920 1927 0
-1926 1927 0
-1920 -1926 0
-1921 1928 0
-1927 1928 0
-1921 -1927 0
-1922 1929 0
-1928 1929 0
-1922 -1928 0
-1923 1930 0
-1929 1930 0
-1923 -1929 0
-1924 1931 0
-1930 1931 0
-1924 -1930 0
-1925 -1931 0
-1933 248 249 250 251 252 0
-248 1933 0
-249 1933 0
-250 1933 0
-251 1933 0
-252 1933 0
-1934 255 256 257 258 259 0
-255 1934 0
-256 1934 0
-257 1934 0
-258 1934 0
-259 1934 0
-1935 262 263 264 265 266 0
-262 1935 0
-263 1935 0
-264 1935 0
-265 1935 0
-266 1935 0
-1936 269 270 271 272 273 0
-269 1936 0
-270 1936 0
-271 1936 0
-272 1936 0
-273 1936 0
-1937 276 277 278 279 280 0
-276 1937 0
-277 1937 0
-278 1937 0
-279 1937 0
-280 1937 0
-1938 283 284 285 286 287 0
-283 1938 0
-284 1938 0
-285 1938 0
-286 1938 0
-287 1938 0
-1939 290 291 292 293 294 0
-290 1939 0
-291 1939 0
-292 1939 0
-293 1939 0
-294 1939 0
-1933 1940 0
-1941 0
-1942 0
-1943 0
-1944 0
-1934 1945 0
-1940 1945 0
-1934 -1940 1946 0
-1941 1946 0
-1934 -1941 1947 0
-1942 1947 0
-1934 -1942 1948 0
-1943 1948 0
-1934 -1943 1949 0
-1944 1949 0
-1934 -1944 0
-1935 1950 0
-1945 1950 0
-1935 -1945 1951 0
-1946 1951 0
-1935 -1946 1952 0
-1947 1952 0
-1935 -1947 1953 0
-1948 1953 0
-1935 -1948 1954 0
-1949 1954 0
-1935 -1949 0
-1936 1955 0
-1950 1955 0
-1936 -1950 1956 0
-1951 1956 0
-1936 -1951 1957 0
-1952 1957 0
-1936 -1952 1958 0
-1953 1958 0
-1936 -1953 1959 0
-1954 1959 0
-1936 -1954 0
-1937 1960 0
-1955 1960 0
-1937 -1955 1961 0
-1956 1961 0
-1937 -1956 1962 0
-1957 1962 0
-1937 -1957 1963 0
-1958 1963 0
-1937 -1958 1964 0
-1959 1964 0
-1937 -1959 0
-1938 1965 0
-1960 1965 0
-1938 -1960 1966 0
-1961 1966 0
-1938 -1961 1967 0
-1962 1967 0
-1938 -1962 1968 0
-1963 1968 0
-1938 -1963 1969 0
-1964 1969 0
-1938 -1964 0
-1939 -1969 0
-1975 249 0
-249 1975 0
-1976 256 0
-256 1976 0
-1977 263 0
-263 1977 0
-1978 270 0
-270 1978 0
-1979 277 0
-277 1979 0
-1980 284 0
-284 1980 0
-1981 291 0
-291 1981 0
-1975 1982 0
-1976 1983 0
-1982 1983 0
-1976 -1982 0
-1977 1984 0
-1983 1984 0
-1977 -1983 0
-1978 1985 0
-1984 1985 0
-1978 -1984 0
-1979 1986 0
-1985 1986 0
-1979 -1985 0
-1980 1987 0
-1986 1987 0
-1980 -1986 0
-1981 -1987 0
-1989 250 0
-250 1989 0
-1990 257 0
-257 1990 0
-1991 264 0
-264 1991 0
-1992 271 0
-271 1992 0
-1993 278 0
-278 1993 0
-1994 285 0
-285 1994 0
-1995 292 0
-292 1995 0
-1989 1996 0
-1990 1997 0
-1996 1997 0
-1990 -1996 0
-1991 1998 0
-1997 1998 0
-1991 -1997 0
-1992 1999 0
-1998 1999 0
-1992 -1998 0
-1993 2000 0
-1999 2000 0
-1993 -1999 0
-1994 2001 0
-2000 2001 0
-1994 -2000 0
-1995 -2001 0
-2003 251 0
-251 2003 0
-2004 258 0
-258 2004 0
-2005 265 0
-265 2005 0
-2006 272 0
-272 2006 0
-2007 279 0
-279 2007 0
-2008 286 0
-286 2008 0
-2009 293 0
-293 2009 0
-2003 2010 0
-2004 2011 0
-2010 2011 0
-2004 -2010 0
-2005 2012 0
-2011 2012 0
-2005 -2011 0
-2006 2013 0
-2012 2013 0
-2006 -2012 0
-2007 2014 0
-2013 2014 0
-2007 -2013 0
-2008 2015 0
-2014 2015 0
-2008 -2014 0
-2009 -2015 0
-2017 252 0
-252 2017 0
-2018 259 0
-259 2018 0
-2019 266 0
-266 2019 0
-2020 273 0
-273 2020 0
-2021 280 0
-280 2021 0
-2022 287 0
-287 2022 0
-2023 294 0
-294 2023 0
-2017 2024 0
-2018 2025 0
-2024 2025 0
-2018 -2024 0
-2019 2026 0
-2025 2026 0
-2019 -2025 0
-2020 2027 0
-2026 2027 0
-2020 -2026 0
-2021 2028 0
-2027 2028 0
-2021 -2027 0
-2022 2029 0
-2028 2029 0
-2022 -2028 0
-2023 -2029 0
-2031 295 0
-295 2031 0
-2032 302 0
-302 2032 0
-2033 309 0
-309 2033 0
-2034 316 0
-316 2034 0
-2035 323 0
-323 2035 0
-2036 330 0
-330 2036 0
-2037 337 0
-337 2037 0
-2031 2038 0
-2032 2039 0
-2038 2039 0
-2032 -2038 0
-2033 2040 0
-2039 2040 0
-2033 -2039 0
-2034 2041 0
-2040 2041 0
-2034 -2040 0
-2035 2042 0
-2041 2042 0
-2035 -2041 0
-2036 2043 0
-2042 2043 0
-2036 -2042 0
-2037 -2043 0
-2045 295 296 297 298 299 0
-295 2045 0
-296 2045 0
-297 2045 0
-298 2045 0
-299 2045 0
-2046 302 303 304 305 306 0
-302 2046 0
-303 2046 0
-304 2046 0
-305 2046 0
-306 2046 0
-2047 309 310 311 312 313 0
-309 2047 0
-310 2047 0
-311 2047 0
-312 2047 0
-313 2047 0
-2048 316 317 318 319 320 0
-316 2048 0
-317 2048 0
-318 2048 0
-319 2048 0
-320 2048 0
-2049 323 324 325 326 327 0
-323 2049 0
-324 2049 0
-325 2049 0
-326 2049 0
-327 2049 0
-2050 330 331 332 333 334 0
-330 2050 0
-331 2050 0
-332 2050 0
-333 2050 0
-334 2050 0
-2051 337 338 339 340 341 0
-337 2051 0
-338 2051 0
-339 2051 0
-340 2051 0
-341 2051 0
-2045 2052 0
-2053 0
-2054 0
-2055 0
-2056 0
-2046 2057 0
-2052 2057 0
-2046 -2052 2058 0
-2053 2058 0
-2046 -2053 2059 0
-2054 2059 0
-2046 -2054 2060 0
-2055 2060 0
-2046 -2055 2061 0
-2056 2061 0
-2046 -2056 0
-2047 2062 0
-2057 2062 0
-2047 -2057 2063 0
-2058 2063 0
-2047 -2058 2064 0
-2059 2064 0
-2047 -2059 2065 0
-2060 2065 0
-2047 -2060 2066 0
-2061 2066 0
-2047 -2061 0
-2048 2067 0
-2062 2067 0
-2048 -2062 2068 0
-2063 2068 0
-2048 -2063 2069 0
-2064 2069 0
-2048 -2064 2070 0
-2065 2070 0
-2048 -2065 2071 0
-2066 2071 0
-2048 -2066 0
-2049 2072 0
-2067 2072 0
-2049 -2067 2073 0
-2068 2073 0
-2049 -2068 2074 0
-2069 2074 0
-2049 -2069 2075 0
-2070 2075 0
-2049 -2070 2076 0
-2071 2076 0
-2049 -2071 0
-2050 2077 0
-2072 2077 0
-2050 -2072 2078 0
-2073 2078 0
-2050 -2073 2079 0
-2074 2079 0
-2050 -2074 2080 0
-2075 2080 0
-2050 -2075 2081 0
-2076 2081 0
-2050 -2076 0
-2051 -2081 0
-2087 296 0
-296 2087 0
-2088 303 0
-303 2088 0
-2089 310 0
-310 2089 0
-2090 317 0
-317 2090 0
-2091 324 0
-324 2091 0
-2092 331 0
-331 2092 0
-2093 338 0
-338 2093 0
-2087 2094 0
-2088 2095 0
-2094 2095 0
-2088 -2094 0
-2089 2096 0
-2095 2096 0
-2089 -2095 0
-2090 2097 0
-2096 2097 0
-2090 -2096 0
-2091 2098 0
-2097 2098 0
-2091 -2097 0
-2092 2099 0
-2098 2099 0
-2092 -2098 0
-2093 -2099 0
-2101 296 297 298 299 300 0
-296 2101 0
-297 2101 0
-298 2101 0
-299 2101 0
-300 2101 0
-2102 303 304 305 306 307 0
-303 2102 0
-304 2102 0
-305 2102 0
-306 2102 0
-307 2102 0
-2103 310 311 312 313 314 0
-310 2103 0
-311 2103 0
-312 2103 0
-313 2103 0
-314 2103 0
-2104 317 318 319 320 321 0
-317 2104 0
-318 2104 0
-319 2104 0
-320 2104 0
-321 2104 0
-2105 324 325 326 327 328 0
-324 2105 0
-325 2105 0
-326 2105 0
-327 2105 0
-328 2105 0
-2106 331 332 333 334 335 0
-331 2106 0
-332 2106 0
-333 2106 0
-334 2106 0
-335 2106 0
-2107 338 339 340 341 342 0
-338 2107 0
-339 2107 0
-340 2107 0
-341 2107 0
-342 2107 0
-2101 2108 0
-2109 0
-2110 0
-2111 0
-2112 0
-2102 2113 0
-2108 2113 0
-2102 -2108 2114 0
-2109 2114 0
-2102 -2109 2115 0
-2110 2115 0
-2102 -2110 2116 0
-2111 2116 0
-2102 -2111 2117 0
-2112 2117 0
-2102 -2112 0
-2103 2118 0
-2113 2118 0
-2103 -2113 2119 0
-2114 2119 0
-2103 -2114 2120 0
-2115 2120 0
-2103 -2115 2121 0
-2116 2121 0
-2103 -2116 2122 0
-2117 2122 0
-2103 -2117 0
-2104 2123 0
-2118 2123 0
-2104 -2118 2124 0
-2119 2124 0
-2104 -2119 2125 0
-2120 2125 0
-2104 -2120 2126 0
-2121 2126 0
-2104 -2121 2127 0
-2122 2127 0
-2104 -2122 0
-2105 2128 0
-2123 2128 0
-2105 -2123 2129 0
-2124 2129 0
-2105 -2124 2130 0
-2125 2130 0
-2105 -2125 2131 0
-2126 2131 0
-2105 -2126 2132 0
-2127 2132 0
-2105 -2127 0
-2106 2133 0
-2128 2133 0
-2106 -2128 2134 0
-2129 2134 0
-2106 -2129 2135 0
-2130 2135 0
-2106 -2130 2136 0
-2131 2136 0
-2106 -2131 2137 0
-2132 2137 0
-2106 -2132 0
-2107 -2137 0
-2143 297 0
-297 2143 0
-2144 304 0
-304 2144 0
-2145 311 0
-311 2145 0
-2146 318 0
-318 2146 0
-2147 325 0
-325 2147 0
-2148 332 0
-332 2148 0
-2149 339 0
-339 2149 0
-2143 2150 0
-2144 2151 0
-2150 2151 0
-2144 -2150 0
-2145 2152 0
-2151 2152 0
-2145 -2151 0
-2146 2153 0
-2152 2153 0
-2146 -2152 0
-2147 2154 0
-2153 2154 0
-2147 -2153 0
-2148 2155 0
-2154 2155 0
-2148 -2154 0
-2149 -2155 0
-2157 297 298 299 300 301 0
-297 2157 0
-298 2157 0
-299 2157 0
-300 2157 0
-301 2157 0
-2158 304 305 306 307 308 0
-304 2158 0
-305 2158 0
-306 2158 0
-307 2158 0
-308 2158 0
-2159 311 312 313 314 315 0
-311 2159 0
-312 2159 0
-313 2159 0
-314 2159 0
-315 2159 0
-2160 318 319 320 321 322 0
-318 2160 0
-319 2160 0
-320 2160 0
-321 2160 0
-322 2160 0
-2161 325 326 327 328 329 0
-325 2161 0
-326 2161 0
-327 2161 0
-328 2161 0
-329 2161 0
-2162 332 333 334 335 336 0
-332 2162 0
-333 2162 0
-334 2162 0
-335 2162 0
-336 2162 0
-2163 339 340 341 342 343 0
-339 2163 0
-340 2163 0
-341 2163 0
-342 2163 0
-343 2163 0
-2157 2164 0
-2165 0
-2166 0
-2167 0
-2168 0
-2158 2169 0
-2164 2169 0
-2158 -2164 2170 0
-2165 2170 0
-2158 -2165 2171 0
-2166 2171 0
-2158 -2166 2172 0
-2167 2172 0
-2158 -2167 2173 0
-2168 2173 0
-2158 -2168 0
-2159 2174 0
-2169 2174 0
-2159 -2169 2175 0
-2170 2175 0
-2159 -2170 2176 0
-2171 2176 0
-2159 -2171 2177 0
-2172 2177 0
-2159 -2172 2178 0
-2173 2178 0
-2159 -2173 0
-2160 2179 0
-2174 2179 0
-2160 -2174 2180 0
-2175 2180 0
-2160 -2175 2181 0
-2176 2181 0
-2160 -2176 2182 0
-2177 2182 0
-2160 -2177 2183 0
-2178 2183 0
-2160 -2178 0
-2161 2184 0
-2179 2184 0
-2161 -2179 2185 0
-2180 2185 0
-2161 -2180 2186 0
-2181 2186 0
-2161 -2181 2187 0
-2182 2187 0
-2161 -2182 2188 0
-2183 2188 0
-2161 -2183 0
-2162 2189 0
-2184 2189 0
-2162 -2184 2190 0
-2185 2190 0
-2162 -2185 2191 0
-2186 2191 0
-2162 -2186 2192 0
-2187 2192 0
-2162 -2187 2193 0
-2188 2193 0
-2162 -2188 0
-2163 -2193 0
-2199 298 0
-298 2199 0
-2200 305 0
-305 2200 0
-2201 312 0
-312 2201 0
-2202 319 0
-319 2202 0
-2203 326 0
-326 2203 0
-2204 333 0
-333 2204 0
-2205 340 0
-340 2205 0
-2199 2206 0
-2200 2207 0
-2206 2207 0
-2200 -2206 0
-2201 2208 0
-2207 2208 0
-2201 -2207 0
-2202 2209 0
-2208 2209 0
-2202 -2208 0
-2203 2210 0
-2209 2210 0
-2203 -2209 0
-2204 2211 0
-2210 2211 0
-2204 -2210 0
-2205 -2211 0
-2213 299 0
-299 2213 0
-2214 306 0
-306 2214 0
-2215 313 0
-313 2215 0
-2216 320 0
-320 2216 0
-2217 327 0
-327 2217 0
-2218 334 0
-334 2218 0
-2219 341 0
-341 2219 0
-2213 2220 0
-2214 2221 0
-2220 2221 0
-2214 -2220 0
-2215 2222 0
-2221 2222 0
-2215 -2221 0
-2216 2223 0
-2222 2223 0
-2216 -2222 0
-2217 2224 0
-2223 2224 0
-2217 -2223 0
-2218 2225 0
-2224 2225 0
-2218 -2224 0
-2219 -2225 0
-2227 300 0
-300 2227 0
-2228 307 0
-307 2228 0
-2229 314 0
-314 2229 0
-2230 321 0
-321 2230 0
-2231 328 0
-328 2231 0
-2232 335 0
-335 2232 0
-2233 342 0
-342 2233 0
-2227 2234 0
-2228 2235 0
-2234 2235 0
-2228 -2234 0
-2229 2236 0
-2235 2236 0
-2229 -2235 0
-2230 2237 0
-2236 2237 0
-2230 -2236 0
-2231 2238 0
-2237 2238 0
-2231 -2237 0
-2232 2239 0
-2238 2239 0
-2232 -2238 0
-2233 -2239 0
-2241 301 0
-301 2241 0
-2242 308 0
-308 2242 0
-2243 315 0
-315 2243 0
-2244 322 0
-322 2244 0
-2245 329 0
-329 2245 0
-2246 336 0
-336 2246 0
-2247 343 0
-343 2247 0
-2241 2248 0
-2242 2249 0
-2248 2249 0
-2242 -2248 0
-2243 2250 0
-2249 2250 0
-2243 -2249 0
-2244 2251 0
-2250 2251 0
-2244 -2250 0
-2245 2252 0
-2251 2252 0
-2245 -2251 0
-2246 2253 0
-2252 2253 0
-2246 -2252 0
-2247 -2253 0
-2255 1 0
-1 2255 0
-2256 50 0
-50 2256 0
-2257 99 0
-99 2257 0
-2258 148 0
-148 2258 0
-2259 197 0
-197 2259 0
-2260 246 0
-246 2260 0
-2261 295 0
-295 2261 0
-2255 2262 0
-2256 2263 0
-2262 2263 0
-2256 -2262 0
-2257 2264 0
-2263 2264 0
-2257 -2263 0
-2258 2265 0
-2264 2265 0
-2258 -2264 0
-2259 2266 0
-2265 2266 0
-2259 -2265 0
-2260 2267 0
-2266 2267 0
-2260 -2266 0
-2261 -2267 0
-2269 1 2 3 4 5 0
-1 2269 0
-2 2269 0
-3 2269 0
-4 2269 0
-5 2269 0
-2270 50 51 52 53 54 0
-50 2270 0
-51 2270 0
-52 2270 0
-53 2270 0
-54 2270 0
-2271 99 100 101 102 103 0
-99 2271 0
-100 2271 0
-101 2271 0
-102 2271 0
-103 2271 0
-2272 148 149 150 151 152 0
-148 2272 0
-149 2272 0
-150 2272 0
-151 2272 0
-152 2272 0
-2273 197 198 199 200 201 0
-197 2273 0
-198 2273 0
-199 2273 0
-200 2273 0
-201 2273 0
-2274 246 247 248 249 250 0
-246 2274 0
-247 2274 0
-248 2274 0
-249 2274 0
-250 2274 0
-2275 295 296 297 298 299 0
-295 2275 0
-296 2275 0
-297 2275 0
-298 2275 0
-299 2275 0
-2269 2276 0
-2277 0
-2278 0
-2279 0
-2280 0
-2270 2281 0
-2276 2281 0
-2270 -2276 2282 0
-2277 2282 0
-2270 -2277 2283 0
-2278 2283 0
-2270 -2278 2284 0
-2279 2284 0
-2270 -2279 2285 0
-2280 2285 0
-2270 -2280 0
-2271 2286 0
-2281 2286 0
-2271 -2281 2287 0
-2282 2287 0
-2271 -2282 2288 0
-2283 2288 0
-2271 -2283 2289 0
-2284 2289 0
-2271 -2284 2290 0
-2285 2290 0
-2271 -2285 0
-2272 2291 0
-2286 2291 0
-2272 -2286 2292 0
-2287 2292 0
-2272 -2287 2293 0
-2288 2293 0
-2272 -2288 2294 0
-2289 2294 0
-2272 -2289 2295 0
-2290 2295 0
-2272 -2290 0
-2273 2296 0
-2291 2296 0
-2273 -2291 2297 0
-2292 2297 0
-2273 -2292 2298 0
-2293 2298 0
-2273 -2293 2299 0
-2294 2299 0
-2273 -2294 2300 0
-2295 2300 0
-2273 -2295 0
-2274 2301 0
-2296 2301 0
-2274 -2296 2302 0
-2297 2302 0
-2274 -2297 2303 0
-2298 2303 0
-2274 -2298 2304 0
-2299 2304 0
-2274 -2299 2305 0
-2300 2305 0
-2274 -2300 0
-2275 -2305 0
-2311 2 0
-2 2311 0
-2312 51 0
-51 2312 0
-2313 100 0
-100 2313 0
-2314 149 0
-149 2314 0
-2315 198 0
-198 2315 0
-2316 247 0
-247 2316 0
-2317 296 0
-296 2317 0
-2311 2318 0
-2312 2319 0
-2318 2319 0
-2312 -2318 0
-2313 2320 0
-2319 2320 0
-2313 -2319 0
-2314 2321 0
-2320 2321 0
-2314 -2320 0
-2315 2322 0
-2321 2322 0
-2315 -2321 0
-2316 2323 0
-2322 2323 0
-2316 -2322 0
-2317 -2323 0
-2325 2 3 4 5 6 0
-2 2325 0
-3 2325 0
-4 2325 0
-5 2325 0
-6 2325 0
-2326 51 52 53 54 55 0
-51 2326 0
-52 2326 0
-53 2326 0
-54 2326 0
-55 2326 0
-2327 100 101 102 103 104 0
-100 2327 0
-101 2327 0
-102 2327 0
-103 2327 0
-104 2327 0
-2328 149 150 151 152 153 0
-149 2328 0
-150 2328 0
-151 2328 0
-152 2328 0
-153 2328 0
-2329 198 199 200 201 202 0
-198 2329 0
-199 2329 0
-200 2329 0
-201 2329 0
-202 2329 0
-2330 247 248 249 250 251 0
-247 2330 0
-248 2330 0
-249 2330 0
-250 2330 0
-251 2330 0
-2331 296 297 298 299 300 0
-296 2331 0
-297 2331 0
-298 2331 0
-299 2331 0
-300 2331 0
-2325 2332 0
-2333 0
-2334 0
-2335 0
-2336 0
-2326 2337 0
-2332 2337 0
-2326 -2332 2338 0
-2333 2338 0
-2326 -2333 2339 0
-2334 2339 0
-2326 -2334 2340 0
-2335 2340 0
-2326 -2335 2341 0
-2336 2341 0
-2326 -2336 0
-2327 2342 0
-2337 2342 0
-2327 -2337 2343 0
-2338 2343 0
-2327 -2338 2344 0
-2339 2344 0
-2327 -2339 2345 0
-2340 2345 0
-2327 -2340 2346 0
-2341 2346 0
-2327 -2341 0
-2328 2347 0
-2342 2347 0
-2328 -2342 2348 0
-2343 2348 0
-2328 -2343 2349 0
-2344 2349 0
-2328 -2344 2350 0
-2345 2350 0
-2328 -2345 2351 0
-2346 2351 0
-2328 -2346 0
-2329 2352 0
-2347 2352 0
-2329 -2347 2353 0
-2348 2353 0
-2329 -2348 2354 0
-2349 2354 0
-2329 -2349 2355 0
-2350 2355 0
-2329 -2350 2356 0
-2351 2356 0
-2329 -2351 0
-2330 2357 0
-2352 2357 0
-2330 -2352 2358 0
-2353 2358 0
-2330 -2353 2359 0
-2354 2359 0
-2330 -2354 2360 0
-2355 2360 0
-2330 -2355 2361 0
-2356 2361 0
-2330 -2356 0
-2331 -2361 0
-2367 3 0
-3 2367 0
-2368 52 0
-52 2368 0
-2369 101 0
-101 2369 0
-2370 150 0
-150 2370 0
-2371 199 0
-199 2371 0
-2372 248 0
-248 2372 0
-2373 297 0
-297 2373 0
-2367 2374 0
-2368 2375 0
-2374 2375 0
-2368 -2374 0
-2369 2376 0
-2375 2376 0
-2369 -2375 0
-2370 2377 0
-2376 2377 0
-2370 -2376 0
-2371 2378 0
-2377 2378 0
-2371 -2377 0
-2372 2379 0
-2378 2379 0
-2372 -2378 0
-2373 -2379 0
-2381 3 4 5 6 7 0
-3 2381 0
-4 2381 0
-5 2381 0
-6 2381 0
-7 2381 0
-2382 52 53 54 55 56 0
-52 2382 0
-53 2382 0
-54 2382 0
-55 2382 0
-56 2382 0
-2383 101 102 103 104 105 0
-101 2383 0
-102 2383 0
-103 2383 0
-104 2383 0
-105 2383 0
-2384 150 151 152 153 154 0
-150 2384 0
-151 2384 0
-152 2384 0
-153 2384 0
-154 2384 0
-2385 199 200 201 202 203 0
-199 2385 0
-200 2385 0
-201 2385 0
-202 2385 0
-203 2385 0
-2386 248 249 250 251 252 0
-248 2386 0
-249 2386 0
-250 2386 0
-251 2386 0
-252 2386 0
-2387 297 298 299 300 301 0
-297 2387 0
-298 2387 0
-299 2387 0
-300 2387 0
-301 2387 0
-2381 2388 0
-2389 0
-2390 0
-2391 0
-2392 0
-2382 2393 0
-2388 2393 0
-2382 -2388 2394 0
-2389 2394 0
-2382 -2389 2395 0
-2390 2395 0
-2382 -2390 2396 0
-2391 2396 0
-2382 -2391 2397 0
-2392 2397 0
-2382 -2392 0
-2383 2398 0
-2393 2398 0
-2383 -2393 2399 0
-2394 2399 0
-2383 -2394 2400 0
-2395 2400 0
-2383 -2395 2401 0
-2396 2401 0
-2383 -2396 2402 0
-2397 2402 0
-2383 -2397 0
-2384 2403 0
-2398 2403 0
-2384 -2398 2404 0
-2399 2404 0
-2384 -2399 2405 0
-2400 2405 0
-2384 -2400 2406 0
-2401 2406 0
-2384 -2401 2407 0
-2402 2407 0
-2384 -2402 0
-2385 2408 0
-2403 2408 0
-2385 -2403 2409 0
-2404 2409 0
-2385 -2404 2410 0
-2405 2410 0
-2385 -2405 2411 0
-2406 2411 0
-2385 -2406 2412 0
-2407 2412 0
-2385 -2407 0
-2386 2413 0
-2408 2413 0
-2386 -2408 2414 0
-2409 2414 0
-2386 -2409 2415 0
-2410 2415 0
-2386 -2410 2416 0
-2411 2416 0
-2386 -2411 2417 0
-2412 2417 0
-2386 -2412 0
-2387 -2417 0
-2423 4 0
-4 2423 0
-2424 53 0
-53 2424 0
-2425 102 0
-102 2425 0
-2426 151 0
-151 2426 0
-2427 200 0
-200 2427 0
-2428 249 0
-249 2428 0
-2429 298 0
-298 2429 0
-2423 2430 0
-2424 2431 0
-2430 2431 0
-2424 -2430 0
-2425 2432 0
-2431 2432 0
-2425 -2431 0
-2426 2433 0
-2432 2433 0
-2426 -2432 0
-2427 2434 0
-2433 2434 0
-2427 -2433 0
-2428 2435 0
-2434 2435 0
-2428 -2434 0
-2429 -2435 0
-2437 5 0
-5 2437 0
-2438 54 0
-54 2438 0
-2439 103 0
-103 2439 0
-2440 152 0
-152 2440 0
-2441 201 0
-201 2441 0
-2442 250 0
-250 2442 0
-2443 299 0
-299 2443 0
-2437 2444 0
-2438 2445 0
-2444 2445 0
-2438 -2444 0
-2439 2446 0
-2445 2446 0
-2439 -2445 0
-2440 2447 0
-2446 2447 0
-2440 -2446 0
-2441 2448 0
-2447 2448 0
-2441 -2447 0
-2442 2449 0
-2448 2449 0
-2442 -2448 0
-2443 -2449 0
-2451 6 0
-6 2451 0
-2452 55 0
-55 2452 0
-2453 104 0
-104 2453 0
-2454 153 0
-153 2454 0
-2455 202 0
-202 2455 0
-2456 251 0
-251 2456 0
-2457 300 0
-300 2457 0
-2451 2458 0
-2452 2459 0
-2458 2459 0
-2452 -2458 0
-2453 2460 0
-2459 2460 0
-2453 -2459 0
-2454 2461 0
-2460 2461 0
-2454 -2460 0
-2455 2462 0
-2461 2462 0
-2455 -2461 0
-2456 2463 0
-2462 2463 0
-2456 -2462 0
-2457 -2463 0
-2465 7 0
-7 2465 0
-2466 56 0
-56 2466 0
-2467 105 0
-105 2467 0
-2468 154 0
-154 2468 0
-2469 203 0
-203 2469 0
-2470 252 0
-252 2470 0
-2471 301 0
-301 2471 0
-2465 2472 0
-2466 2473 0
-2472 2473 0
-2466 -2472 0
-2467 2474 0
-2473 2474 0
-2467 -2473 0
-2468 2475 0
-2474 2475 0
-2468 -2474 0
-2469 2476 0
-2475 2476 0
-2469 -2475 0
-2470 2477 0
-2476 2477 0
-2470 -2476 0
-2471 -2477 0
-2479 8 0
-8 2479 0
-2480 57 0
-57 2480 0
-2481 106 0
-106 2481 0
-2482 155 0
-155 2482 0
-2483 204 0
-204 2483 0
-2484 253 0
-253 2484 0
-2485 302 0
-302 2485 0
-2479 2486 0
-2480 2487 0
-2486 2487 0
-2480 -2486 0
-2481 2488 0
-2487 2488 0
-2481 -2487 0
-2482 2489 0
-2488 2489 0
-2482 -2488 0
-2483 2490 0
-2489 2490 0
-2483 -2489 0
-2484 2491 0
-2490 2491 0
-2484 -2490 0
-2485 -2491 0
-2493 8 9 10 11 12 0
-8 2493 0
-9 2493 0
-10 2493 0
-11 2493 0
-12 2493 0
-2494 57 58 59 60 61 0
-57 2494 0
-58 2494 0
-59 2494 0
-60 2494 0
-61 2494 0
-2495 106 107 108 109 110 0
-106 2495 0
-107 2495 0
-108 2495 0
-109 2495 0
-110 2495 0
-2496 155 156 157 158 159 0
-155 2496 0
-156 2496 0
-157 2496 0
-158 2496 0
-159 2496 0
-2497 204 205 206 207 208 0
-204 2497 0
-205 2497 0
-206 2497 0
-207 2497 0
-208 2497 0
-2498 253 254 255 256 257 0
-253 2498 0
-254 2498 0
-255 2498 0
-256 2498 0
-257 2498 0
-2499 302 303 304 305 306 0
-302 2499 0
-303 2499 0
-304 2499 0
-305 2499 0
-306 2499 0
-2493 2500 0
-2501 0
-2502 0
-2503 0
-2504 0
-2494 2505 0
-2500 2505 0
-2494 -2500 2506 0
-2501 2506 0
-2494 -2501 2507 0
-2502 2507 0
-2494 -2502 2508 0
-2503 2508 0
-2494 -2503 2509 0
-2504 2509 0
-2494 -2504 0
-2495 2510 0
-2505 2510 0
-2495 -2505 2511 0
-2506 2511 0
-2495 -2506 2512 0
-2507 2512 0
-2495 -2507 2513 0
-2508 2513 0
-2495 -2508 2514 0
-2509 2514 0
-2495 -2509 0
-2496 2515 0
-2510 2515 0
-2496 -2510 2516 0
-2511 2516 0
-2496 -2511 2517 0
-2512 2517 0
-2496 -2512 2518 0
-2513 2518 0
-2496 -2513 2519 0
-2514 2519 0
-2496 -2514 0
-2497 2520 0
-2515 2520 0
-2497 -2515 2521 0
-2516 2521 0
-2497 -2516 2522 0
-2517 2522 0
-2497 -2517 2523 0
-2518 2523 0
-2497 -2518 2524 0
-2519 2524 0
-2497 -2519 0
-2498 2525 0
-2520 2525 0
-2498 -2520 2526 0
-2521 2526 0
-2498 -2521 2527 0
-2522 2527 0
-2498 -2522 2528 0
-2523 2528 0
-2498 -2523 2529 0
-2524 2529 0
-2498 -2524 0
-2499 -2529 0
-2535 9 0
-9 2535 0
-2536 58 0
-58 2536 0
-2537 107 0
-107 2537 0
-2538 156 0
-156 2538 0
-2539 205 0
-205 2539 0
-2540 254 0
-254 2540 0
-2541 303 0
-303 2541 0
-2535 2542 0
-2536 2543 0
-2542 2543 0
-2536 -2542 0
-2537 2544 0
-2543 2544 0
-2537 -2543 0
-2538 2545 0
-2544 2545 0
-2538 -2544 0
-2539 2546 0
-2545 2546 0
-2539 -2545 0
-2540 2547 0
-2546 2547 0
-2540 -2546 0
-2541 -2547 0
-2549 9 10 11 12 13 0
-9 2549 0
-10 2549 0
-11 2549 0
-12 2549 0
-13 2549 0
-2550 58 59 60 61 62 0
-58 2550 0
-59 2550 0
-60 2550 0
-61 2550 0
-62 2550 0
-2551 107 108 109 110 111 0
-107 2551 0
-108 2551 0
-109 2551 0
-110 2551 0
-111 2551 0
-2552 156 157 158 159 160 0
-156 2552 0
-157 2552 0
-158 2552 0
-159 2552 0
-160 2552 0
-2553 205 206 207 208 209 0
-205 2553 0
-206 2553 0
-207 2553 0
-208 2553 0
-209 2553 0
-2554 254 255 256 257 258 0
-254 2554 0
-255 2554 0
-256 2554 0
-257 2554 0
-258 2554 0
-2555 303 304 305 306 307 0
-303 2555 0
-304 2555 0
-305 2555 0
-306 2555 0
-307 2555 0
-2549 2556 0
-2557 0
-2558 0
-2559 0
-2560 0
-2550 2561 0
-2556 2561 0
-2550 -2556 2562 0
-2557 2562 0
-2550 -2557 2563 0
-2558 2563 0
-2550 -2558 2564 0
-2559 2564 0
-2550 -2559 2565 0
-2560 2565 0
-2550 -2560 0
-2551 2566 0
-2561 2566 0
-2551 -2561 2567 0
-2562 2567 0
-2551 -2562 2568 0
-2563 2568 0
-2551 -2563 2569 0
-2564 2569 0
-2551 -2564 2570 0
-2565 2570 0
-2551 -2565 0
-2552 2571 0
-2566 2571 0
-2552 -2566 2572 0
-2567 2572 0
-2552 -2567 2573 0
-2568 2573 0
-2552 -2568 2574 0
-2569 2574 0
-2552 -2569 2575 0
-2570 2575 0
-2552 -2570 0
-2553 2576 0
-2571 2576 0
-2553 -2571 2577 0
-2572 2577 0
-2553 -2572 2578 0
-2573 2578 0
-2553 -2573 2579 0
-2574 2579 0
-2553 -2574 2580 0
-2575 2580 0
-2553 -2575 0
-2554 2581 0
-2576 2581 0
-2554 -2576 2582 0
-2577 2582 0
-2554 -2577 2583 0
-2578 2583 0
-2554 -2578 2584 0
-2579 2584 0
-2554 -2579 2585 0
-2580 2585 0
-2554 -2580 0
-2555 -2585 0
-2591 10 0
-10 2591 0
-2592 59 0
-59 2592 0
-2593 108 0
-108 2593 0
-2594 157 0
-157 2594 0
-2595 206 0
-206 2595 0
-2596 255 0
-255 2596 0
-2597 304 0
-304 2597 0
-2591 2598 0
-2592 2599 0
-2598 2599 0
-2592 -2598 0
-2593 2600 0
-2599 2600 0
-2593 -2599 0
-2594 2601 0
-2600 2601 0
-2594 -2600 0
-2595 2602 0
-2601 2602 0
-2595 -2601 0
-2596 2603 0
-2602 2603 0
-2596 -2602 0
-2597 -2603 0
-2605 10 11 12 13 14 0
-10 2605 0
-11 2605 0
-12 2605 0
-13 2605 0
-14 2605 0
-2606 59 60 61 62 63 0
-59 2606 0
-60 2606 0
-61 2606 0
-62 2606 0
-63 2606 0
-2607 108 109 110 111 112 0
-108 2607 0
-109 2607 0
-110 2607 0
-111 2607 0
-112 2607 0
-2608 157 158 159 160 161 0
-157 2608 0
-158 2608 0
-159 2608 0
-160 2608 0
-161 2608 0
-2609 206 207 208 209 210 0
-206 2609 0
-207 2609 0
-208 2609 0
-209 2609 0
-210 2609 0
-2610 255 256 257 258 259 0
-255 2610 0
-256 2610 0
-257 2610 0
-258 2610 0
-259 2610 0
-2611 304 305 306 307 308 0
-304 2611 0
-305 2611 0
-306 2611 0
-307 2611 0
-308 2611 0
-2605 2612 0
-2613 0
-2614 0
-2615 0
-2616 0
-2606 2617 0
-2612 2617 0
-2606 -2612 2618 0
-2613 2618 0
-2606 -2613 2619 0
-2614 2619 0
-2606 -2614 2620 0
-2615 2620 0
-2606 -2615 2621 0
-2616 2621 0
-2606 -2616 0
-2607 2622 0
-2617 2622 0
-2607 -2617 2623 0
-2618 2623 0
-2607 -2618 2624 0
-2619 2624 0
-2607 -2619 2625 0
-2620 2625 0
-2607 -2620 2626 0
-2621 2626 0
-2607 -2621 0
-2608 2627 0
-2622 2627 0
-2608 -2622 2628 0
-2623 2628 0
-2608 -2623 2629 0
-2624 2629 0
-2608 -2624 2630 0
-2625 2630 0
-2608 -2625 2631 0
-2626 2631 0
-2608 -2626 0
-2609 2632 0
-2627 2632 0
-2609 -2627 2633 0
-2628 2633 0
-2609 -2628 2634 0
-2629 2634 0
-2609 -2629 2635 0
-2630 2635 0
-2609 -2630 2636 0
-2631 2636 0
-2609 -2631 0
-2610 2637 0
-2632 2637 0
-2610 -2632 2638 0
-2633 2638 0
-2610 -2633 2639 0
-2634 2639 0
-2610 -2634 2640 0
-2635 2640 0
-2610 -2635 2641 0
-2636 2641 0
-2610 -2636 0
-2611 -2641 0
-2647 11 0
-11 2647 0
-2648 60 0
-60 2648 0
-2649 109 0
-109 2649 0
-2650 158 0
-158 2650 0
-2651 207 0
-207 2651 0
-2652 256 0
-256 2652 0
-2653 305 0
-305 2653 0
-2647 2654 0
-2648 2655 0
-2654 2655 0
-2648 -2654 0
-2649 2656 0
-2655 2656 0
-2649 -2655 0
-2650 2657 0
-2656 2657 0
-2650 -2656 0
-2651 2658 0
-2657 2658 0
-2651 -2657 0
-2652 2659 0
-2658 2659 0
-2652 -2658 0
-2653 -2659 0
-2661 12 0
-12 2661 0
-2662 61 0
-61 2662 0
-2663 110 0
-110 2663 0
-2664 159 0
-159 2664 0
-2665 208 0
-208 2665 0
-2666 257 0
-257 2666 0
-2667 306 0
-306 2667 0
-2661 2668 0
-2662 2669 0
-2668 2669 0
-2662 -2668 0
-2663 2670 0
-2669 2670 0
-2663 -2669 0
-2664 2671 0
-2670 2671 0
-2664 -2670 0
-2665 2672 0
-2671 2672 0
-2665 -2671 0
-2666 2673 0
-2672 2673 0
-2666 -2672 0
-2667 -2673 0
-2675 13 0
-13 2675 0
-2676 62 0
-62 2676 0
-2677 111 0
-111 2677 0
-2678 160 0
-160 2678 0
-2679 209 0
-209 2679 0
-2680 258 0
-258 2680 0
-2681 307 0
-307 2681 0
-2675 2682 0
-2676 2683 0
-2682 2683 0
-2676 -2682 0
-2677 2684 0
-2683 2684 0
-2677 -2683 0
-2678 2685 0
-2684 2685 0
-2678 -2684 0
-2679 2686 0
-2685 2686 0
-2679 -2685 0
-2680 2687 0
-2686 2687 0
-2680 -2686 0
-2681 -2687 0
-2689 14 0
-14 2689 0
-2690 63 0
-63 2690 0
-2691 112 0
-112 2691 0
-2692 161 0
-161 2692 0
-2693 210 0
-210 2693 0
-2694 259 0
-259 2694 0
-2695 308 0
-308 2695 0
-2689 2696 0
-2690 2697 0
-2696 2697 0
-2690 -2696 0
-2691 2698 0
-2697 2698 0
-2691 -2697 0
-2692 2699 0
-2698 2699 0
-2692 -2698 0
-2693 2700 0
-2699 2700 0
-2693 -2699 0
-2694 2701 0
-2700 2701 0
-2694 -2700 0
-2695 -2701 0
-2703 15 0
-15 2703 0
-2704 64 0
-64 2704 0
-2705 113 0
-113 2705 0
-2706 162 0
-162 2706 0
-2707 211 0
-211 2707 0
-2708 260 0
-260 2708 0
-2709 309 0
-309 2709 0
-2703 2710 0
-2704 2711 0
-2710 2711 0
-2704 -2710 0
-2705 2712 0
-2711 2712 0
-2705 -2711 0
-2706 2713 0
-2712 2713 0
-2706 -2712 0
-2707 2714 0
-2713 2714 0
-2707 -2713 0
-2708 2715 0
-2714 2715 0
-2708 -2714 0
-2709 -2715 0
-2717 15 16 17 18 19 0
-15 2717 0
-16 2717 0
-17 2717 0
-18 2717 0
-19 2717 0
-2718 64 65 66 67 68 0
-64 2718 0
-65 2718 0
-66 2718 0
-67 2718 0
-68 2718 0
-2719 113 114 115 116 117 0
-113 2719 0
-114 2719 0
-115 2719 0
-116 2719 0
-117 2719 0
-2720 162 163 164 165 166 0
-162 2720 0
-163 2720 0
-164 2720 0
-165 2720 0
-166 2720 0
-2721 211 212 213 214 215 0
-211 2721 0
-212 2721 0
-213 2721 0
-214 2721 0
-215 2721 0
-2722 260 261 262 263 264 0
-260 2722 0
-261 2722 0
-262 2722 0
-263 2722 0
-264 2722 0
-2723 309 310 311 312 313 0
-309 2723 0
-310 2723 0
-311 2723 0
-312 2723 0
-313 2723 0
-2717 2724 0
-2725 0
-2726 0
-2727 0
-2728 0
-2718 2729 0
-2724 2729 0
-2718 -2724 2730 0
-2725 2730 0
-2718 -2725 2731 0
-2726 2731 0
-2718 -2726 2732 0
-2727 2732 0
-2718 -2727 2733 0
-2728 2733 0
-2718 -2728 0
-2719 2734 0
-2729 2734 0
-2719 -2729 2735 0
-2730 2735 0
-2719 -2730 2736 0
-2731 2736 0
-2719 -2731 2737 0
-2732 2737 0
-2719 -2732 2738 0
-2733 2738 0
-2719 -2733 0
-2720 2739 0
-2734 2739 0
-2720 -2734 2740 0
-2735 2740 0
-2720 -2735 2741 0
-2736 2741 0
-2720 -2736 2742 0
-2737 2742 0
-2720 -2737 2743 0
-2738 2743 0
-2720 -2738 0
-2721 2744 0
-2739 2744 0
-2721 -2739 2745 0
-2740 2745 0
-2721 -2740 2746 0
-2741 2746 0
-2721 -2741 2747 0
-2742 2747 0
-2721 -2742 2748 0
-2743 2748 0
-2721 -2743 0
-2722 2749 0
-2744 2749 0
-2722 -2744 2750 0
-2745 2750 0
-2722 -2745 2751 0
-2746 2751 0
-2722 -2746 2752 0
-2747 2752 0
-2722 -2747 2753 0
-2748 2753 0
-2722 -2748 0
-2723 -2753 0
-2759 16 0
-16 2759 0
-2760 65 0
-65 2760 0
-2761 114 0
-114 2761 0
-2762 163 0
-163 2762 0
-2763 212 0
-212 2763 0
-2764 261 0
-261 2764 0
-2765 310 0
-310 2765 0
-2759 2766 0
-2760 2767 0
-2766 2767 0
-2760 -2766 0
-2761 2768 0
-2767 2768 0
-2761 -2767 0
-2762 2769 0
-2768 2769 0
-2762 -2768 0
-2763 2770 0
-2769 2770 0
-2763 -2769 0
-2764 2771 0
-2770 2771 0
-2764 -2770 0
-2765 -2771 0
-2773 16 17 18 19 20 0
-16 2773 0
-17 2773 0
-18 2773 0
-19 2773 0
-20 2773 0
-2774 65 66 67 68 69 0
-65 2774 0
-66 2774 0
-67 2774 0
-68 2774 0
-69 2774 0
-2775 114 115 116 117 118 0
-114 2775 0
-115 2775 0
-116 2775 0
-117 2775 0
-118 2775 0
-2776 163 164 165 166 167 0
-163 2776 0
-164 2776 0
-165 2776 0
-166 2776 0
-167 2776 0
-2777 212 213 214 215 216 0
-212 2777 0
-213 2777 0
-214 2777 0
-215 2777 0
-216 2777 0
-2778 261 262 263 264 265 0
-261 2778 0
-262 2778 0
-263 2778 0
-264 2778 0
-265 2778 0
-2779 310 311 312 313 314 0
-310 2779 0
-311 2779 0
-312 2779 0
-313 2779 0
-314 2779 0
-2773 2780 0
-2781 0
-2782 0
-2783 0
-2784 0
-2774 2785 0
-2780 2785 0
-2774 -2780 2786 0
-2781 2786 0
-2774 -2781 2787 0
-2782 2787 0
-2774 -2782 2788 0
-2783 2788 0
-2774 -2783 2789 0
-2784 2789 0
-2774 -2784 0
-2775 2790 0
-2785 2790 0
-2775 -2785 2791 0
-2786 2791 0
-2775 -2786 2792 0
-2787 2792 0
-2775 -2787 2793 0
-2788 2793 0
-2775 -2788 2794 0
-2789 2794 0
-2775 -2789 0
-2776 2795 0
-2790 2795 0
-2776 -2790 2796 0
-2791 2796 0
-2776 -2791 2797 0
-2792 2797 0
-2776 -2792 2798 0
-2793 2798 0
-2776 -2793 2799 0
-2794 2799 0
-2776 -2794 0
-2777 2800 0
-2795 2800 0
-2777 -2795 2801 0
-2796 2801 0
-2777 -2796 2802 0
-2797 2802 0
-2777 -2797 2803 0
-2798 2803 0
-2777 -2798 2804 0
-2799 2804 0
-2777 -2799 0
-2778 2805 0
-2800 2805 0
-2778 -2800 2806 0
-2801 2806 0
-2778 -2801 2807 0
-2802 2807 0
-2778 -2802 2808 0
-2803 2808 0
-2778 -2803 2809 0
-2804 2809 0
-2778 -2804 0
-2779 -2809 0
-2815 17 0
-17 2815 0
-2816 66 0
-66 2816 0
-2817 115 0
-115 2817 0
-2818 164 0
-164 2818 0
-2819 213 0
-213 2819 0
-2820 262 0
-262 2820 0
-2821 311 0
-311 2821 0
-2815 2822 0
-2816 2823 0
-2822 2823 0
-2816 -2822 0
-2817 2824 0
-2823 2824 0
-2817 -2823 0
-2818 2825 0
-2824 2825 0
-2818 -2824 0
-2819 2826 0
-2825 2826 0
-2819 -2825 0
-2820 2827 0
-2826 2827 0
-2820 -2826 0
-2821 -2827 0
-2829 17 18 19 20 21 0
-17 2829 0
-18 2829 0
-19 2829 0
-20 2829 0
-21 2829 0
-2830 66 67 68 69 70 0
-66 2830 0
-67 2830 0
-68 2830 0
-69 2830 0
-70 2830 0
-2831 115 116 117 118 119 0
-115 2831 0
-116 2831 0
-117 2831 0
-118 2831 0
-119 2831 0
-2832 164 165 166 167 168 0
-164 2832 0
-165 2832 0
-166 2832 0
-167 2832 0
-168 2832 0
-2833 213 214 215 216 217 0
-213 2833 0
-214 2833 0
-215 2833 0
-216 2833 0
-217 2833 0
-2834 262 263 264 265 266 0
-262 2834 0
-263 2834 0
-264 2834 0
-265 2834 0
-266 2834 0
-2835 311 312 313 314 315 0
-311 2835 0
-312 2835 0
-313 2835 0
-314 2835 0
-315 2835 0
-2829 2836 0
-2837 0
-2838 0
-2839 0
-2840 0
-2830 2841 0
-2836 2841 0
-2830 -2836 2842 0
-2837 2842 0
-2830 -2837 2843 0
-2838 2843 0
-2830 -2838 2844 0
-2839 2844 0
-2830 -2839 2845 0
-2840 2845 0
-2830 -2840 0
-2831 2846 0
-2841 2846 0
-2831 -2841 2847 0
-2842 2847 0
-2831 -2842 2848 0
-2843 2848 0
-2831 -2843 2849 0
-2844 2849 0
-2831 -2844 2850 0
-2845 2850 0
-2831 -2845 0
-2832 2851 0
-2846 2851 0
-2832 -2846 2852 0
-2847 2852 0
-2832 -2847 2853 0
-2848 2853 0
-2832 -2848 2854 0
-2849 2854 0
-2832 -2849 2855 0
-2850 2855 0
-2832 -2850 0
-2833 2856 0
-2851 2856 0
-2833 -2851 2857 0
-2852 2857 0
-2833 -2852 2858 0
-2853 2858 0
-2833 -2853 2859 0
-2854 2859 0
-2833 -2854 2860 0
-2855 2860 0
-2833 -2855 0
-2834 2861 0
-2856 2861 0
-2834 -2856 2862 0
-2857 2862 0
-2834 -2857 2863 0
-2858 2863 0
-2834 -2858 2864 0
-2859 2864 0
-2834 -2859 2865 0
-2860 2865 0
-2834 -2860 0
-2835 -2865 0
-2871 18 0
-18 2871 0
-2872 67 0
-67 2872 0
-2873 116 0
-116 2873 0
-2874 165 0
-165 2874 0
-2875 214 0
-214 2875 0
-2876 263 0
-263 2876 0
-2877 312 0
-312 2877 0
-2871 2878 0
-2872 2879 0
-2878 2879 0
-2872 -2878 0
-2873 2880 0
-2879 2880 0
-2873 -2879 0
-2874 2881 0
-2880 2881 0
-2874 -2880 0
-2875 2882 0
-2881 2882 0
-2875 -2881 0
-2876 2883 0
-2882 2883 0
-2876 -2882 0
-2877 -2883 0
-2885 19 0
-19 2885 0
-2886 68 0
-68 2886 0
-2887 117 0
-117 2887 0
-2888 166 0
-166 2888 0
-2889 215 0
-215 2889 0
-2890 264 0
-264 2890 0
-2891 313 0
-313 2891 0
-2885 2892 0
-2886 2893 0
-2892 2893 0
-2886 -2892 0
-2887 2894 0
-2893 2894 0
-2887 -2893 0
-2888 2895 0
-2894 2895 0
-2888 -2894 0
-2889 2896 0
-2895 2896 0
-2889 -2895 0
-2890 2897 0
-2896 2897 0
-2890 -2896 0
-2891 -2897 0
-2899 20 0
-20 2899 0
-2900 69 0
-69 2900 0
-2901 118 0
-118 2901 0
-2902 167 0
-167 2902 0
-2903 216 0
-216 2903 0
-2904 265 0
-265 2904 0
-2905 314 0
-314 2905 0
-2899 2906 0
-2900 2907 0
-2906 2907 0
-2900 -2906 0
-2901 2908 0
-2907 2908 0
-2901 -2907 0
-2902 2909 0
-2908 2909 0
-2902 -2908 0
-2903 2910 0
-2909 2910 0
-2903 -2909 0
-2904 2911 0
-2910 2911 0
-2904 -2910 0
-2905 -2911 0
-2913 21 0
-21 2913 0
-2914 70 0
-70 2914 0
-2915 119 0
-119 2915 0
-2916 168 0
-168 2916 0
-2917 217 0
-217 2917 0
-2918 266 0
-266 2918 0
-2919 315 0
-315 2919 0
-2913 2920 0
-2914 2921 0
-2920 2921 0
-2914 -2920 0
-2915 2922 0
-2921 2922 0
-2915 -2921 0
-2916 2923 0
-2922 2923 0
-2916 -2922 0
-2917 2924 0
-2923 2924 0
-2917 -2923 0
-2918 2925 0
-2924 2925 0
-2918 -2924 0
-2919 -2925 0
-2927 22 0
-22 2927 0
-2928 71 0
-71 2928 0
-2929 120 0
-120 2929 0
-2930 169 0
-169 2930 0
-2931 218 0
-218 2931 0
-2932 267 0
-267 2932 0
-2933 316 0
-316 2933 0
-2927 2934 0
-2928 2935 0
-2934 2935 0
-2928 -2934 0
-2929 2936 0
-2935 2936 0
-2929 -2935 0
-2930 2937 0
-2936 2937 0
-2930 -2936 0
-2931 2938 0
-2937 2938 0
-2931 -2937 0
-2932 2939 0
-2938 2939 0
-2932 -2938 0
-2933 -2939 0
-2941 22 23 24 25 26 0
-22 2941 0
-23 2941 0
-24 2941 0
-25 2941 0
-26 2941 0
-2942 71 72 73 74 75 0
-71 2942 0
-72 2942 0
-73 2942 0
-74 2942 0
-75 2942 0
-2943 120 121 122 123 124 0
-120 2943 0
-121 2943 0
-122 2943 0
-123 2943 0
-124 2943 0
-2944 169 170 171 172 173 0
-169 2944 0
-170 2944 0
-171 2944 0
-172 2944 0
-173 2944 0
-2945 218 219 220 221 222 0
-218 2945 0
-219 2945 0
-220 2945 0
-221 2945 0
-222 2945 0
-2946 267 268 269 270 271 0
-267 2946 0
-268 2946 0
-269 2946 0
-270 2946 0
-271 2946 0
-2947 316 317 318 319 320 0
-316 2947 0
-317 2947 0
-318 2947 0
-319 2947 0
-320 2947 0
-2941 2948 0
-2949 0
-2950 0
-2951 0
-2952 0
-2942 2953 0
-2948 2953 0
-2942 -2948 2954 0
-2949 2954 0
-2942 -2949 2955 0
-2950 2955 0
-2942 -2950 2956 0
-2951 2956 0
-2942 -2951 2957 0
-2952 2957 0
-2942 -2952 0
-2943 2958 0
-2953 2958 0
-2943 -2953 2959 0
-2954 2959 0
-2943 -2954 2960 0
-2955 2960 0
-2943 -2955 2961 0
-2956 2961 0
-2943 -2956 2962 0
-2957 2962 0
-2943 -2957 0
-2944 2963 0
-2958 2963 0
-2944 -2958 2964 0
-2959 2964 0
-2944 -2959 2965 0
-2960 2965 0
-2944 -2960 2966 0
-2961 2966 0
-2944 -2961 2967 0
-2962 2967 0
-2944 -2962 0
-2945 2968 0
-2963 2968 0
-2945 -2963 2969 0
-2964 2969 0
-2945 -2964 2970 0
-2965 2970 0
-2945 -2965 2971 0
-2966 2971 0
-2945 -2966 2972 0
-2967 2972 0
-2945 -2967 0
-2946 2973 0
-2968 2973 0
-2946 -2968 2974 0
-2969 2974 0
-2946 -2969 2975 0
-2970 2975 0
-2946 -2970 2976 0
-2971 2976 0
-2946 -2971 2977 0
-2972 2977 0
-2946 -2972 0
-2947 -2977 0
-2983 23 0
-23 2983 0
-2984 72 0
-72 2984 0
-2985 121 0
-121 2985 0
-2986 170 0
-170 2986 0
-2987 219 0
-219 2987 0
-2988 268 0
-268 2988 0
-2989 317 0
-317 2989 0
-2983 2990 0
-2984 2991 0
-2990 2991 0
-2984 -2990 0
-2985 2992 0
-2991 2992 0
-2985 -2991 0
-2986 2993 0
-2992 2993 0
-2986 -2992 0
-2987 2994 0
-2993 2994 0
-2987 -2993 0
-2988 2995 0
-2994 2995 0
-2988 -2994 0
-2989 -2995 0
-2997 23 24 25 26 27 0
-23 2997 0
-24 2997 0
-25 2997 0
-26 2997 0
-27 2997 0
-2998 72 73 74 75 76 0
-72 2998 0
-73 2998 0
-74 2998 0
-75 2998 0
-76 2998 0
-2999 121 122 123 124 125 0
-121 2999 0
-122 2999 0
-123 2999 0
-124 2999 0
-125 2999 0
-3000 170 171 172 173 174 0
-170 3000 0
-171 3000 0
-172 3000 0
-173 3000 0
-174 3000 0
-3001 219 220 221 222 223 0
-219 3001 0
-220 3001 0
-221 3001 0
-222 3001 0
-223 3001 0
-3002 268 269 270 271 272 0
-268 3002 0
-269 3002 0
-270 3002 0
-271 3002 0
-272 3002 0
-3003 317 318 319 320 321 0
-317 3003 0
-318 3003 0
-319 3003 0
-320 3003 0
-321 3003 0
-2997 3004 0
-3005 0
-3006 0
-3007 0
-3008 0
-2998 3009 0
-3004 3009 0
-2998 -3004 3010 0
-3005 3010 0
-2998 -3005 3011 0
-3006 3011 0
-2998 -3006 3012 0
-3007 3012 0
-2998 -3007 3013 0
-3008 3013 0
-2998 -3008 0
-2999 3014 0
-3009 3014 0
-2999 -3009 3015 0
-3010 3015 0
-2999 -3010 3016 0
-3011 3016 0
-2999 -3011 3017 0
-3012 3017 0
-2999 -3012 3018 0
-3013 3018 0
-2999 -3013 0
-3000 3019 0
-3014 3019 0
-3000 -3014 3020 0
-3015 3020 0
-3000 -3015 3021 0
-3016 3021 0
-3000 -3016 3022 0
-3017 3022 0
-3000 -3017 3023 0
-3018 3023 0
-3000 -3018 0
-3001 3024 0
-3019 3024 0
-3001 -3019 3025 0
-3020 3025 0
-3001 -3020 3026 0
-3021 3026 0
-3001 -3021 3027 0
-3022 3027 0
-3001 -3022 3028 0
-3023 3028 0
-3001 -3023 0
-3002 3029 0
-3024 3029 0
-3002 -3024 3030 0
-3025 3030 0
-3002 -3025 3031 0
-3026 3031 0
-3002 -3026 3032 0
-3027 3032 0
-3002 -3027 3033 0
-3028 3033 0
-3002 -3028 0
-3003 -3033 0
-3039 24 0
-24 3039 0
-3040 73 0
-73 3040 0
-3041 122 0
-122 3041 0
-3042 171 0
-171 3042 0
-3043 220 0
-220 3043 0
-3044 269 0
-269 3044 0
-3045 318 0
-318 3045 0
-3039 3046 0
-3040 3047 0
-3046 3047 0
-3040 -3046 0
-3041 3048 0
-3047 3048 0
-3041 -3047 0
-3042 3049 0
-3048 3049 0
-3042 -3048 0
-3043 3050 0
-3049 3050 0
-3043 -3049 0
-3044 3051 0
-3050 3051 0
-3044 -3050 0
-3045 -3051 0
-3053 24 25 26 27 28 0
-24 3053 0
-25 3053 0
-26 3053 0
-27 3053 0
-28 3053 0
-3054 73 74 75 76 77 0
-73 3054 0
-74 3054 0
-75 3054 0
-76 3054 0
-77 3054 0
-3055 122 123 124 125 126 0
-122 3055 0
-123 3055 0
-124 3055 0
-125 3055 0
-126 3055 0
-3056 171 172 173 174 175 0
-171 3056 0
-172 3056 0
-173 3056 0
-174 3056 0
-175 3056 0
-3057 220 221 222 223 224 0
-220 3057 0
-221 3057 0
-222 3057 0
-223 3057 0
-224 3057 0
-3058 269 270 271 272 273 0
-269 3058 0
-270 3058 0
-271 3058 0
-272 3058 0
-273 3058 0
-3059 318 319 320 321 322 0
-318 3059 0
-319 3059 0
-320 3059 0
-321 3059 0
-322 3059 0
-3053 3060 0
-3061 0
-3062 0
-3063 0
-3064 0
-3054 3065 0
-3060 3065 0
-3054 -3060 3066 0
-3061 3066 0
-3054 -3061 3067 0
-3062 3067 0
-3054 -3062 3068 0
-3063 3068 0
-3054 -3063 3069 0
-3064 3069 0
-3054 -3064 0
-3055 3070 0
-3065 3070 0
-3055 -3065 3071 0
-3066 3071 0
-3055 -3066 3072 0
-3067 3072 0
-3055 -3067 3073 0
-3068 3073 0
-3055 -3068 3074 0
-3069 3074 0
-3055 -3069 0
-3056 3075 0
-3070 3075 0
-3056 -3070 3076 0
-3071 3076 0
-3056 -3071 3077 0
-3072 3077 0
-3056 -3072 3078 0
-3073 3078 0
-3056 -3073 3079 0
-3074 3079 0
-3056 -3074 0
-3057 3080 0
-3075 3080 0
-3057 -3075 3081 0
-3076 3081 0
-3057 -3076 3082 0
-3077 3082 0
-3057 -3077 3083 0
-3078 3083 0
-3057 -3078 3084 0
-3079 3084 0
-3057 -3079 0
-3058 3085 0
-3080 3085 0
-3058 -3080 3086 0
-3081 3086 0
-3058 -3081 3087 0
-3082 3087 0
-3058 -3082 3088 0
-3083 3088 0
-3058 -3083 3089 0
-3084 3089 0
-3058 -3084 0
-3059 -3089 0
-3095 25 0
-25 3095 0
-3096 74 0
-74 3096 0
-3097 123 0
-123 3097 0
-3098 172 0
-172 3098 0
-3099 221 0
-221 3099 0
-3100 270 0
-270 3100 0
-3101 319 0
-319 3101 0
-3095 3102 0
-3096 3103 0
-3102 3103 0
-3096 -3102 0
-3097 3104 0
-3103 3104 0
-3097 -3103 0
-3098 3105 0
-3104 3105 0
-3098 -3104 0
-3099 3106 0
-3105 3106 0
-3099 -3105 0
-3100 3107 0
-3106 3107 0
-3100 -3106 0
-3101 -3107 0
-3109 26 0
-26 3109 0
-3110 75 0
-75 3110 0
-3111 124 0
-124 3111 0
-3112 173 0
-173 3112 0
-3113 222 0
-222 3113 0
-3114 271 0
-271 3114 0
-3115 320 0
-320 3115 0
-3109 3116 0
-3110 3117 0
-3116 3117 0
-3110 -3116 0
-3111 3118 0
-3117 3118 0
-3111 -3117 0
-3112 3119 0
-3118 3119 0
-3112 -3118 0
-3113 3120 0
-3119 3120 0
-3113 -3119 0
-3114 3121 0
-3120 3121 0
-3114 -3120 0
-3115 -3121 0
-3123 27 0
-27 3123 0
-3124 76 0
-76 3124 0
-3125 125 0
-125 3125 0
-3126 174 0
-174 3126 0
-3127 223 0
-223 3127 0
-3128 272 0
-272 3128 0
-3129 321 0
-321 3129 0
-3123 3130 0
-3124 3131 0
-3130 3131 0
-3124 -3130 0
-3125 3132 0
-3131 3132 0
-3125 -3131 0
-3126 3133 0
-3132 3133 0
-3126 -3132 0
-3127 3134 0
-3133 3134 0
-3127 -3133 0
-3128 3135 0
-3134 3135 0
-3128 -3134 0
-3129 -3135 0
-3137 28 0
-28 3137 0
-3138 77 0
-77 3138 0
-3139 126 0
-126 3139 0
-3140 175 0
-175 3140 0
-3141 224 0
-224 3141 0
-3142 273 0
-273 3142 0
-3143 322 0
-322 3143 0
-3137 3144 0
-3138 3145 0
-3144 3145 0
-3138 -3144 0
-3139 3146 0
-3145 3146 0
-3139 -3145 0
-3140 3147 0
-3146 3147 0
-3140 -3146 0
-3141 3148 0
-3147 3148 0
-3141 -3147 0
-3142 3149 0
-3148 3149 0
-3142 -3148 0
-3143 -3149 0
-3151 29 0
-29 3151 0
-3152 78 0
-78 3152 0
-3153 127 0
-127 3153 0
-3154 176 0
-176 3154 0
-3155 225 0
-225 3155 0
-3156 274 0
-274 3156 0
-3157 323 0
-323 3157 0
-3151 3158 0
-3152 3159 0
-3158 3159 0
-3152 -3158 0
-3153 3160 0
-3159 3160 0
-3153 -3159 0
-3154 3161 0
-3160 3161 0
-3154 -3160 0
-3155 3162 0
-3161 3162 0
-3155 -3161 0
-3156 3163 0
-3162 3163 0
-3156 -3162 0
-3157 -3163 0
-3165 29 30 31 32 33 0
-29 3165 0
-30 3165 0
-31 3165 0
-32 3165 0
-33 3165 0
-3166 78 79 80 81 82 0
-78 3166 0
-79 3166 0
-80 3166 0
-81 3166 0
-82 3166 0
-3167 127 128 129 130 131 0
-127 3167 0
-128 3167 0
-129 3167 0
-130 3167 0
-131 3167 0
-3168 176 177 178 179 180 0
-176 3168 0
-177 3168 0
-178 3168 0
-179 3168 0
-180 3168 0
-3169 225 226 227 228 229 0
-225 3169 0
-226 3169 0
-227 3169 0
-228 3169 0
-229 3169 0
-3170 274 275 276 277 278 0
-274 3170 0
-275 3170 0
-276 3170 0
-277 3170 0
-278 3170 0
-3171 323 324 325 326 327 0
-323 3171 0
-324 3171 0
-325 3171 0
-326 3171 0
-327 3171 0
-3165 3172 0
-3173 0
-3174 0
-3175 0
-3176 0
-3166 3177 0
-3172 3177 0
-3166 -3172 3178 0
-3173 3178 0
-3166 -3173 3179 0
-3174 3179 0
-3166 -3174 3180 0
-3175 3180 0
-3166 -3175 3181 0
-3176 3181 0
-3166 -3176 0
-3167 3182 0
-3177 3182 0
-3167 -3177 3183 0
-3178 3183 0
-3167 -3178 3184 0
-3179 3184 0
-3167 -3179 3185 0
-3180 3185 0
-3167 -3180 3186 0
-3181 3186 0
-3167 -3181 0
-3168 3187 0
-3182 3187 0
-3168 -3182 3188 0
-3183 3188 0
-3168 -3183 3189 0
-3184 3189 0
-3168 -3184 3190 0
-3185 3190 0
-3168 -3185 3191 0
-3186 3191 0
-3168 -3186 0
-3169 3192 0
-3187 3192 0
-3169 -3187 3193 0
-3188 3193 0
-3169 -3188 3194 0
-3189 3194 0
-3169 -3189 3195 0
-3190 3195 0
-3169 -3190 3196 0
-3191 3196 0
-3169 -3191 0
-3170 3197 0
-3192 3197 0
-3170 -3192 3198 0
-3193 3198 0
-3170 -3193 3199 0
-3194 3199 0
-3170 -3194 3200 0
-3195 3200 0
-3170 -3195 3201 0
-3196 3201 0
-3170 -3196 0
-3171 -3201 0
-3207 30 0
-30 3207 0
-3208 79 0
-79 3208 0
-3209 128 0
-128 3209 0
-3210 177 0
-177 3210 0
-3211 226 0
-226 3211 0
-3212 275 0
-275 3212 0
-3213 324 0
-324 3213 0
-3207 3214 0
-3208 3215 0
-3214 3215 0
-3208 -3214 0
-3209 3216 0
-3215 3216 0
-3209 -3215 0
-3210 3217 0
-3216 3217 0
-3210 -3216 0
-3211 3218 0
-3217 3218 0
-3211 -3217 0
-3212 3219 0
-3218 3219 0
-3212 -3218 0
-3213 -3219 0
-3221 30 31 32 33 34 0
-30 3221 0
-31 3221 0
-32 3221 0
-33 3221 0
-34 3221 0
-3222 79 80 81 82 83 0
-79 3222 0
-80 3222 0
-81 3222 0
-82 3222 0
-83 3222 0
-3223 128 129 130 131 132 0
-128 3223 0
-129 3223 0
-130 3223 0
-131 3223 0
-132 3223 0
-3224 177 178 179 180 181 0
-177 3224 0
-178 3224 0
-179 3224 0
-180 3224 0
-181 3224 0
-3225 226 227 228 229 230 0
-226 3225 0
-227 3225 0
-228 3225 0
-229 3225 0
-230 3225 0
-3226 275 276 277 278 279 0
-275 3226 0
-276 3226 0
-277 3226 0
-278 3226 0
-279 3226 0
-3227 324 325 326 327 328 0
-324 3227 0
-325 3227 0
-326 3227 0
-327 3227 0
-328 3227 0
-3221 3228 0
-3229 0
-3230 0
-3231 0
-3232 0
-3222 3233 0
-3228 3233 0
-3222 -3228 3234 0
-3229 3234 0
-3222 -3229 3235 0
-3230 3235 0
-3222 -3230 3236 0
-3231 3236 0
-3222 -3231 3237 0
-3232 3237 0
-3222 -3232 0
-3223 3238 0
-3233 3238 0
-3223 -3233 3239 0
-3234 3239 0
-3223 -3234 3240 0
-3235 3240 0
-3223 -3235 3241 0
-3236 3241 0
-3223 -3236 3242 0
-3237 3242 0
-3223 -3237 0
-3224 3243 0
-3238 3243 0
-3224 -3238 3244 0
-3239 3244 0
-3224 -3239 3245 0
-3240 3245 0
-3224 -3240 3246 0
-3241 3246 0
-3224 -3241 3247 0
-3242 3247 0
-3224 -3242 0
-3225 3248 0
-3243 3248 0
-3225 -3243 3249 0
-3244 3249 0
-3225 -3244 3250 0
-3245 3250 0
-3225 -3245 3251 0
-3246 3251 0
-3225 -3246 3252 0
-3247 3252 0
-3225 -3247 0
-3226 3253 0
-3248 3253 0
-3226 -3248 3254 0
-3249 3254 0
-3226 -3249 3255 0
-3250 3255 0
-3226 -3250 3256 0
-3251 3256 0
-3226 -3251 3257 0
-3252 3257 0
-3226 -3252 0
-3227 -3257 0
-3263 31 0
-31 3263 0
-3264 80 0
-80 3264 0
-3265 129 0
-129 3265 0
-3266 178 0
-178 3266 0
-3267 227 0
-227 3267 0
-3268 276 0
-276 3268 0
-3269 325 0
-325 3269 0
-3263 3270 0
-3264 3271 0
-3270 3271 0
-3264 -3270 0
-3265 3272 0
-3271 3272 0
-3265 -3271 0
-3266 3273 0
-3272 3273 0
-3266 -3272 0
-3267 3274 0
-3273 3274 0
-3267 -3273 0
-3268 3275 0
-3274 3275 0
-3268 -3274 0
-3269 -3275 0
-3277 31 32 33 34 35 0
-31 3277 0
-32 3277 0
-33 3277 0
-34 3277 0
-35 3277 0
-3278 80 81 82 83 84 0
-80 3278 0
-81 3278 0
-82 3278 0
-83 3278 0
-84 3278 0
-3279 129 130 131 132 133 0
-129 3279 0
-130 3279 0
-131 3279 0
-132 3279 0
-133 3279 0
-3280 178 179 180 181 182 0
-178 3280 0
-179 3280 0
-180 3280 0
-181 3280 0
-182 3280 0
-3281 227 228 229 230 231 0
-227 3281 0
-228 3281 0
-229 3281 0
-230 3281 0
-231 3281 0
-3282 276 277 278 279 280 0
-276 3282 0
-277 3282 0
-278 3282 0
-279 3282 0
-280 3282 0
-3283 325 326 327 328 329 0
-325 3283 0
-326 3283 0
-327 3283 0
-328 3283 0
-329 3283 0
-3277 3284 0
-3285 0
-3286 0
-3287 0
-3288 0
-3278 3289 0
-3284 3289 0
-3278 -3284 3290 0
-3285 3290 0
-3278 -3285 3291 0
-3286 3291 0
-3278 -3286 3292 0
-3287 3292 0
-3278 -3287 3293 0
-3288 3293 0
-3278 -3288 0
-3279 3294 0
-3289 3294 0
-3279 -3289 3295 0
-3290 3295 0
-3279 -3290 3296 0
-3291 3296 0
-3279 -3291 3297 0
-3292 3297 0
-3279 -3292 3298 0
-3293 3298 0
-3279 -3293 0
-3280 3299 0
-3294 3299 0
-3280 -3294 3300 0
-3295 3300 0
-3280 -3295 3301 0
-3296 3301 0
-3280 -3296 3302 0
-3297 3302 0
-3280 -3297 3303 0
-3298 3303 0
-3280 -3298 0
-3281 3304 0
-3299 3304 0
-3281 -3299 3305 0
-3300 3305 0
-3281 -3300 3306 0
-3301 3306 0
-3281 -3301 3307 0
-3302 3307 0
-3281 -3302 3308 0
-3303 3308 0
-3281 -3303 0
-3282 3309 0
-3304 3309 0
-3282 -3304 3310 0
-3305 3310 0
-3282 -3305 3311 0
-3306 3311 0
-3282 -3306 3312 0
-3307 3312 0
-3282 -3307 3313 0
-3308 3313 0
-3282 -3308 0
-3283 -3313 0
-3319 32 0
-32 3319 0
-3320 81 0
-81 3320 0
-3321 130 0
-130 3321 0
-3322 179 0
-179 3322 0
-3323 228 0
-228 3323 0
-3324 277 0
-277 3324 0
-3325 326 0
-326 3325 0
-3319 3326 0
-3320 3327 0
-3326 3327 0
-3320 -3326 0
-3321 3328 0
-3327 3328 0
-3321 -3327 0
-3322 3329 0
-3328 3329 0
-3322 -3328 0
-3323 3330 0
-3329 3330 0
-3323 -3329 0
-3324 3331 0
-3330 3331 0
-3324 -3330 0
-3325 -3331 0
-3333 33 0
-33 3333 0
-3334 82 0
-82 3334 0
-3335 131 0
-131 3335 0
-3336 180 0
-180 3336 0
-3337 229 0
-229 3337 0
-3338 278 0
-278 3338 0
-3339 327 0
-327 3339 0
-3333 3340 0
-3334 3341 0
-3340 3341 0
-3334 -3340 0
-3335 3342 0
-3341 3342 0
-3335 -3341 0
-3336 3343 0
-3342 3343 0
-3336 -3342 0
-3337 3344 0
-3343 3344 0
-3337 -3343 0
-3338 3345 0
-3344 3345 0
-3338 -3344 0
-3339 -3345 0
-3347 34 0
-34 3347 0
-3348 83 0
-83 3348 0
-3349 132 0
-132 3349 0
-3350 181 0
-181 3350 0
-3351 230 0
-230 3351 0
-3352 279 0
-279 3352 0
-3353 328 0
-328 3353 0
-3347 3354 0
-3348 3355 0
-3354 3355 0
-3348 -3354 0
-3349 3356 0
-3355 3356 0
-3349 -3355 0
-3350 3357 0
-3356 3357 0
-3350 -3356 0
-3351 3358 0
-3357 3358 0
-3351 -3357 0
-3352 3359 0
-3358 3359 0
-3352 -3358 0
-3353 -3359 0
-3361 35 0
-35 3361 0
-3362 84 0
-84 3362 0
-3363 133 0
-133 3363 0
-3364 182 0
-182 3364 0
-3365 231 0
-231 3365 0
-3366 280 0
-280 3366 0
-3367 329 0
-329 3367 0
-3361 3368 0
-3362 3369 0
-3368 3369 0
-3362 -3368 0
-3363 3370 0
-3369 3370 0
-3363 -3369 0
-3364 3371 0
-3370 3371 0
-3364 -3370 0
-3365 3372 0
-3371 3372 0
-3365 -3371 0
-3366 3373 0
-3372 3373 0
-3366 -3372 0
-3367 -3373 0
-3375 36 0
-36 3375 0
-3376 85 0
-85 3376 0
-3377 134 0
-134 3377 0
-3378 183 0
-183 3378 0
-3379 232 0
-232 3379 0
-3380 281 0
-281 3380 0
-3381 330 0
-330 3381 0
-3375 3382 0
-3376 3383 0
-3382 3383 0
-3376 -3382 0
-3377 3384 0
-3383 3384 0
-3377 -3383 0
-3378 3385 0
-3384 3385 0
-3378 -3384 0
-3379 3386 0
-3385 3386 0
-3379 -3385 0
-3380 3387 0
-3386 3387 0
-3380 -3386 0
-3381 -3387 0
-3389 36 37 38 39 40 0
-36 3389 0
-37 3389 0
-38 3389 0
-39 3389 0
-40 3389 0
-3390 85 86 87 88 89 0
-85 3390 0
-86 3390 0
-87 3390 0
-88 3390 0
-89 3390 0
-3391 134 135 136 137 138 0
-134 3391 0
-135 3391 0
-136 3391 0
-137 3391 0
-138 3391 0
-3392 183 184 185 186 187 0
-183 3392 0
-184 3392 0
-185 3392 0
-186 3392 0
-187 3392 0
-3393 232 233 234 235 236 0
-232 3393 0
-233 3393 0
-234 3393 0
-235 3393 0
-236 3393 0
-3394 281 282 283 284 285 0
-281 3394 0
-282 3394 0
-283 3394 0
-284 3394 0
-285 3394 0
-3395 330 331 332 333 334 0
-330 3395 0
-331 3395 0
-332 3395 0
-333 3395 0
-334 3395 0
-3389 3396 0
-3397 0
-3398 0
-3399 0
-3400 0
-3390 3401 0
-3396 3401 0
-3390 -3396 3402 0
-3397 3402 0
-3390 -3397 3403 0
-3398 3403 0
-3390 -3398 3404 0
-3399 3404 0
-3390 -3399 3405 0
-3400 3405 0
-3390 -3400 0
-3391 3406 0
-3401 3406 0
-3391 -3401 3407 0
-3402 3407 0
-3391 -3402 3408 0
-3403 3408 0
-3391 -3403 3409 0
-3404 3409 0
-3391 -3404 3410 0
-3405 3410 0
-3391 -3405 0
-3392 3411 0
-3406 3411 0
-3392 -3406 3412 0
-3407 3412 0
-3392 -3407 3413 0
-3408 3413 0
-3392 -3408 3414 0
-3409 3414 0
-3392 -3409 3415 0
-3410 3415 0
-3392 -3410 0
-3393 3416 0
-3411 3416 0
-3393 -3411 3417 0
-3412 3417 0
-3393 -3412 3418 0
-3413 3418 0
-3393 -3413 3419 0
-3414 3419 0
-3393 -3414 3420 0
-3415 3420 0
-3393 -3415 0
-3394 3421 0
-3416 3421 0
-3394 -3416 3422 0
-3417 3422 0
-3394 -3417 3423 0
-3418 3423 0
-3394 -3418 3424 0
-3419 3424 0
-3394 -3419 3425 0
-3420 3425 0
-3394 -3420 0
-3395 -3425 0
-3431 37 0
-37 3431 0
-3432 86 0
-86 3432 0
-3433 135 0
-135 3433 0
-3434 184 0
-184 3434 0
-3435 233 0
-233 3435 0
-3436 282 0
-282 3436 0
-3437 331 0
-331 3437 0
-3431 3438 0
-3432 3439 0
-3438 3439 0
-3432 -3438 0
-3433 3440 0
-3439 3440 0
-3433 -3439 0
-3434 3441 0
-3440 3441 0
-3434 -3440 0
-3435 3442 0
-3441 3442 0
-3435 -3441 0
-3436 3443 0
-3442 3443 0
-3436 -3442 0
-3437 -3443 0
-3445 37 38 39 40 41 0
-37 3445 0
-38 3445 0
-39 3445 0
-40 3445 0
-41 3445 0
-3446 86 87 88 89 90 0
-86 3446 0
-87 3446 0
-88 3446 0
-89 3446 0
-90 3446 0
-3447 135 136 137 138 139 0
-135 3447 0
-136 3447 0
-137 3447 0
-138 3447 0
-139 3447 0
-3448 184 185 186 187 188 0
-184 3448 0
-185 3448 0
-186 3448 0
-187 3448 0
-188 3448 0
-3449 233 234 235 236 237 0
-233 3449 0
-234 3449 0
-235 3449 0
-236 3449 0
-237 3449 0
-3450 282 283 284 285 286 0
-282 3450 0
-283 3450 0
-284 3450 0
-285 3450 0
-286 3450 0
-3451 331 332 333 334 335 0
-331 3451 0
-332 3451 0
-333 3451 0
-334 3451 0
-335 3451 0
-3445 3452 0
-3453 0
-3454 0
-3455 0
-3456 0
-3446 3457 0
-3452 3457 0
-3446 -3452 3458 0
-3453 3458 0
-3446 -3453 3459 0
-3454 3459 0
-3446 -3454 3460 0
-3455 3460 0
-3446 -3455 3461 0
-3456 3461 0
-3446 -3456 0
-3447 3462 0
-3457 3462 0
-3447 -3457 3463 0
-3458 3463 0
-3447 -3458 3464 0
-3459 3464 0
-3447 -3459 3465 0
-3460 3465 0
-3447 -3460 3466 0
-3461 3466 0
-3447 -3461 0
-3448 3467 0
-3462 3467 0
-3448 -3462 3468 0
-3463 3468 0
-3448 -3463 3469 0
-3464 3469 0
-3448 -3464 3470 0
-3465 3470 0
-3448 -3465 3471 0
-3466 3471 0
-3448 -3466 0
-3449 3472 0
-3467 3472 0
-3449 -3467 3473 0
-3468 3473 0
-3449 -3468 3474 0
-3469 3474 0
-3449 -3469 3475 0
-3470 3475 0
-3449 -3470 3476 0
-3471 3476 0
-3449 -3471 0
-3450 3477 0
-3472 3477 0
-3450 -3472 3478 0
-3473 3478 0
-3450 -3473 3479 0
-3474 3479 0
-3450 -3474 3480 0
-3475 3480 0
-3450 -3475 3481 0
-3476 3481 0
-3450 -3476 0
-3451 -3481 0
-3487 38 0
-38 3487 0
-3488 87 0
-87 3488 0
-3489 136 0
-136 3489 0
-3490 185 0
-185 3490 0
-3491 234 0
-234 3491 0
-3492 283 0
-283 3492 0
-3493 332 0
-332 3493 0
-3487 3494 0
-3488 3495 0
-3494 3495 0
-3488 -3494 0
-3489 3496 0
-3495 3496 0
-3489 -3495 0
-3490 3497 0
-3496 3497 0
-3490 -3496 0
-3491 3498 0
-3497 3498 0
-3491 -3497 0
-3492 3499 0
-3498 3499 0
-3492 -3498 0
-3493 -3499 0
-3501 38 39 40 41 42 0
-38 3501 0
-39 3501 0
-40 3501 0
-41 3501 0
-42 3501 0
-3502 87 88 89 90 91 0
-87 3502 0
-88 3502 0
-89 3502 0
-90 3502 0
-91 3502 0
-3503 136 137 138 139 140 0
-136 3503 0
-137 3503 0
-138 3503 0
-139 3503 0
-140 3503 0
-3504 185 186 187 188 189 0
-185 3504 0
-186 3504 0
-187 3504 0
-188 3504 0
-189 3504 0
-3505 234 235 236 237 238 0
-234 3505 0
-235 3505 0
-236 3505 0
-237 3505 0
-238 3505 0
-3506 283 284 285 286 287 0
-283 3506 0
-284 3506 0
-285 3506 0
-286 3506 0
-287 3506 0
-3507 332 333 334 335 336 0
-332 3507 0
-333 3507 0
-334 3507 0
-335 3507 0
-336 3507 0
-3501 3508 0
-3509 0
-3510 0
-3511 0
-3512 0
-3502 3513 0
-3508 3513 0
-3502 -3508 3514 0
-3509 3514 0
-3502 -3509 3515 0
-3510 3515 0
-3502 -3510 3516 0
-3511 3516 0
-3502 -3511 3517 0
-3512 3517 0
-3502 -3512 0
-3503 3518 0
-3513 3518 0
-3503 -3513 3519 0
-3514 3519 0
-3503 -3514 3520 0
-3515 3520 0
-3503 -3515 3521 0
-3516 3521 0
-3503 -3516 3522 0
-3517 3522 0
-3503 -3517 0
-3504 3523 0
-3518 3523 0
-3504 -3518 3524 0
-3519 3524 0
-3504 -3519 3525 0
-3520 3525 0
-3504 -3520 3526 0
-3521 3526 0
-3504 -3521 3527 0
-3522 3527 0
-3504 -3522 0
-3505 3528 0
-3523 3528 0
-3505 -3523 3529 0
-3524 3529 0
-3505 -3524 3530 0
-3525 3530 0
-3505 -3525 3531 0
-3526 3531 0
-3505 -3526 3532 0
-3527 3532 0
-3505 -3527 0
-3506 3533 0
-3528 3533 0
-3506 -3528 3534 0
-3529 3534 0
-3506 -3529 3535 0
-3530 3535 0
-3506 -3530 3536 0
-3531 3536 0
-3506 -3531 3537 0
-3532 3537 0
-3506 -3532 0
-3507 -3537 0
-3543 39 0
-39 3543 0
-3544 88 0
-88 3544 0
-3545 137 0
-137 3545 0
-3546 186 0
-186 3546 0
-3547 235 0
-235 3547 0
-3548 284 0
-284 3548 0
-3549 333 0
-333 3549 0
-3543 3550 0
-3544 3551 0
-3550 3551 0
-3544 -3550 0
-3545 3552 0
-3551 3552 0
-3545 -3551 0
-3546 3553 0
-3552 3553 0
-3546 -3552 0
-3547 3554 0
-3553 3554 0
-3547 -3553 0
-3548 3555 0
-3554 3555 0
-3548 -3554 0
-3549 -3555 0
-3557 40 0
-40 3557 0
-3558 89 0
-89 3558 0
-3559 138 0
-138 3559 0
-3560 187 0
-187 3560 0
-3561 236 0
-236 3561 0
-3562 285 0
-285 3562 0
-3563 334 0
-334 3563 0
-3557 3564 0
-3558 3565 0
-3564 3565 0
-3558 -3564 0
-3559 3566 0
-3565 3566 0
-3559 -3565 0
-3560 3567 0
-3566 3567 0
-3560 -3566 0
-3561 3568 0
-3567 3568 0
-3561 -3567 0
-3562 3569 0
-3568 3569 0
-3562 -3568 0
-3563 -3569 0
-3571 41 0
-41 3571 0
-3572 90 0
-90 3572 0
-3573 139 0
-139 3573 0
-3574 188 0
-188 3574 0
-3575 237 0
-237 3575 0
-3576 286 0
-286 3576 0
-3577 335 0
-335 3577 0
-3571 3578 0
-3572 3579 0
-3578 3579 0
-3572 -3578 0
-3573 3580 0
-3579 3580 0
-3573 -3579 0
-3574 3581 0
-3580 3581 0
-3574 -3580 0
-3575 3582 0
-3581 3582 0
-3575 -3581 0
-3576 3583 0
-3582 3583 0
-3576 -3582 0
-3577 -3583 0
-3585 42 0
-42 3585 0
-3586 91 0
-91 3586 0
-3587 140 0
-140 3587 0
-3588 189 0
-189 3588 0
-3589 238 0
-238 3589 0
-3590 287 0
-287 3590 0
-3591 336 0
-336 3591 0
-3585 3592 0
-3586 3593 0
-3592 3593 0
-3586 -3592 0
-3587 3594 0
-3593 3594 0
-3587 -3593 0
-3588 3595 0
-3594 3595 0
-3588 -3594 0
-3589 3596 0
-3595 3596 0
-3589 -3595 0
-3590 3597 0
-3596 3597 0
-3590 -3596 0
-3591 -3597 0
-3599 43 0
-43 3599 0
-3600 92 0
-92 3600 0
-3601 141 0
-141 3601 0
-3602 190 0
-190 3602 0
-3603 239 0
-239 3603 0
-3604 288 0
-288 3604 0
-3605 337 0
-337 3605 0
-3599 3606 0
-3600 3607 0
-3606 3607 0
-3600 -3606 0
-3601 3608 0
-3607 3608 0
-3601 -3607 0
-3602 3609 0
-3608 3609 0
-3602 -3608 0
-3603 3610 0
-3609 3610 0
-3603 -3609 0
-3604 3611 0
-3610 3611 0
-3604 -3610 0
-3605 -3611 0
-3613 43 44 45 46 47 0
-43 3613 0
-44 3613 0
-45 3613 0
-46 3613 0
-47 3613 0
-3614 92 93 94 95 96 0
-92 3614 0
-93 3614 0
-94 3614 0
-95 3614 0
-96 3614 0
-3615 141 142 143 144 145 0
-141 3615 0
-142 3615 0
-143 3615 0
-144 3615 0
-145 3615 0
-3616 190 191 192 193 194 0
-190 3616 0
-191 3616 0
-192 3616 0
-193 3616 0
-194 3616 0
-3617 239 240 241 242 243 0
-239 3617 0
-240 3617 0
-241 3617 0
-242 3617 0
-243 3617 0
-3618 288 289 290 291 292 0
-288 3618 0
-289 3618 0
-290 3618 0
-291 3618 0
-292 3618 0
-3619 337 338 339 340 341 0
-337 3619 0
-338 3619 0
-339 3619 0
-340 3619 0
-341 3619 0
-3613 3620 0
-3621 0
-3622 0
-3623 0
-3624 0
-3614 3625 0
-3620 3625 0
-3614 -3620 3626 0
-3621 3626 0
-3614 -3621 3627 0
-3622 3627 0
-3614 -3622 3628 0
-3623 3628 0
-3614 -3623 3629 0
-3624 3629 0
-3614 -3624 0
-3615 3630 0
-3625 3630 0
-3615 -3625 3631 0
-3626 3631 0
-3615 -3626 3632 0
-3627 3632 0
-3615 -3627 3633 0
-3628 3633 0
-3615 -3628 3634 0
-3629 3634 0
-3615 -3629 0
-3616 3635 0
-3630 3635 0
-3616 -3630 3636 0
-3631 3636 0
-3616 -3631 3637 0
-3632 3637 0
-3616 -3632 3638 0
-3633 3638 0
-3616 -3633 3639 0
-3634 3639 0
-3616 -3634 0
-3617 3640 0
-3635 3640 0
-3617 -3635 3641 0
-3636 3641 0
-3617 -3636 3642 0
-3637 3642 0
-3617 -3637 3643 0
-3638 3643 0
-3617 -3638 3644 0
-3639 3644 0
-3617 -3639 0
-3618 3645 0
-3640 3645 0
-3618 -3640 3646 0
-3641 3646 0
-3618 -3641 3647 0
-3642 3647 0
-3618 -3642 3648 0
-3643 3648 0
-3618 -3643 3649 0
-3644 3649 0
-3618 -3644 0
-3619 -3649 0
-3655 44 0
-44 3655 0
-3656 93 0
-93 3656 0
-3657 142 0
-142 3657 0
-3658 191 0
-191 3658 0
-3659 240 0
-240 3659 0
-3660 289 0
-289 3660 0
-3661 338 0
-338 3661 0
-3655 3662 0
-3656 3663 0
-3662 3663 0
-3656 -3662 0
-3657 3664 0
-3663 3664 0
-3657 -3663 0
-3658 3665 0
-3664 3665 0
-3658 -3664 0
-3659 3666 0
-3665 3666 0
-3659 -3665 0
-3660 3667 0
-3666 3667 0
-3660 -3666 0
-3661 -3667 0
-3669 44 45 46 47 48 0
-44 3669 0
-45 3669 0
-46 3669 0
-47 3669 0
-48 3669 0
-3670 93 94 95 96 97 0
-93 3670 0
-94 3670 0
-95 3670 0
-96 3670 0
-97 3670 0
-3671 142 143 144 145 146 0
-142 3671 0
-143 3671 0
-144 3671 0
-145 3671 0
-146 3671 0
-3672 191 192 193 194 195 0
-191 3672 0
-192 3672 0
-193 3672 0
-194 3672 0
-195 3672 0
-3673 240 241 242 243 244 0
-240 3673 0
-241 3673 0
-242 3673 0
-243 3673 0
-244 3673 0
-3674 289 290 291 292 293 0
-289 3674 0
-290 3674 0
-291 3674 0
-292 3674 0
-293 3674 0
-3675 338 339 340 341 342 0
-338 3675 0
-339 3675 0
-340 3675 0
-341 3675 0
-342 3675 0
-3669 3676 0
-3677 0
-3678 0
-3679 0
-3680 0
-3670 3681 0
-3676 3681 0
-3670 -3676 3682 0
-3677 3682 0
-3670 -3677 3683 0
-3678 3683 0
-3670 -3678 3684 0
-3679 3684 0
-3670 -3679 3685 0
-3680 3685 0
-3670 -3680 0
-3671 3686 0
-3681 3686 0
-3671 -3681 3687 0
-3682 3687 0
-3671 -3682 3688 0
-3683 3688 0
-3671 -3683 3689 0
-3684 3689 0
-3671 -3684 3690 0
-3685 3690 0
-3671 -3685 0
-3672 3691 0
-3686 3691 0
-3672 -3686 3692 0
-3687 3692 0
-3672 -3687 3693 0
-3688 3693 0
-3672 -3688 3694 0
-3689 3694 0
-3672 -3689 3695 0
-3690 3695 0
-3672 -3690 0
-3673 3696 0
-3691 3696 0
-3673 -3691 3697 0
-3692 3697 0
-3673 -3692 3698 0
-3693 3698 0
-3673 -3693 3699 0
-3694 3699 0
-3673 -3694 3700 0
-3695 3700 0
-3673 -3695 0
-3674 3701 0
-3696 3701 0
-3674 -3696 3702 0
-3697 3702 0
-3674 -3697 3703 0
-3698 3703 0
-3674 -3698 3704 0
-3699 3704 0
-3674 -3699 3705 0
-3700 3705 0
-3674 -3700 0
-3675 -3705 0
-3711 45 0
-45 3711 0
-3712 94 0
-94 3712 0
-3713 143 0
-143 3713 0
-3714 192 0
-192 3714 0
-3715 241 0
-241 3715 0
-3716 290 0
-290 3716 0
-3717 339 0
-339 3717 0
-3711 3718 0
-3712 3719 0
-3718 3719 0
-3712 -3718 0
-3713 3720 0
-3719 3720 0
-3713 -3719 0
-3714 3721 0
-3720 3721 0
-3714 -3720 0
-3715 3722 0
-3721 3722 0
-3715 -3721 0
-3716 3723 0
-3722 3723 0
-3716 -3722 0
-3717 -3723 0
-3725 45 46 47 48 49 0
-45 3725 0
-46 3725 0
-47 3725 0
-48 3725 0
-49 3725 0
-3726 94 95 96 97 98 0
-94 3726 0
-95 3726 0
-96 3726 0
-97 3726 0
-98 3726 0
-3727 143 144 145 146 147 0
-143 3727 0
-144 3727 0
-145 3727 0
-146 3727 0
-147 3727 0
-3728 192 193 194 195 196 0
-192 3728 0
-193 3728 0
-194 3728 0
-195 3728 0
-196 3728 0
-3729 241 242 243 244 245 0
-241 3729 0
-242 3729 0
-243 3729 0
-244 3729 0
-245 3729 0
-3730 290 291 292 293 294 0
-290 3730 0
-291 3730 0
-292 3730 0
-293 3730 0
-294 3730 0
-3731 339 340 341 342 343 0
-339 3731 0
-340 3731 0
-341 3731 0
-342 3731 0
-343 3731 0
-3725 3732 0
-3733 0
-3734 0
-3735 0
-3736 0
-3726 3737 0
-3732 3737 0
-3726 -3732 3738 0
-3733 3738 0
-3726 -3733 3739 0
-3734 3739 0
-3726 -3734 3740 0
-3735 3740 0
-3726 -3735 3741 0
-3736 3741 0
-3726 -3736 0
-3727 3742 0
-3737 3742 0
-3727 -3737 3743 0
-3738 3743 0
-3727 -3738 3744 0
-3739 3744 0
-3727 -3739 3745 0
-3740 3745 0
-3727 -3740 3746 0
-3741 3746 0
-3727 -3741 0
-3728 3747 0
-3742 3747 0
-3728 -3742 3748 0
-3743 3748 0
-3728 -3743 3749 0
-3744 3749 0
-3728 -3744 3750 0
-3745 3750 0
-3728 -3745 3751 0
-3746 3751 0
-3728 -3746 0
-3729 3752 0
-3747 3752 0
-3729 -3747 3753 0
-3748 3753 0
-3729 -3748 3754 0
-3749 3754 0
-3729 -3749 3755 0
-3750 3755 0
-3729 -3750 3756 0
-3751 3756 0
-3729 -3751 0
-3730 3757 0
-3752 3757 0
-3730 -3752 3758 0
-3753 3758 0
-3730 -3753 3759 0
-3754 3759 0
-3730 -3754 3760 0
-3755 3760 0
-3730 -3755 3761 0
-3756 3761 0
-3730 -3756 0
-3731 -3761 0
-3767 46 0
-46 3767 0
-3768 95 0
-95 3768 0
-3769 144 0
-144 3769 0
-3770 193 0
-193 3770 0
-3771 242 0
-242 3771 0
-3772 291 0
-291 3772 0
-3773 340 0
-340 3773 0
-3767 3774 0
-3768 3775 0
-3774 3775 0
-3768 -3774 0
-3769 3776 0
-3775 3776 0
-3769 -3775 0
-3770 3777 0
-3776 3777 0
-3770 -3776 0
-3771 3778 0
-3777 3778 0
-3771 -3777 0
-3772 3779 0
-3778 3779 0
-3772 -3778 0
-3773 -3779 0
-3781 47 0
-47 3781 0
-3782 96 0
-96 3782 0
-3783 145 0
-145 3783 0
-3784 194 0
-194 3784 0
-3785 243 0
-243 3785 0
-3786 292 0
-292 3786 0
-3787 341 0
-341 3787 0
-3781 3788 0
-3782 3789 0
-3788 3789 0
-3782 -3788 0
-3783 3790 0
-3789 3790 0
-3783 -3789 0
-3784 3791 0
-3790 3791 0
-3784 -3790 0
-3785 3792 0
-3791 3792 0
-3785 -3791 0
-3786 3793 0
-3792 3793 0
-3786 -3792 0
-3787 -3793 0
-3795 48 0
-48 3795 0
-3796 97 0
-97 3796 0
-3797 146 0
-146 3797 0
-3798 195 0
-195 3798 0
-3799 244 0
-244 3799 0
-3800 293 0
-293 3800 0
-3801 342 0
-342 3801 0
-3795 3802 0
-3796 3803 0
-3802 3803 0
-3796 -3802 0
-3797 3804 0
-3803 3804 0
-3797 -3803 0
-3798 3805 0
-3804 3805 0
-3798 -3804 0
-3799 3806 0
-3805 3806 0
-3799 -3805 0
-3800 3807 0
-3806 3807 0
-3800 -3806 0
-3801 -3807 0
-3809 49 0
-49 3809 0
-3810 98 0
-98 3810 0
-3811 147 0
-147 3811 0
-3812 196 0
-196 3812 0
-3813 245 0
-245 3813 0
-3814 294 0
-294 3814 0
-3815 343 0
-343 3815 0
-3809 3816 0
-3810 3817 0
-3816 3817 0
-3810 -3816 0
-3811 3818 0
-3817 3818 0
-3811 -3817 0
-3812 3819 0
-3818 3819 0
-3812 -3818 0
-3813 3820 0
-3819 3820 0
-3813 -3819 0
-3814 3821 0
-3820 3821 0
-3814 -3820 0
-3815 -3821 0
-3823 36 0
-36 3823 0
-3824 92 0
-92 3824 0
-3823 3825 0
-3824 -3825 0
-3827 37 0
-37 3827 0
-3828 93 0
-93 3828 0
-3827 3829 0
-3828 -3829 0
-3831 38 0
-38 3831 0
-3832 94 0
-94 3832 0
-3831 3833 0
-3832 -3833 0
-3835 39 0
-39 3835 0
-3836 95 0
-95 3836 0
-3835 3837 0
-3836 -3837 0
-3839 40 0
-40 3839 0
-3840 96 0
-96 3840 0
-3839 3841 0
-3840 -3841 0
-3843 41 0
-41 3843 0
-3844 97 0
-97 3844 0
-3843 3845 0
-3844 -3845 0
-3847 42 0
-42 3847 0
-3848 98 0
-98 3848 0
-3847 3849 0
-3848 -3849 0
-3851 29 0
-29 3851 0
-3852 85 0
-85 3852 0
-3853 141 0
-141 3853 0
-3851 3854 0
-3852 3855 0
-3854 3855 0
-3852 -3854 0
-3853 -3855 0
-3857 30 0
-30 3857 0
-3858 86 0
-86 3858 0
-3859 142 0
-142 3859 0
-3857 3860 0
-3858 3861 0
-3860 3861 0
-3858 -3860 0
-3859 -3861 0
-3863 31 0
-31 3863 0
-3864 87 0
-87 3864 0
-3865 143 0
-143 3865 0
-3863 3866 0
-3864 3867 0
-3866 3867 0
-3864 -3866 0
-3865 -3867 0
-3869 32 0
-32 3869 0
-3870 88 0
-88 3870 0
-3871 144 0
-144 3871 0
-3869 3872 0
-3870 3873 0
-3872 3873 0
-3870 -3872 0
-3871 -3873 0
-3875 33 0
-33 3875 0
-3876 89 0
-89 3876 0
-3877 145 0
-145 3877 0
-3875 3878 0
-3876 3879 0
-3878 3879 0
-3876 -3878 0
-3877 -3879 0
-3881 34 0
-34 3881 0
-3882 90 0
-90 3882 0
-3883 146 0
-146 3883 0
-3881 3884 0
-3882 3885 0
-3884 3885 0
-3882 -3884 0
-3883 -3885 0
-3887 35 0
-35 3887 0
-3888 91 0
-91 3888 0
-3889 147 0
-147 3889 0
-3887 3890 0
-3888 3891 0
-3890 3891 0
-3888 -3890 0
-3889 -3891 0
-3893 22 0
-22 3893 0
-3894 78 0
-78 3894 0
-3895 134 0
-134 3895 0
-3896 190 0
-190 3896 0
-3893 3897 0
-3894 3898 0
-3897 3898 0
-3894 -3897 0
-3895 3899 0
-3898 3899 0
-3895 -3898 0
-3896 -3899 0
-3901 23 0
-23 3901 0
-3902 79 0
-79 3902 0
-3903 135 0
-135 3903 0
-3904 191 0
-191 3904 0
-3901 3905 0
-3902 3906 0
-3905 3906 0
-3902 -3905 0
-3903 3907 0
-3906 3907 0
-3903 -3906 0
-3904 -3907 0
-3909 24 0
-24 3909 0
-3910 80 0
-80 3910 0
-3911 136 0
-136 3911 0
-3912 192 0
-192 3912 0
-3909 3913 0
-3910 3914 0
-3913 3914 0
-3910 -3913 0
-3911 3915 0
-3914 3915 0
-3911 -3914 0
-3912 -3915 0
-3917 25 0
-25 3917 0
-3918 81 0
-81 3918 0
-3919 137 0
-137 3919 0
-3920 193 0
-193 3920 0
-3917 3921 0
-3918 3922 0
-3921 3922 0
-3918 -3921 0
-3919 3923 0
-3922 3923 0
-3919 -3922 0
-3920 -3923 0
-3925 26 0
-26 3925 0
-3926 82 0
-82 3926 0
-3927 138 0
-138 3927 0
-3928 194 0
-194 3928 0
-3925 3929 0
-3926 3930 0
-3929 3930 0
-3926 -3929 0
-3927 3931 0
-3930 3931 0
-3927 -3930 0
-3928 -3931 0
-3933 27 0
-27 3933 0
-3934 83 0
-83 3934 0
-3935 139 0
-139 3935 0
-3936 195 0
-195 3936 0
-3933 3937 0
-3934 3938 0
-3937 3938 0
-3934 -3937 0
-3935 3939 0
-3938 3939 0
-3935 -3938 0
-3936 -3939 0
-3941 28 0
-28 3941 0
-3942 84 0
-84 3942 0
-3943 140 0
-140 3943 0
-3944 196 0
-196 3944 0
-3941 3945 0
-3942 3946 0
-3945 3946 0
-3942 -3945 0
-3943 3947 0
-3946 3947 0
-3943 -3946 0
-3944 -3947 0
-3949 15 0
-15 3949 0
-3950 71 0
-71 3950 0
-3951 127 0
-127 3951 0
-3952 183 0
-183 3952 0
-3953 239 0
-239 3953 0
-3949 3954 0
-3950 3955 0
-3954 3955 0
-3950 -3954 0
-3951 3956 0
-3955 3956 0
-3951 -3955 0
-3952 3957 0
-3956 3957 0
-3952 -3956 0
-3953 -3957 0
-3959 15 16 17 18 19 0
-15 3959 0
-16 3959 0
-17 3959 0
-18 3959 0
-19 3959 0
-3960 71 72 73 74 75 0
-71 3960 0
-72 3960 0
-73 3960 0
-74 3960 0
-75 3960 0
-3961 127 128 129 130 131 0
-127 3961 0
-128 3961 0
-129 3961 0
-130 3961 0
-131 3961 0
-3962 183 184 185 186 187 0
-183 3962 0
-184 3962 0
-185 3962 0
-186 3962 0
-187 3962 0
-3963 239 240 241 242 243 0
-239 3963 0
-240 3963 0
-241 3963 0
-242 3963 0
-243 3963 0
-3964 16 0
-16 3964 0
-3965 72 0
-72 3965 0
-3966 128 0
-128 3966 0
-3967 184 0
-184 3967 0
-3968 240 0
-240 3968 0
-3964 3969 0
-3965 3970 0
-3969 3970 0
-3965 -3969 0
-3966 3971 0
-3970 3971 0
-3966 -3970 0
-3967 3972 0
-3971 3972 0
-3967 -3971 0
-3968 -3972 0
-3974 16 17 18 19 20 0
-16 3974 0
-17 3974 0
-18 3974 0
-19 3974 0
-20 3974 0
-3975 72 73 74 75 76 0
-72 3975 0
-73 3975 0
-74 3975 0
-75 3975 0
-76 3975 0
-3976 128 129 130 131 132 0
-128 3976 0
-129 3976 0
-130 3976 0
-131 3976 0
-132 3976 0
-3977 184 185 186 187 188 0
-184 3977 0
-185 3977 0
-186 3977 0
-187 3977 0
-188 3977 0
-3978 240 241 242 243 244 0
-240 3978 0
-241 3978 0
-242 3978 0
-243 3978 0
-244 3978 0
-3979 17 0
-17 3979 0
-3980 73 0
-73 3980 0
-3981 129 0
-129 3981 0
-3982 185 0
-185 3982 0
-3983 241 0
-241 3983 0
-3979 3984 0
-3980 3985 0
-3984 3985 0
-3980 -3984 0
-3981 3986 0
-3985 3986 0
-3981 -3985 0
-3982 3987 0
-3986 3987 0
-3982 -3986 0
-3983 -3987 0
-3989 17 18 19 20 21 0
-17 3989 0
-18 3989 0
-19 3989 0
-20 3989 0
-21 3989 0
-3990 73 74 75 76 77 0
-73 3990 0
-74 3990 0
-75 3990 0
-76 3990 0
-77 3990 0
-3991 129 130 131 132 133 0
-129 3991 0
-130 3991 0
-131 3991 0
-132 3991 0
-133 3991 0
-3992 185 186 187 188 189 0
-185 3992 0
-186 3992 0
-187 3992 0
-188 3992 0
-189 3992 0
-3993 241 242 243 244 245 0
-241 3993 0
-242 3993 0
-243 3993 0
-244 3993 0
-245 3993 0
-3994 18 0
-18 3994 0
-3995 74 0
-74 3995 0
-3996 130 0
-130 3996 0
-3997 186 0
-186 3997 0
-3998 242 0
-242 3998 0
-3994 3999 0
-3995 4000 0
-3999 4000 0
-3995 -3999 0
-3996 4001 0
-4000 4001 0
-3996 -4000 0
-3997 4002 0
-4001 4002 0
-3997 -4001 0
-3998 -4002 0
-4004 19 0
-19 4004 0
-4005 75 0
-75 4005 0
-4006 131 0
-131 4006 0
-4007 187 0
-187 4007 0
-4008 243 0
-243 4008 0
-4004 4009 0
-4005 4010 0
-4009 4010 0
-4005 -4009 0
-4006 4011 0
-4010 4011 0
-4006 -4010 0
-4007 4012 0
-4011 4012 0
-4007 -4011 0
-4008 -4012 0
-4014 20 0
-20 4014 0
-4015 76 0
-76 4015 0
-4016 132 0
-132 4016 0
-4017 188 0
-188 4017 0
-4018 244 0
-244 4018 0
-4014 4019 0
-4015 4020 0
-4019 4020 0
-4015 -4019 0
-4016 4021 0
-4020 4021 0
-4016 -4020 0
-4017 4022 0
-4021 4022 0
-4017 -4021 0
-4018 -4022 0
-4024 21 0
-21 4024 0
-4025 77 0
-77 4025 0
-4026 133 0
-133 4026 0
-4027 189 0
-189 4027 0
-4028 245 0
-245 4028 0
-4024 4029 0
-4025 4030 0
-4029 4030 0
-4025 -4029 0
-4026 4031 0
-4030 4031 0
-4026 -4030 0
-4027 4032 0
-4031 4032 0
-4027 -4031 0
-4028 -4032 0
-4034 8 0
-8 4034 0
-4035 64 0
-64 4035 0
-4036 120 0
-120 4036 0
-4037 176 0
-176 4037 0
-4038 232 0
-232 4038 0
-4039 288 0
-288 4039 0
-4034 4040 0
-4035 4041 0
-4040 4041 0
-4035 -4040 0
-4036 4042 0
-4041 4042 0
-4036 -4041 0
-4037 4043 0
-4042 4043 0
-4037 -4042 0
-4038 4044 0
-4043 4044 0
-4038 -4043 0
-4039 -4044 0
-4046 8 9 10 11 12 0
-8 4046 0
-9 4046 0
-10 4046 0
-11 4046 0
-12 4046 0
-4047 64 65 66 67 68 0
-64 4047 0
-65 4047 0
-66 4047 0
-67 4047 0
-68 4047 0
-4048 120 121 122 123 124 0
-120 4048 0
-121 4048 0
-122 4048 0
-123 4048 0
-124 4048 0
-4049 176 177 178 179 180 0
-176 4049 0
-177 4049 0
-178 4049 0
-179 4049 0
-180 4049 0
-4050 232 233 234 235 236 0
-232 4050 0
-233 4050 0
-234 4050 0
-235 4050 0
-236 4050 0
-4051 288 289 290 291 292 0
-288 4051 0
-289 4051 0
-290 4051 0
-291 4051 0
-292 4051 0
-4046 4052 0
-4053 0
-4054 0
-4055 0
-4056 0
-4047 4057 0
-4052 4057 0
-4047 -4052 4058 0
-4053 4058 0
-4047 -4053 4059 0
-4054 4059 0
-4047 -4054 4060 0
-4055 4060 0
-4047 -4055 4061 0
-4056 4061 0
-4047 -4056 0
-4048 4062 0
-4057 4062 0
-4048 -4057 4063 0
-4058 4063 0
-4048 -4058 4064 0
-4059 4064 0
-4048 -4059 4065 0
-4060 4065 0
-4048 -4060 4066 0
-4061 4066 0
-4048 -4061 0
-4049 4067 0
-4062 4067 0
-4049 -4062 4068 0
-4063 4068 0
-4049 -4063 4069 0
-4064 4069 0
-4049 -4064 4070 0
-4065 4070 0
-4049 -4065 4071 0
-4066 4071 0
-4049 -4066 0
-4050 4072 0
-4067 4072 0
-4050 -4067 4073 0
-4068 4073 0
-4050 -4068 4074 0
-4069 4074 0
-4050 -4069 4075 0
-4070 4075 0
-4050 -4070 4076 0
-4071 4076 0
-4050 -4071 0
-4051 -4076 0
-4082 9 0
-9 4082 0
-4083 65 0
-65 4083 0
-4084 121 0
-121 4084 0
-4085 177 0
-177 4085 0
-4086 233 0
-233 4086 0
-4087 289 0
-289 4087 0
-4082 4088 0
-4083 4089 0
-4088 4089 0
-4083 -4088 0
-4084 4090 0
-4089 4090 0
-4084 -4089 0
-4085 4091 0
-4090 4091 0
-4085 -4090 0
-4086 4092 0
-4091 4092 0
-4086 -4091 0
-4087 -4092 0
-4094 9 10 11 12 13 0
-9 4094 0
-10 4094 0
-11 4094 0
-12 4094 0
-13 4094 0
-4095 65 66 67 68 69 0
-65 4095 0
-66 4095 0
-67 4095 0
-68 4095 0
-69 4095 0
-4096 121 122 123 124 125 0
-121 4096 0
-122 4096 0
-123 4096 0
-124 4096 0
-125 4096 0
-4097 177 178 179 180 181 0
-177 4097 0
-178 4097 0
-179 4097 0
-180 4097 0
-181 4097 0
-4098 233 234 235 236 237 0
-233 4098 0
-234 4098 0
-235 4098 0
-236 4098 0
-237 4098 0
-4099 289 290 291 292 293 0
-289 4099 0
-290 4099 0
-291 4099 0
-292 4099 0
-293 4099 0
-4094 4100 0
-4101 0
-4102 0
-4103 0
-4104 0
-4095 4105 0
-4100 4105 0
-4095 -4100 4106 0
-4101 4106 0
-4095 -4101 4107 0
-4102 4107 0
-4095 -4102 4108 0
-4103 4108 0
-4095 -4103 4109 0
-4104 4109 0
-4095 -4104 0
-4096 4110 0
-4105 4110 0
-4096 -4105 4111 0
-4106 4111 0
-4096 -4106 4112 0
-4107 4112 0
-4096 -4107 4113 0
-4108 4113 0
-4096 -4108 4114 0
-4109 4114 0
-4096 -4109 0
-4097 4115 0
-4110 4115 0
-4097 -4110 4116 0
-4111 4116 0
-4097 -4111 4117 0
-4112 4117 0
-4097 -4112 4118 0
-4113 4118 0
-4097 -4113 4119 0
-4114 4119 0
-4097 -4114 0
-4098 4120 0
-4115 4120 0
-4098 -4115 4121 0
-4116 4121 0
-4098 -4116 4122 0
-4117 4122 0
-4098 -4117 4123 0
-4118 4123 0
-4098 -4118 4124 0
-4119 4124 0
-4098 -4119 0
-4099 -4124 0
-4130 10 0
-10 4130 0
-4131 66 0
-66 4131 0
-4132 122 0
-122 4132 0
-4133 178 0
-178 4133 0
-4134 234 0
-234 4134 0
-4135 290 0
-290 4135 0
-4130 4136 0
-4131 4137 0
-4136 4137 0
-4131 -4136 0
-4132 4138 0
-4137 4138 0
-4132 -4137 0
-4133 4139 0
-4138 4139 0
-4133 -4138 0
-4134 4140 0
-4139 4140 0
-4134 -4139 0
-4135 -4140 0
-4142 10 11 12 13 14 0
-10 4142 0
-11 4142 0
-12 4142 0
-13 4142 0
-14 4142 0
-4143 66 67 68 69 70 0
-66 4143 0
-67 4143 0
-68 4143 0
-69 4143 0
-70 4143 0
-4144 122 123 124 125 126 0
-122 4144 0
-123 4144 0
-124 4144 0
-125 4144 0
-126 4144 0
-4145 178 179 180 181 182 0
-178 4145 0
-179 4145 0
-180 4145 0
-181 4145 0
-182 4145 0
-4146 234 235 236 237 238 0
-234 4146 0
-235 4146 0
-236 4146 0
-237 4146 0
-238 4146 0
-4147 290 291 292 293 294 0
-290 4147 0
-291 4147 0
-292 4147 0
-293 4147 0
-294 4147 0
-4142 4148 0
-4149 0
-4150 0
-4151 0
-4152 0
-4143 4153 0
-4148 4153 0
-4143 -4148 4154 0
-4149 4154 0
-4143 -4149 4155 0
-4150 4155 0
-4143 -4150 4156 0
-4151 4156 0
-4143 -4151 4157 0
-4152 4157 0
-4143 -4152 0
-4144 4158 0
-4153 4158 0
-4144 -4153 4159 0
-4154 4159 0
-4144 -4154 4160 0
-4155 4160 0
-4144 -4155 4161 0
-4156 4161 0
-4144 -4156 4162 0
-4157 4162 0
-4144 -4157 0
-4145 4163 0
-4158 4163 0
-4145 -4158 4164 0
-4159 4164 0
-4145 -4159 4165 0
-4160 4165 0
-4145 -4160 4166 0
-4161 4166 0
-4145 -4161 4167 0
-4162 4167 0
-4145 -4162 0
-4146 4168 0
-4163 4168 0
-4146 -4163 4169 0
-4164 4169 0
-4146 -4164 4170 0
-4165 4170 0
-4146 -4165 4171 0
-4166 4171 0
-4146 -4166 4172 0
-4167 4172 0
-4146 -4167 0
-4147 -4172 0
-4178 11 0
-11 4178 0
-4179 67 0
-67 4179 0
-4180 123 0
-123 4180 0
-4181 179 0
-179 4181 0
-4182 235 0
-235 4182 0
-4183 291 0
-291 4183 0
-4178 4184 0
-4179 4185 0
-4184 4185 0
-4179 -4184 0
-4180 4186 0
-4185 4186 0
-4180 -4185 0
-4181 4187 0
-4186 4187 0
-4181 -4186 0
-4182 4188 0
-4187 4188 0
-4182 -4187 0
-4183 -4188 0
-4190 12 0
-12 4190 0
-4191 68 0
-68 4191 0
-4192 124 0
-124 4192 0
-4193 180 0
-180 4193 0
-4194 236 0
-236 4194 0
-4195 292 0
-292 4195 0
-4190 4196 0
-4191 4197 0
-4196 4197 0
-4191 -4196 0
-4192 4198 0
-4197 4198 0
-4192 -4197 0
-4193 4199 0
-4198 4199 0
-4193 -4198 0
-4194 4200 0
-4199 4200 0
-4194 -4199 0
-4195 -4200 0
-4202 13 0
-13 4202 0
-4203 69 0
-69 4203 0
-4204 125 0
-125 4204 0
-4205 181 0
-181 4205 0
-4206 237 0
-237 4206 0
-4207 293 0
-293 4207 0
-4202 4208 0
-4203 4209 0
-4208 4209 0
-4203 -4208 0
-4204 4210 0
-4209 4210 0
-4204 -4209 0
-4205 4211 0
-4210 4211 0
-4205 -4210 0
-4206 4212 0
-4211 4212 0
-4206 -4211 0
-4207 -4212 0
-4214 14 0
-14 4214 0
-4215 70 0
-70 4215 0
-4216 126 0
-126 4216 0
-4217 182 0
-182 4217 0
-4218 238 0
-238 4218 0
-4219 294 0
-294 4219 0
-4214 4220 0
-4215 4221 0
-4220 4221 0
-4215 -4220 0
-4216 4222 0
-4221 4222 0
-4216 -4221 0
-4217 4223 0
-4222 4223 0
-4217 -4222 0
-4218 4224 0
-4223 4224 0
-4218 -4223 0
-4219 -4224 0
-4226 1 0
-1 4226 0
-4227 57 0
-57 4227 0
-4228 113 0
-113 4228 0
-4229 169 0
-169 4229 0
-4230 225 0
-225 4230 0
-4231 281 0
-281 4231 0
-4232 337 0
-337 4232 0
-4226 4233 0
-4227 4234 0
-4233 4234 0
-4227 -4233 0
-4228 4235 0
-4234 4235 0
-4228 -4234 0
-4229 4236 0
-4235 4236 0
-4229 -4235 0
-4230 4237 0
-4236 4237 0
-4230 -4236 0
-4231 4238 0
-4237 4238 0
-4231 -4237 0
-4232 -4238 0
-4240 1 2 3 4 5 0
-1 4240 0
-2 4240 0
-3 4240 0
-4 4240 0
-5 4240 0
-4241 57 58 59 60 61 0
-57 4241 0
-58 4241 0
-59 4241 0
-60 4241 0
-61 4241 0
-4242 113 114 115 116 117 0
-113 4242 0
-114 4242 0
-115 4242 0
-116 4242 0
-117 4242 0
-4243 169 170 171 172 173 0
-169 4243 0
-170 4243 0
-171 4243 0
-172 4243 0
-173 4243 0
-4244 225 226 227 228 229 0
-225 4244 0
-226 4244 0
-227 4244 0
-228 4244 0
-229 4244 0
-4245 281 282 283 284 285 0
-281 4245 0
-282 4245 0
-283 4245 0
-284 4245 0
-285 4245 0
-4246 337 338 339 340 341 0
-337 4246 0
-338 4246 0
-339 4246 0
-340 4246 0
-341 4246 0
-4240 4247 0
-4248 0
-4249 0
-4250 0
-4251 0
-4241 4252 0
-4247 4252 0
-4241 -4247 4253 0
-4248 4253 0
-4241 -4248 4254 0
-4249 4254 0
-4241 -4249 4255 0
-4250 4255 0
-4241 -4250 4256 0
-4251 4256 0
-4241 -4251 0
-4242 4257 0
-4252 4257 0
-4242 -4252 4258 0
-4253 4258 0
-4242 -4253 4259 0
-4254 4259 0
-4242 -4254 4260 0
-4255 4260 0
-4242 -4255 4261 0
-4256 4261 0
-4242 -4256 0
-4243 4262 0
-4257 4262 0
-4243 -4257 4263 0
-4258 4263 0
-4243 -4258 4264 0
-4259 4264 0
-4243 -4259 4265 0
-4260 4265 0
-4243 -4260 4266 0
-4261 4266 0
-4243 -4261 0
-4244 4267 0
-4262 4267 0
-4244 -4262 4268 0
-4263 4268 0
-4244 -4263 4269 0
-4264 4269 0
-4244 -4264 4270 0
-4265 4270 0
-4244 -4265 4271 0
-4266 4271 0
-4244 -4266 0
-4245 4272 0
-4267 4272 0
-4245 -4267 4273 0
-4268 4273 0
-4245 -4268 4274 0
-4269 4274 0
-4245 -4269 4275 0
-4270 4275 0
-4245 -4270 4276 0
-4271 4276 0
-4245 -4271 0
-4246 -4276 0
-4282 2 0
-2 4282 0
-4283 58 0
-58 4283 0
-4284 114 0
-114 4284 0
-4285 170 0
-170 4285 0
-4286 226 0
-226 4286 0
-4287 282 0
-282 4287 0
-4288 338 0
-338 4288 0
-4282 4289 0
-4283 4290 0
-4289 4290 0
-4283 -4289 0
-4284 4291 0
-4290 4291 0
-4284 -4290 0
-4285 4292 0
-4291 4292 0
-4285 -4291 0
-4286 4293 0
-4292 4293 0
-4286 -4292 0
-4287 4294 0
-4293 4294 0
-4287 -4293 0
-4288 -4294 0
-4296 2 3 4 5 6 0
-2 4296 0
-3 4296 0
-4 4296 0
-5 4296 0
-6 4296 0
-4297 58 59 60 61 62 0
-58 4297 0
-59 4297 0
-60 4297 0
-61 4297 0
-62 4297 0
-4298 114 115 116 117 118 0
-114 4298 0
-115 4298 0
-116 4298 0
-117 4298 0
-118 4298 0
-4299 170 171 172 173 174 0
-170 4299 0
-171 4299 0
-172 4299 0
-173 4299 0
-174 4299 0
-4300 226 227 228 229 230 0
-226 4300 0
-227 4300 0
-228 4300 0
-229 4300 0
-230 4300 0
-4301 282 283 284 285 286 0
-282 4301 0
-283 4301 0
-284 4301 0
-285 4301 0
-286 4301 0
-4302 338 339 340 341 342 0
-338 4302 0
-339 4302 0
-340 4302 0
-341 4302 0
-342 4302 0
-4296 4303 0
-4304 0
-4305 0
-4306 0
-4307 0
-4297 4308 0
-4303 4308 0
-4297 -4303 4309 0
-4304 4309 0
-4297 -4304 4310 0
-4305 4310 0
-4297 -4305 4311 0
-4306 4311 0
-4297 -4306 4312 0
-4307 4312 0
-4297 -4307 0
-4298 4313 0
-4308 4313 0
-4298 -4308 4314 0
-4309 4314 0
-4298 -4309 4315 0
-4310 4315 0
-4298 -4310 4316 0
-4311 4316 0
-4298 -4311 4317 0
-4312 4317 0
-4298 -4312 0
-4299 4318 0
-4313 4318 0
-4299 -4313 4319 0
-4314 4319 0
-4299 -4314 4320 0
-4315 4320 0
-4299 -4315 4321 0
-4316 4321 0
-4299 -4316 4322 0
-4317 4322 0
-4299 -4317 0
-4300 4323 0
-4318 4323 0
-4300 -4318 4324 0
-4319 4324 0
-4300 -4319 4325 0
-4320 4325 0
-4300 -4320 4326 0
-4321 4326 0
-4300 -4321 4327 0
-4322 4327 0
-4300 -4322 0
-4301 4328 0
-4323 4328 0
-4301 -4323 4329 0
-4324 4329 0
-4301 -4324 4330 0
-4325 4330 0
-4301 -4325 4331 0
-4326 4331 0
-4301 -4326 4332 0
-4327 4332 0
-4301 -4327 0
-4302 -4332 0
-4338 3 0
-3 4338 0
-4339 59 0
-59 4339 0
-4340 115 0
-115 4340 0
-4341 171 0
-171 4341 0
-4342 227 0
-227 4342 0
-4343 283 0
-283 4343 0
-4344 339 0
-339 4344 0
-4338 4345 0
-4339 4346 0
-4345 4346 0
-4339 -4345 0
-4340 4347 0
-4346 4347 0
-4340 -4346 0
-4341 4348 0
-4347 4348 0
-4341 -4347 0
-4342 4349 0
-4348 4349 0
-4342 -4348 0
-4343 4350 0
-4349 4350 0
-4343 -4349 0
-4344 -4350 0
-4352 3 4 5 6 7 0
-3 4352 0
-4 4352 0
-5 4352 0
-6 4352 0
-7 4352 0
-4353 59 60 61 62 63 0
-59 4353 0
-60 4353 0
-61 4353 0
-62 4353 0
-63 4353 0
-4354 115 116 117 118 119 0
-115 4354 0
-116 4354 0
-117 4354 0
-118 4354 0
-119 4354 0
-4355 171 172 173 174 175 0
-171 4355 0
-172 4355 0
-173 4355 0
-174 4355 0
-175 4355 0
-4356 227 228 229 230 231 0
-227 4356 0
-228 4356 0
-229 4356 0
-230 4356 0
-231 4356 0
-4357 283 284 285 286 287 0
-283 4357 0
-284 4357 0
-285 4357 0
-286 4357 0
-287 4357 0
-4358 339 340 341 342 343 0
-339 4358 0
-340 4358 0
-341 4358 0
-342 4358 0
-343 4358 0
-4352 4359 0
-4360 0
-4361 0
-4362 0
-4363 0
-4353 4364 0
-4359 4364 0
-4353 -4359 4365 0
-4360 4365 0
-4353 -4360 4366 0
-4361 4366 0
-4353 -4361 4367 0
-4362 4367 0
-4353 -4362 4368 0
-4363 4368 0
-4353 -4363 0
-4354 4369 0
-4364 4369 0
-4354 -4364 4370 0
-4365 4370 0
-4354 -4365 4371 0
-4366 4371 0
-4354 -4366 4372 0
-4367 4372 0
-4354 -4367 4373 0
-4368 4373 0
-4354 -4368 0
-4355 4374 0
-4369 4374 0
-4355 -4369 4375 0
-4370 4375 0
-4355 -4370 4376 0
-4371 4376 0
-4355 -4371 4377 0
-4372 4377 0
-4355 -4372 4378 0
-4373 4378 0
-4355 -4373 0
-4356 4379 0
-4374 4379 0
-4356 -4374 4380 0
-4375 4380 0
-4356 -4375 4381 0
-4376 4381 0
-4356 -4376 4382 0
-4377 4382 0
-4356 -4377 4383 0
-4378 4383 0
-4356 -4378 0
-4357 4384 0
-4379 4384 0
-4357 -4379 4385 0
-4380 4385 0
-4357 -4380 4386 0
-4381 4386 0
-4357 -4381 4387 0
-4382 4387 0
-4357 -4382 4388 0
-4383 4388 0
-4357 -4383 0
-4358 -4388 0
-4394 4 0
-4 4394 0
-4395 60 0
-60 4395 0
-4396 116 0
-116 4396 0
-4397 172 0
-172 4397 0
-4398 228 0
-228 4398 0
-4399 284 0
-284 4399 0
-4400 340 0
-340 4400 0
-4394 4401 0
-4395 4402 0
-4401 4402 0
-4395 -4401 0
-4396 4403 0
-4402 4403 0
-4396 -4402 0
-4397 4404 0
-4403 4404 0
-4397 -4403 0
-4398 4405 0
-4404 4405 0
-4398 -4404 0
-4399 4406 0
-4405 4406 0
-4399 -4405 0
-4400 -4406 0
-4408 5 0
-5 4408 0
-4409 61 0
-61 4409 0
-4410 117 0
-117 4410 0
-4411 173 0
-173 4411 0
-4412 229 0
-229 4412 0
-4413 285 0
-285 4413 0
-4414 341 0
-341 4414 0
-4408 4415 0
-4409 4416 0
-4415 4416 0
-4409 -4415 0
-4410 4417 0
-4416 4417 0
-4410 -4416 0
-4411 4418 0
-4417 4418 0
-4411 -4417 0
-4412 4419 0
-4418 4419 0
-4412 -4418 0
-4413 4420 0
-4419 4420 0
-4413 -4419 0
-4414 -4420 0
-4422 6 0
-6 4422 0
-4423 62 0
-62 4423 0
-4424 118 0
-118 4424 0
-4425 174 0
-174 4425 0
-4426 230 0
-230 4426 0
-4427 286 0
-286 4427 0
-4428 342 0
-342 4428 0
-4422 4429 0
-4423 4430 0
-4429 4430 0
-4423 -4429 0
-4424 4431 0
-4430 4431 0
-4424 -4430 0
-4425 4432 0
-4431 4432 0
-4425 -4431 0
-4426 4433 0
-4432 4433 0
-4426 -4432 0
-4427 4434 0
-4433 4434 0
-4427 -4433 0
-4428 -4434 0
-4436 7 0
-7 4436 0
-4437 63 0
-63 4437 0
-4438 119 0
-119 4438 0
-4439 175 0
-175 4439 0
-4440 231 0
-231 4440 0
-4441 287 0
-287 4441 0
-4442 343 0
-343 4442 0
-4436 4443 0
-4437 4444 0
-4443 4444 0
-4437 -4443 0
-4438 4445 0
-4444 4445 0
-4438 -4444 0
-4439 4446 0
-4445 4446 0
-4439 -4445 0
-4440 4447 0
-4446 4447 0
-4440 -4446 0
-4441 4448 0
-4447 4448 0
-4441 -4447 0
-4442 -4448 0
-4450 50 0
-50 4450 0
-4451 106 0
-106 4451 0
-4452 162 0
-162 4452 0
-4453 218 0
-218 4453 0
-4454 274 0
-274 4454 0
-4455 330 0
-330 4455 0
-4450 4456 0
-4451 4457 0
-4456 4457 0
-4451 -4456 0
-4452 4458 0
-4457 4458 0
-4452 -4457 0
-4453 4459 0
-4458 4459 0
-4453 -4458 0
-4454 4460 0
-4459 4460 0
-4454 -4459 0
-4455 -4460 0
-4462 50 51 52 53 54 0
-50 4462 0
-51 4462 0
-52 4462 0
-53 4462 0
-54 4462 0
-4463 106 107 108 109 110 0
-106 4463 0
-107 4463 0
-108 4463 0
-109 4463 0
-110 4463 0
-4464 162 163 164 165 166 0
-162 4464 0
-163 4464 0
-164 4464 0
-165 4464 0
-166 4464 0
-4465 218 219 220 221 222 0
-218 4465 0
-219 4465 0
-220 4465 0
-221 4465 0
-222 4465 0
-4466 274 275 276 277 278 0
-274 4466 0
-275 4466 0
-276 4466 0
-277 4466 0
-278 4466 0
-4467 330 331 332 333 334 0
-330 4467 0
-331 4467 0
-332 4467 0
-333 4467 0
-334 4467 0
-4462 4468 0
-4469 0
-4470 0
-4471 0
-4472 0
-4463 4473 0
-4468 4473 0
-4463 -4468 4474 0
-4469 4474 0
-4463 -4469 4475 0
-4470 4475 0
-4463 -4470 4476 0
-4471 4476 0
-4463 -4471 4477 0
-4472 4477 0
-4463 -4472 0
-4464 4478 0
-4473 4478 0
-4464 -4473 4479 0
-4474 4479 0
-4464 -4474 4480 0
-4475 4480 0
-4464 -4475 4481 0
-4476 4481 0
-4464 -4476 4482 0
-4477 4482 0
-4464 -4477 0
-4465 4483 0
-4478 4483 0
-4465 -4478 4484 0
-4479 4484 0
-4465 -4479 4485 0
-4480 4485 0
-4465 -4480 4486 0
-4481 4486 0
-4465 -4481 4487 0
-4482 4487 0
-4465 -4482 0
-4466 4488 0
-4483 4488 0
-4466 -4483 4489 0
-4484 4489 0
-4466 -4484 4490 0
-4485 4490 0
-4466 -4485 4491 0
-4486 4491 0
-4466 -4486 4492 0
-4487 4492 0
-4466 -4487 0
-4467 -4492 0
-4498 51 0
-51 4498 0
-4499 107 0
-107 4499 0
-4500 163 0
-163 4500 0
-4501 219 0
-219 4501 0
-4502 275 0
-275 4502 0
-4503 331 0
-331 4503 0
-4498 4504 0
-4499 4505 0
-4504 4505 0
-4499 -4504 0
-4500 4506 0
-4505 4506 0
-4500 -4505 0
-4501 4507 0
-4506 4507 0
-4501 -4506 0
-4502 4508 0
-4507 4508 0
-4502 -4507 0
-4503 -4508 0
-4510 51 52 53 54 55 0
-51 4510 0
-52 4510 0
-53 4510 0
-54 4510 0
-55 4510 0
-4511 107 108 109 110 111 0
-107 4511 0
-108 4511 0
-109 4511 0
-110 4511 0
-111 4511 0
-4512 163 164 165 166 167 0
-163 4512 0
-164 4512 0
-165 4512 0
-166 4512 0
-167 4512 0
-4513 219 220 221 222 223 0
-219 4513 0
-220 4513 0
-221 4513 0
-222 4513 0
-223 4513 0
-4514 275 276 277 278 279 0
-275 4514 0
-276 4514 0
-277 4514 0
-278 4514 0
-279 4514 0
-4515 331 332 333 334 335 0
-331 4515 0
-332 4515 0
-333 4515 0
-334 4515 0
-335 4515 0
-4510 4516 0
-4517 0
-4518 0
-4519 0
-4520 0
-4511 4521 0
-4516 4521 0
-4511 -4516 4522 0
-4517 4522 0
-4511 -4517 4523 0
-4518 4523 0
-4511 -4518 4524 0
-4519 4524 0
-4511 -4519 4525 0
-4520 4525 0
-4511 -4520 0
-4512 4526 0
-4521 4526 0
-4512 -4521 4527 0
-4522 4527 0
-4512 -4522 4528 0
-4523 4528 0
-4512 -4523 4529 0
-4524 4529 0
-4512 -4524 4530 0
-4525 4530 0
-4512 -4525 0
-4513 4531 0
-4526 4531 0
-4513 -4526 4532 0
-4527 4532 0
-4513 -4527 4533 0
-4528 4533 0
-4513 -4528 4534 0
-4529 4534 0
-4513 -4529 4535 0
-4530 4535 0
-4513 -4530 0
-4514 4536 0
-4531 4536 0
-4514 -4531 4537 0
-4532 4537 0
-4514 -4532 4538 0
-4533 4538 0
-4514 -4533 4539 0
-4534 4539 0
-4514 -4534 4540 0
-4535 4540 0
-4514 -4535 0
-4515 -4540 0
-4546 52 0
-52 4546 0
-4547 108 0
-108 4547 0
-4548 164 0
-164 4548 0
-4549 220 0
-220 4549 0
-4550 276 0
-276 4550 0
-4551 332 0
-332 4551 0
-4546 4552 0
-4547 4553 0
-4552 4553 0
-4547 -4552 0
-4548 4554 0
-4553 4554 0
-4548 -4553 0
-4549 4555 0
-4554 4555 0
-4549 -4554 0
-4550 4556 0
-4555 4556 0
-4550 -4555 0
-4551 -4556 0
-4558 52 53 54 55 56 0
-52 4558 0
-53 4558 0
-54 4558 0
-55 4558 0
-56 4558 0
-4559 108 109 110 111 112 0
-108 4559 0
-109 4559 0
-110 4559 0
-111 4559 0
-112 4559 0
-4560 164 165 166 167 168 0
-164 4560 0
-165 4560 0
-166 4560 0
-167 4560 0
-168 4560 0
-4561 220 221 222 223 224 0
-220 4561 0
-221 4561 0
-222 4561 0
-223 4561 0
-224 4561 0
-4562 276 277 278 279 280 0
-276 4562 0
-277 4562 0
-278 4562 0
-279 4562 0
-280 4562 0
-4563 332 333 334 335 336 0
-332 4563 0
-333 4563 0
-334 4563 0
-335 4563 0
-336 4563 0
-4558 4564 0
-4565 0
-4566 0
-4567 0
-4568 0
-4559 4569 0
-4564 4569 0
-4559 -4564 4570 0
-4565 4570 0
-4559 -4565 4571 0
-4566 4571 0
-4559 -4566 4572 0
-4567 4572 0
-4559 -4567 4573 0
-4568 4573 0
-4559 -4568 0
-4560 4574 0
-4569 4574 0
-4560 -4569 4575 0
-4570 4575 0
-4560 -4570 4576 0
-4571 4576 0
-4560 -4571 4577 0
-4572 4577 0
-4560 -4572 4578 0
-4573 4578 0
-4560 -4573 0
-4561 4579 0
-4574 4579 0
-4561 -4574 4580 0
-4575 4580 0
-4561 -4575 4581 0
-4576 4581 0
-4561 -4576 4582 0
-4577 4582 0
-4561 -4577 4583 0
-4578 4583 0
-4561 -4578 0
-4562 4584 0
-4579 4584 0
-4562 -4579 4585 0
-4580 4585 0
-4562 -4580 4586 0
-4581 4586 0
-4562 -4581 4587 0
-4582 4587 0
-4562 -4582 4588 0
-4583 4588 0
-4562 -4583 0
-4563 -4588 0
-4594 53 0
-53 4594 0
-4595 109 0
-109 4595 0
-4596 165 0
-165 4596 0
-4597 221 0
-221 4597 0
-4598 277 0
-277 4598 0
-4599 333 0
-333 4599 0
-4594 4600 0
-4595 4601 0
-4600 4601 0
-4595 -4600 0
-4596 4602 0
-4601 4602 0
-4596 -4601 0
-4597 4603 0
-4602 4603 0
-4597 -4602 0
-4598 4604 0
-4603 4604 0
-4598 -4603 0
-4599 -4604 0
-4606 54 0
-54 4606 0
-4607 110 0
-110 4607 0
-4608 166 0
-166 4608 0
-4609 222 0
-222 4609 0
-4610 278 0
-278 4610 0
-4611 334 0
-334 4611 0
-4606 4612 0
-4607 4613 0
-4612 4613 0
-4607 -4612 0
-4608 4614 0
-4613 4614 0
-4608 -4613 0
-4609 4615 0
-4614 4615 0
-4609 -4614 0
-4610 4616 0
-4615 4616 0
-4610 -4615 0
-4611 -4616 0
-4618 55 0
-55 4618 0
-4619 111 0
-111 4619 0
-4620 167 0
-167 4620 0
-4621 223 0
-223 4621 0
-4622 279 0
-279 4622 0
-4623 335 0
-335 4623 0
-4618 4624 0
-4619 4625 0
-4624 4625 0
-4619 -4624 0
-4620 4626 0
-4625 4626 0
-4620 -4625 0
-4621 4627 0
-4626 4627 0
-4621 -4626 0
-4622 4628 0
-4627 4628 0
-4622 -4627 0
-4623 -4628 0
-4630 56 0
-56 4630 0
-4631 112 0
-112 4631 0
-4632 168 0
-168 4632 0
-4633 224 0
-224 4633 0
-4634 280 0
-280 4634 0
-4635 336 0
-336 4635 0
-4630 4636 0
-4631 4637 0
-4636 4637 0
-4631 -4636 0
-4632 4638 0
-4637 4638 0
-4632 -4637 0
-4633 4639 0
-4638 4639 0
-4633 -4638 0
-4634 4640 0
-4639 4640 0
-4634 -4639 0
-4635 -4640 0
-4642 99 0
-99 4642 0
-4643 155 0
-155 4643 0
-4644 211 0
-211 4644 0
-4645 267 0
-267 4645 0
-4646 323 0
-323 4646 0
-4642 4647 0
-4643 4648 0
-4647 4648 0
-4643 -4647 0
-4644 4649 0
-4648 4649 0
-4644 -4648 0
-4645 4650 0
-4649 4650 0
-4645 -4649 0
-4646 -4650 0
-4652 99 100 101 102 103 0
-99 4652 0
-100 4652 0
-101 4652 0
-102 4652 0
-103 4652 0
-4653 155 156 157 158 159 0
-155 4653 0
-156 4653 0
-157 4653 0
-158 4653 0
-159 4653 0
-4654 211 212 213 214 215 0
-211 4654 0
-212 4654 0
-213 4654 0
-214 4654 0
-215 4654 0
-4655 267 268 269 270 271 0
-267 4655 0
-268 4655 0
-269 4655 0
-270 4655 0
-271 4655 0
-4656 323 324 325 326 327 0
-323 4656 0
-324 4656 0
-325 4656 0
-326 4656 0
-327 4656 0
-4657 100 0
-100 4657 0
-4658 156 0
-156 4658 0
-4659 212 0
-212 4659 0
-4660 268 0
-268 4660 0
-4661 324 0
-324 4661 0
-4657 4662 0
-4658 4663 0
-4662 4663 0
-4658 -4662 0
-4659 4664 0
-4663 4664 0
-4659 -4663 0
-4660 4665 0
-4664 4665 0
-4660 -4664 0
-4661 -4665 0
-4667 100 101 102 103 104 0
-100 4667 0
-101 4667 0
-102 4667 0
-103 4667 0
-104 4667 0
-4668 156 157 158 159 160 0
-156 4668 0
-157 4668 0
-158 4668 0
-159 4668 0
-160 4668 0
-4669 212 213 214 215 216 0
-212 4669 0
-213 4669 0
-214 4669 0
-215 4669 0
-216 4669 0
-4670 268 269 270 271 272 0
-268 4670 0
-269 4670 0
-270 4670 0
-271 4670 0
-272 4670 0
-4671 324 325 326 327 328 0
-324 4671 0
-325 4671 0
-326 4671 0
-327 4671 0
-328 4671 0
-4672 101 0
-101 4672 0
-4673 157 0
-157 4673 0
-4674 213 0
-213 4674 0
-4675 269 0
-269 4675 0
-4676 325 0
-325 4676 0
-4672 4677 0
-4673 4678 0
-4677 4678 0
-4673 -4677 0
-4674 4679 0
-4678 4679 0
-4674 -4678 0
-4675 4680 0
-4679 4680 0
-4675 -4679 0
-4676 -4680 0
-4682 101 102 103 104 105 0
-101 4682 0
-102 4682 0
-103 4682 0
-104 4682 0
-105 4682 0
-4683 157 158 159 160 161 0
-157 4683 0
-158 4683 0
-159 4683 0
-160 4683 0
-161 4683 0
-4684 213 214 215 216 217 0
-213 4684 0
-214 4684 0
-215 4684 0
-216 4684 0
-217 4684 0
-4685 269 270 271 272 273 0
-269 4685 0
-270 4685 0
-271 4685 0
-272 4685 0
-273 4685 0
-4686 325 326 327 328 329 0
-325 4686 0
-326 4686 0
-327 4686 0
-328 4686 0
-329 4686 0
-4687 102 0
-102 4687 0
-4688 158 0
-158 4688 0
-4689 214 0
-214 4689 0
-4690 270 0
-270 4690 0
-4691 326 0
-326 4691 0
-4687 4692 0
-4688 4693 0
-4692 4693 0
-4688 -4692 0
-4689 4694 0
-4693 4694 0
-4689 -4693 0
-4690 4695 0
-4694 4695 0
-4690 -4694 0
-4691 -4695 0
-4697 103 0
-103 4697 0
-4698 159 0
-159 4698 0
-4699 215 0
-215 4699 0
-4700 271 0
-271 4700 0
-4701 327 0
-327 4701 0
-4697 4702 0
-4698 4703 0
-4702 4703 0
-4698 -4702 0
-4699 4704 0
-4703 4704 0
-4699 -4703 0
-4700 4705 0
-4704 4705 0
-4700 -4704 0
-4701 -4705 0
-4707 104 0
-104 4707 0
-4708 160 0
-160 4708 0
-4709 216 0
-216 4709 0
-4710 272 0
-272 4710 0
-4711 328 0
-328 4711 0
-4707 4712 0
-4708 4713 0
-4712 4713 0
-4708 -4712 0
-4709 4714 0
-4713 4714 0
-4709 -4713 0
-4710 4715 0
-4714 4715 0
-4710 -4714 0
-4711 -4715 0
-4717 105 0
-105 4717 0
-4718 161 0
-161 4718 0
-4719 217 0
-217 4719 0
-4720 273 0
-273 4720 0
-4721 329 0
-329 4721 0
-4717 4722 0
-4718 4723 0
-4722 4723 0
-4718 -4722 0
-4719 4724 0
-4723 4724 0
-4719 -4723 0
-4720 4725 0
-4724 4725 0
-4720 -4724 0
-4721 -4725 0
-4727 148 0
-148 4727 0
-4728 204 0
-204 4728 0
-4729 260 0
-260 4729 0
-4730 316 0
-316 4730 0
-4727 4731 0
-4728 4732 0
-4731 4732 0
-4728 -4731 0
-4729 4733 0
-4732 4733 0
-4729 -4732 0
-4730 -4733 0
-4735 149 0
-149 4735 0
-4736 205 0
-205 4736 0
-4737 261 0
-261 4737 0
-4738 317 0
-317 4738 0
-4735 4739 0
-4736 4740 0
-4739 4740 0
-4736 -4739 0
-4737 4741 0
-4740 4741 0
-4737 -4740 0
-4738 -4741 0
-4743 150 0
-150 4743 0
-4744 206 0
-206 4744 0
-4745 262 0
-262 4745 0
-4746 318 0
-318 4746 0
-4743 4747 0
-4744 4748 0
-4747 4748 0
-4744 -4747 0
-4745 4749 0
-4748 4749 0
-4745 -4748 0
-4746 -4749 0
-4751 151 0
-151 4751 0
-4752 207 0
-207 4752 0
-4753 263 0
-263 4753 0
-4754 319 0
-319 4754 0
-4751 4755 0
-4752 4756 0
-4755 4756 0
-4752 -4755 0
-4753 4757 0
-4756 4757 0
-4753 -4756 0
-4754 -4757 0
-4759 152 0
-152 4759 0
-4760 208 0
-208 4760 0
-4761 264 0
-264 4761 0
-4762 320 0
-320 4762 0
-4759 4763 0
-4760 4764 0
-4763 4764 0
-4760 -4763 0
-4761 4765 0
-4764 4765 0
-4761 -4764 0
-4762 -4765 0
-4767 153 0
-153 4767 0
-4768 209 0
-209 4768 0
-4769 265 0
-265 4769 0
-4770 321 0
-321 4770 0
-4767 4771 0
-4768 4772 0
-4771 4772 0
-4768 -4771 0
-4769 4773 0
-4772 4773 0
-4769 -4772 0
-4770 -4773 0
-4775 154 0
-154 4775 0
-4776 210 0
-210 4776 0
-4777 266 0
-266 4777 0
-4778 322 0
-322 4778 0
-4775 4779 0
-4776 4780 0
-4779 4780 0
-4776 -4779 0
-4777 4781 0
-4780 4781 0
-4777 -4780 0
-4778 -4781 0
-4783 197 0
-197 4783 0
-4784 253 0
-253 4784 0
-4785 309 0
-309 4785 0
-4783 4786 0
-4784 4787 0
-4786 4787 0
-4784 -4786 0
-4785 -4787 0
-4789 198 0
-198 4789 0
-4790 254 0
-254 4790 0
-4791 310 0
-310 4791 0
-4789 4792 0
-4790 4793 0
-4792 4793 0
-4790 -4792 0
-4791 -4793 0
-4795 199 0
-199 4795 0
-4796 255 0
-255 4796 0
-4797 311 0
-311 4797 0
-4795 4798 0
-4796 4799 0
-4798 4799 0
-4796 -4798 0
-4797 -4799 0
-4801 200 0
-200 4801 0
-4802 256 0
-256 4802 0
-4803 312 0
-312 4803 0
-4801 4804 0
-4802 4805 0
-4804 4805 0
-4802 -4804 0
-4803 -4805 0
-4807 201 0
-201 4807 0
-4808 257 0
-257 4808 0
-4809 313 0
-313 4809 0
-4807 4810 0
-4808 4811 0
-4810 4811 0
-4808 -4810 0
-4809 -4811 0
-4813 202 0
-202 4813 0
-4814 258 0
-258 4814 0
-4815 314 0
-314 4815 0
-4813 4816 0
-4814 4817 0
-4816 4817 0
-4814 -4816 0
-4815 -4817 0
-4819 203 0
-203 4819 0
-4820 259 0
-259 4820 0
-4821 315 0
-315 4821 0
-4819 4822 0
-4820 4823 0
-4822 4823 0
-4820 -4822 0
-4821 -4823 0
-4825 246 0
-246 4825 0
-4826 302 0
-302 4826 0
-4825 4827 0
-4826 -4827 0
-4829 247 0
-247 4829 0
-4830 303 0
-303 4830 0
-4829 4831 0
-4830 -4831 0
-4833 248 0
-248 4833 0
-4834 304 0
-304 4834 0
-4833 4835 0
-4834 -4835 0
-4837 249 0
-249 4837 0
-4838 305 0
-305 4838 0
-4837 4839 0
-4838 -4839 0
-4841 250 0
-250 4841 0
-4842 306 0
-306 4842 0
-4841 4843 0
-4842 -4843 0
-4845 251 0
-251 4845 0
-4846 307 0
-307 4846 0
-4845 4847 0
-4846 -4847 0
-4849 252 0
-252 4849 0
-4850 308 0
-308 4850 0
-4849 4851 0
-4850 -4851 0
-4853 8 0
-8 4853 0
-4854 50 0
-50 4854 0
-4853 4855 0
-4854 -4855 0
-4857 9 0
-9 4857 0
-4858 51 0
-51 4858 0
-4857 4859 0
-4858 -4859 0
-4861 10 0
-10 4861 0
-4862 52 0
-52 4862 0
-4861 4863 0
-4862 -4863 0
-4865 11 0
-11 4865 0
-4866 53 0
-53 4866 0
-4865 4867 0
-4866 -4867 0
-4869 12 0
-12 4869 0
-4870 54 0
-54 4870 0
-4869 4871 0
-4870 -4871 0
-4873 13 0
-13 4873 0
-4874 55 0
-55 4874 0
-4873 4875 0
-4874 -4875 0
-4877 14 0
-14 4877 0
-4878 56 0
-56 4878 0
-4877 4879 0
-4878 -4879 0
-4881 15 0
-15 4881 0
-4882 57 0
-57 4882 0
-4883 99 0
-99 4883 0
-4881 4884 0
-4882 4885 0
-4884 4885 0
-4882 -4884 0
-4883 -4885 0
-4887 16 0
-16 4887 0
-4888 58 0
-58 4888 0
-4889 100 0
-100 4889 0
-4887 4890 0
-4888 4891 0
-4890 4891 0
-4888 -4890 0
-4889 -4891 0
-4893 17 0
-17 4893 0
-4894 59 0
-59 4894 0
-4895 101 0
-101 4895 0
-4893 4896 0
-4894 4897 0
-4896 4897 0
-4894 -4896 0
-4895 -4897 0
-4899 18 0
-18 4899 0
-4900 60 0
-60 4900 0
-4901 102 0
-102 4901 0
-4899 4902 0
-4900 4903 0
-4902 4903 0
-4900 -4902 0
-4901 -4903 0
-4905 19 0
-19 4905 0
-4906 61 0
-61 4906 0
-4907 103 0
-103 4907 0
-4905 4908 0
-4906 4909 0
-4908 4909 0
-4906 -4908 0
-4907 -4909 0
-4911 20 0
-20 4911 0
-4912 62 0
-62 4912 0
-4913 104 0
-104 4913 0
-4911 4914 0
-4912 4915 0
-4914 4915 0
-4912 -4914 0
-4913 -4915 0
-4917 21 0
-21 4917 0
-4918 63 0
-63 4918 0
-4919 105 0
-105 4919 0
-4917 4920 0
-4918 4921 0
-4920 4921 0
-4918 -4920 0
-4919 -4921 0
-4923 22 0
-22 4923 0
-4924 64 0
-64 4924 0
-4925 106 0
-106 4925 0
-4926 148 0
-148 4926 0
-4923 4927 0
-4924 4928 0
-4927 4928 0
-4924 -4927 0
-4925 4929 0
-4928 4929 0
-4925 -4928 0
-4926 -4929 0
-4931 23 0
-23 4931 0
-4932 65 0
-65 4932 0
-4933 107 0
-107 4933 0
-4934 149 0
-149 4934 0
-4931 4935 0
-4932 4936 0
-4935 4936 0
-4932 -4935 0
-4933 4937 0
-4936 4937 0
-4933 -4936 0
-4934 -4937 0
-4939 24 0
-24 4939 0
-4940 66 0
-66 4940 0
-4941 108 0
-108 4941 0
-4942 150 0
-150 4942 0
-4939 4943 0
-4940 4944 0
-4943 4944 0
-4940 -4943 0
-4941 4945 0
-4944 4945 0
-4941 -4944 0
-4942 -4945 0
-4947 25 0
-25 4947 0
-4948 67 0
-67 4948 0
-4949 109 0
-109 4949 0
-4950 151 0
-151 4950 0
-4947 4951 0
-4948 4952 0
-4951 4952 0
-4948 -4951 0
-4949 4953 0
-4952 4953 0
-4949 -4952 0
-4950 -4953 0
-4955 26 0
-26 4955 0
-4956 68 0
-68 4956 0
-4957 110 0
-110 4957 0
-4958 152 0
-152 4958 0
-4955 4959 0
-4956 4960 0
-4959 4960 0
-4956 -4959 0
-4957 4961 0
-4960 4961 0
-4957 -4960 0
-4958 -4961 0
-4963 27 0
-27 4963 0
-4964 69 0
-69 4964 0
-4965 111 0
-111 4965 0
-4966 153 0
-153 4966 0
-4963 4967 0
-4964 4968 0
-4967 4968 0
-4964 -4967 0
-4965 4969 0
-4968 4969 0
-4965 -4968 0
-4966 -4969 0
-4971 28 0
-28 4971 0
-4972 70 0
-70 4972 0
-4973 112 0
-112 4973 0
-4974 154 0
-154 4974 0
-4971 4975 0
-4972 4976 0
-4975 4976 0
-4972 -4975 0
-4973 4977 0
-4976 4977 0
-4973 -4976 0
-4974 -4977 0
-4979 29 0
-29 4979 0
-4980 71 0
-71 4980 0
-4981 113 0
-113 4981 0
-4982 155 0
-155 4982 0
-4983 197 0
-197 4983 0
-4979 4984 0
-4980 4985 0
-4984 4985 0
-4980 -4984 0
-4981 4986 0
-4985 4986 0
-4981 -4985 0
-4982 4987 0
-4986 4987 0
-4982 -4986 0
-4983 -4987 0
-4989 29 30 31 32 33 0
-29 4989 0
-30 4989 0
-31 4989 0
-32 4989 0
-33 4989 0
-4990 71 72 73 74 75 0
-71 4990 0
-72 4990 0
-73 4990 0
-74 4990 0
-75 4990 0
-4991 113 114 115 116 117 0
-113 4991 0
-114 4991 0
-115 4991 0
-116 4991 0
-117 4991 0
-4992 155 156 157 158 159 0
-155 4992 0
-156 4992 0
-157 4992 0
-158 4992 0
-159 4992 0
-4993 197 198 199 200 201 0
-197 4993 0
-198 4993 0
-199 4993 0
-200 4993 0
-201 4993 0
-4994 30 0
-30 4994 0
-4995 72 0
-72 4995 0
-4996 114 0
-114 4996 0
-4997 156 0
-156 4997 0
-4998 198 0
-198 4998 0
-4994 4999 0
-4995 5000 0
-4999 5000 0
-4995 -4999 0
-4996 5001 0
-5000 5001 0
-4996 -5000 0
-4997 5002 0
-5001 5002 0
-4997 -5001 0
-4998 -5002 0
-5004 30 31 32 33 34 0
-30 5004 0
-31 5004 0
-32 5004 0
-33 5004 0
-34 5004 0
-5005 72 73 74 75 76 0
-72 5005 0
-73 5005 0
-74 5005 0
-75 5005 0
-76 5005 0
-5006 114 115 116 117 118 0
-114 5006 0
-115 5006 0
-116 5006 0
-117 5006 0
-118 5006 0
-5007 156 157 158 159 160 0
-156 5007 0
-157 5007 0
-158 5007 0
-159 5007 0
-160 5007 0
-5008 198 199 200 201 202 0
-198 5008 0
-199 5008 0
-200 5008 0
-201 5008 0
-202 5008 0
-5009 31 0
-31 5009 0
-5010 73 0
-73 5010 0
-5011 115 0
-115 5011 0
-5012 157 0
-157 5012 0
-5013 199 0
-199 5013 0
-5009 5014 0
-5010 5015 0
-5014 5015 0
-5010 -5014 0
-5011 5016 0
-5015 5016 0
-5011 -5015 0
-5012 5017 0
-5016 5017 0
-5012 -5016 0
-5013 -5017 0
-5019 31 32 33 34 35 0
-31 5019 0
-32 5019 0
-33 5019 0
-34 5019 0
-35 5019 0
-5020 73 74 75 76 77 0
-73 5020 0
-74 5020 0
-75 5020 0
-76 5020 0
-77 5020 0
-5021 115 116 117 118 119 0
-115 5021 0
-116 5021 0
-117 5021 0
-118 5021 0
-119 5021 0
-5022 157 158 159 160 161 0
-157 5022 0
-158 5022 0
-159 5022 0
-160 5022 0
-161 5022 0
-5023 199 200 201 202 203 0
-199 5023 0
-200 5023 0
-201 5023 0
-202 5023 0
-203 5023 0
-5024 32 0
-32 5024 0
-5025 74 0
-74 5025 0
-5026 116 0
-116 5026 0
-5027 158 0
-158 5027 0
-5028 200 0
-200 5028 0
-5024 5029 0
-5025 5030 0
-5029 5030 0
-5025 -5029 0
-5026 5031 0
-5030 5031 0
-5026 -5030 0
-5027 5032 0
-5031 5032 0
-5027 -5031 0
-5028 -5032 0
-5034 33 0
-33 5034 0
-5035 75 0
-75 5035 0
-5036 117 0
-117 5036 0
-5037 159 0
-159 5037 0
-5038 201 0
-201 5038 0
-5034 5039 0
-5035 5040 0
-5039 5040 0
-5035 -5039 0
-5036 5041 0
-5040 5041 0
-5036 -5040 0
-5037 5042 0
-5041 5042 0
-5037 -5041 0
-5038 -5042 0
-5044 34 0
-34 5044 0
-5045 76 0
-76 5045 0
-5046 118 0
-118 5046 0
-5047 160 0
-160 5047 0
-5048 202 0
-202 5048 0
-5044 5049 0
-5045 5050 0
-5049 5050 0
-5045 -5049 0
-5046 5051 0
-5050 5051 0
-5046 -5050 0
-5047 5052 0
-5051 5052 0
-5047 -5051 0
-5048 -5052 0
-5054 35 0
-35 5054 0
-5055 77 0
-77 5055 0
-5056 119 0
-119 5056 0
-5057 161 0
-161 5057 0
-5058 203 0
-203 5058 0
-5054 5059 0
-5055 5060 0
-5059 5060 0
-5055 -5059 0
-5056 5061 0
-5060 5061 0
-5056 -5060 0
-5057 5062 0
-5061 5062 0
-5057 -5061 0
-5058 -5062 0
-5064 36 0
-36 5064 0
-5065 78 0
-78 5065 0
-5066 120 0
-120 5066 0
-5067 162 0
-162 5067 0
-5068 204 0
-204 5068 0
-5069 246 0
-246 5069 0
-5064 5070 0
-5065 5071 0
-5070 5071 0
-5065 -5070 0
-5066 5072 0
-5071 5072 0
-5066 -5071 0
-5067 5073 0
-5072 5073 0
-5067 -5072 0
-5068 5074 0
-5073 5074 0
-5068 -5073 0
-5069 -5074 0
-5076 36 37 38 39 40 0
-36 5076 0
-37 5076 0
-38 5076 0
-39 5076 0
-40 5076 0
-5077 78 79 80 81 82 0
-78 5077 0
-79 5077 0
-80 5077 0
-81 5077 0
-82 5077 0
-5078 120 121 122 123 124 0
-120 5078 0
-121 5078 0
-122 5078 0
-123 5078 0
-124 5078 0
-5079 162 163 164 165 166 0
-162 5079 0
-163 5079 0
-164 5079 0
-165 5079 0
-166 5079 0
-5080 204 205 206 207 208 0
-204 5080 0
-205 5080 0
-206 5080 0
-207 5080 0
-208 5080 0
-5081 246 247 248 249 250 0
-246 5081 0
-247 5081 0
-248 5081 0
-249 5081 0
-250 5081 0
-5076 5082 0
-5083 0
-5084 0
-5085 0
-5086 0
-5077 5087 0
-5082 5087 0
-5077 -5082 5088 0
-5083 5088 0
-5077 -5083 5089 0
-5084 5089 0
-5077 -5084 5090 0
-5085 5090 0
-5077 -5085 5091 0
-5086 5091 0
-5077 -5086 0
-5078 5092 0
-5087 5092 0
-5078 -5087 5093 0
-5088 5093 0
-5078 -5088 5094 0
-5089 5094 0
-5078 -5089 5095 0
-5090 5095 0
-5078 -5090 5096 0
-5091 5096 0
-5078 -5091 0
-5079 5097 0
-5092 5097 0
-5079 -5092 5098 0
-5093 5098 0
-5079 -5093 5099 0
-5094 5099 0
-5079 -5094 5100 0
-5095 5100 0
-5079 -5095 5101 0
-5096 5101 0
-5079 -5096 0
-5080 5102 0
-5097 5102 0
-5080 -5097 5103 0
-5098 5103 0
-5080 -5098 5104 0
-5099 5104 0
-5080 -5099 5105 0
-5100 5105 0
-5080 -5100 5106 0
-5101 5106 0
-5080 -5101 0
-5081 -5106 0
-5112 37 0
-37 5112 0
-5113 79 0
-79 5113 0
-5114 121 0
-121 5114 0
-5115 163 0
-163 5115 0
-5116 205 0
-205 5116 0
-5117 247 0
-247 5117 0
-5112 5118 0
-5113 5119 0
-5118 5119 0
-5113 -5118 0
-5114 5120 0
-5119 5120 0
-5114 -5119 0
-5115 5121 0
-5120 5121 0
-5115 -5120 0
-5116 5122 0
-5121 5122 0
-5116 -5121 0
-5117 -5122 0
-5124 37 38 39 40 41 0
-37 5124 0
-38 5124 0
-39 5124 0
-40 5124 0
-41 5124 0
-5125 79 80 81 82 83 0
-79 5125 0
-80 5125 0
-81 5125 0
-82 5125 0
-83 5125 0
-5126 121 122 123 124 125 0
-121 5126 0
-122 5126 0
-123 5126 0
-124 5126 0
-125 5126 0
-5127 163 164 165 166 167 0
-163 5127 0
-164 5127 0
-165 5127 0
-166 5127 0
-167 5127 0
-5128 205 206 207 208 209 0
-205 5128 0
-206 5128 0
-207 5128 0
-208 5128 0
-209 5128 0
-5129 247 248 249 250 251 0
-247 5129 0
-248 5129 0
-249 5129 0
-250 5129 0
-251 5129 0
-5124 5130 0
-5131 0
-5132 0
-5133 0
-5134 0
-5125 5135 0
-5130 5135 0
-5125 -5130 5136 0
-5131 5136 0
-5125 -5131 5137 0
-5132 5137 0
-5125 -5132 5138 0
-5133 5138 0
-5125 -5133 5139 0
-5134 5139 0
-5125 -5134 0
-5126 5140 0
-5135 5140 0
-5126 -5135 5141 0
-5136 5141 0
-5126 -5136 5142 0
-5137 5142 0
-5126 -5137 5143 0
-5138 5143 0
-5126 -5138 5144 0
-5139 5144 0
-5126 -5139 0
-5127 5145 0
-5140 5145 0
-5127 -5140 5146 0
-5141 5146 0
-5127 -5141 5147 0
-5142 5147 0
-5127 -5142 5148 0
-5143 5148 0
-5127 -5143 5149 0
-5144 5149 0
-5127 -5144 0
-5128 5150 0
-5145 5150 0
-5128 -5145 5151 0
-5146 5151 0
-5128 -5146 5152 0
-5147 5152 0
-5128 -5147 5153 0
-5148 5153 0
-5128 -5148 5154 0
-5149 5154 0
-5128 -5149 0
-5129 -5154 0
-5160 38 0
-38 5160 0
-5161 80 0
-80 5161 0
-5162 122 0
-122 5162 0
-5163 164 0
-164 5163 0
-5164 206 0
-206 5164 0
-5165 248 0
-248 5165 0
-5160 5166 0
-5161 5167 0
-5166 5167 0
-5161 -5166 0
-5162 5168 0
-5167 5168 0
-5162 -5167 0
-5163 5169 0
-5168 5169 0
-5163 -5168 0
-5164 5170 0
-5169 5170 0
-5164 -5169 0
-5165 -5170 0
-5172 38 39 40 41 42 0
-38 5172 0
-39 5172 0
-40 5172 0
-41 5172 0
-42 5172 0
-5173 80 81 82 83 84 0
-80 5173 0
-81 5173 0
-82 5173 0
-83 5173 0
-84 5173 0
-5174 122 123 124 125 126 0
-122 5174 0
-123 5174 0
-124 5174 0
-125 5174 0
-126 5174 0
-5175 164 165 166 167 168 0
-164 5175 0
-165 5175 0
-166 5175 0
-167 5175 0
-168 5175 0
-5176 206 207 208 209 210 0
-206 5176 0
-207 5176 0
-208 5176 0
-209 5176 0
-210 5176 0
-5177 248 249 250 251 252 0
-248 5177 0
-249 5177 0
-250 5177 0
-251 5177 0
-252 5177 0
-5172 5178 0
-5179 0
-5180 0
-5181 0
-5182 0
-5173 5183 0
-5178 5183 0
-5173 -5178 5184 0
-5179 5184 0
-5173 -5179 5185 0
-5180 5185 0
-5173 -5180 5186 0
-5181 5186 0
-5173 -5181 5187 0
-5182 5187 0
-5173 -5182 0
-5174 5188 0
-5183 5188 0
-5174 -5183 5189 0
-5184 5189 0
-5174 -5184 5190 0
-5185 5190 0
-5174 -5185 5191 0
-5186 5191 0
-5174 -5186 5192 0
-5187 5192 0
-5174 -5187 0
-5175 5193 0
-5188 5193 0
-5175 -5188 5194 0
-5189 5194 0
-5175 -5189 5195 0
-5190 5195 0
-5175 -5190 5196 0
-5191 5196 0
-5175 -5191 5197 0
-5192 5197 0
-5175 -5192 0
-5176 5198 0
-5193 5198 0
-5176 -5193 5199 0
-5194 5199 0
-5176 -5194 5200 0
-5195 5200 0
-5176 -5195 5201 0
-5196 5201 0
-5176 -5196 5202 0
-5197 5202 0
-5176 -5197 0
-5177 -5202 0
-5208 39 0
-39 5208 0
-5209 81 0
-81 5209 0
-5210 123 0
-123 5210 0
-5211 165 0
-165 5211 0
-5212 207 0
-207 5212 0
-5213 249 0
-249 5213 0
-5208 5214 0
-5209 5215 0
-5214 5215 0
-5209 -5214 0
-5210 5216 0
-5215 5216 0
-5210 -5215 0
-5211 5217 0
-5216 5217 0
-5211 -5216 0
-5212 5218 0
-5217 5218 0
-5212 -5217 0
-5213 -5218 0
-5220 40 0
-40 5220 0
-5221 82 0
-82 5221 0
-5222 124 0
-124 5222 0
-5223 166 0
-166 5223 0
-5224 208 0
-208 5224 0
-5225 250 0
-250 5225 0
-5220 5226 0
-5221 5227 0
-5226 5227 0
-5221 -5226 0
-5222 5228 0
-5227 5228 0
-5222 -5227 0
-5223 5229 0
-5228 5229 0
-5223 -5228 0
-5224 5230 0
-5229 5230 0
-5224 -5229 0
-5225 -5230 0
-5232 41 0
-41 5232 0
-5233 83 0
-83 5233 0
-5234 125 0
-125 5234 0
-5235 167 0
-167 5235 0
-5236 209 0
-209 5236 0
-5237 251 0
-251 5237 0
-5232 5238 0
-5233 5239 0
-5238 5239 0
-5233 -5238 0
-5234 5240 0
-5239 5240 0
-5234 -5239 0
-5235 5241 0
-5240 5241 0
-5235 -5240 0
-5236 5242 0
-5241 5242 0
-5236 -5241 0
-5237 -5242 0
-5244 42 0
-42 5244 0
-5245 84 0
-84 5245 0
-5246 126 0
-126 5246 0
-5247 168 0
-168 5247 0
-5248 210 0
-210 5248 0
-5249 252 0
-252 5249 0
-5244 5250 0
-5245 5251 0
-5250 5251 0
-5245 -5250 0
-5246 5252 0
-5251 5252 0
-5246 -5251 0
-5247 5253 0
-5252 5253 0
-5247 -5252 0
-5248 5254 0
-5253 5254 0
-5248 -5253 0
-5249 -5254 0
-5256 43 0
-43 5256 0
-5257 85 0
-85 5257 0
-5258 127 0
-127 5258 0
-5259 169 0
-169 5259 0
-5260 211 0
-211 5260 0
-5261 253 0
-253 5261 0
-5262 295 0
-295 5262 0
-5256 5263 0
-5257 5264 0
-5263 5264 0
-5257 -5263 0
-5258 5265 0
-5264 5265 0
-5258 -5264 0
-5259 5266 0
-5265 5266 0
-5259 -5265 0
-5260 5267 0
-5266 5267 0
-5260 -5266 0
-5261 5268 0
-5267 5268 0
-5261 -5267 0
-5262 -5268 0
-5270 43 44 45 46 47 0
-43 5270 0
-44 5270 0
-45 5270 0
-46 5270 0
-47 5270 0
-5271 85 86 87 88 89 0
-85 5271 0
-86 5271 0
-87 5271 0
-88 5271 0
-89 5271 0
-5272 127 128 129 130 131 0
-127 5272 0
-128 5272 0
-129 5272 0
-130 5272 0
-131 5272 0
-5273 169 170 171 172 173 0
-169 5273 0
-170 5273 0
-171 5273 0
-172 5273 0
-173 5273 0
-5274 211 212 213 214 215 0
-211 5274 0
-212 5274 0
-213 5274 0
-214 5274 0
-215 5274 0
-5275 253 254 255 256 257 0
-253 5275 0
-254 5275 0
-255 5275 0
-256 5275 0
-257 5275 0
-5276 295 296 297 298 299 0
-295 5276 0
-296 5276 0
-297 5276 0
-298 5276 0
-299 5276 0
-5270 5277 0
-5278 0
-5279 0
-5280 0
-5281 0
-5271 5282 0
-5277 5282 0
-5271 -5277 5283 0
-5278 5283 0
-5271 -5278 5284 0
-5279 5284 0
-5271 -5279 5285 0
-5280 5285 0
-5271 -5280 5286 0
-5281 5286 0
-5271 -5281 0
-5272 5287 0
-5282 5287 0
-5272 -5282 5288 0
-5283 5288 0
-5272 -5283 5289 0
-5284 5289 0
-5272 -5284 5290 0
-5285 5290 0
-5272 -5285 5291 0
-5286 5291 0
-5272 -5286 0
-5273 5292 0
-5287 5292 0
-5273 -5287 5293 0
-5288 5293 0
-5273 -5288 5294 0
-5289 5294 0
-5273 -5289 5295 0
-5290 5295 0
-5273 -5290 5296 0
-5291 5296 0
-5273 -5291 0
-5274 5297 0
-5292 5297 0
-5274 -5292 5298 0
-5293 5298 0
-5274 -5293 5299 0
-5294 5299 0
-5274 -5294 5300 0
-5295 5300 0
-5274 -5295 5301 0
-5296 5301 0
-5274 -5296 0
-5275 5302 0
-5297 5302 0
-5275 -5297 5303 0
-5298 5303 0
-5275 -5298 5304 0
-5299 5304 0
-5275 -5299 5305 0
-5300 5305 0
-5275 -5300 5306 0
-5301 5306 0
-5275 -5301 0
-5276 -5306 0
-5312 44 0
-44 5312 0
-5313 86 0
-86 5313 0
-5314 128 0
-128 5314 0
-5315 170 0
-170 5315 0
-5316 212 0
-212 5316 0
-5317 254 0
-254 5317 0
-5318 296 0
-296 5318 0
-5312 5319 0
-5313 5320 0
-5319 5320 0
-5313 -5319 0
-5314 5321 0
-5320 5321 0
-5314 -5320 0
-5315 5322 0
-5321 5322 0
-5315 -5321 0
-5316 5323 0
-5322 5323 0
-5316 -5322 0
-5317 5324 0
-5323 5324 0
-5317 -5323 0
-5318 -5324 0
-5326 44 45 46 47 48 0
-44 5326 0
-45 5326 0
-46 5326 0
-47 5326 0
-48 5326 0
-5327 86 87 88 89 90 0
-86 5327 0
-87 5327 0
-88 5327 0
-89 5327 0
-90 5327 0
-5328 128 129 130 131 132 0
-128 5328 0
-129 5328 0
-130 5328 0
-131 5328 0
-132 5328 0
-5329 170 171 172 173 174 0
-170 5329 0
-171 5329 0
-172 5329 0
-173 5329 0
-174 5329 0
-5330 212 213 214 215 216 0
-212 5330 0
-213 5330 0
-214 5330 0
-215 5330 0
-216 5330 0
-5331 254 255 256 257 258 0
-254 5331 0
-255 5331 0
-256 5331 0
-257 5331 0
-258 5331 0
-5332 296 297 298 299 300 0
-296 5332 0
-297 5332 0
-298 5332 0
-299 5332 0
-300 5332 0
-5326 5333 0
-5334 0
-5335 0
-5336 0
-5337 0
-5327 5338 0
-5333 5338 0
-5327 -5333 5339 0
-5334 5339 0
-5327 -5334 5340 0
-5335 5340 0
-5327 -5335 5341 0
-5336 5341 0
-5327 -5336 5342 0
-5337 5342 0
-5327 -5337 0
-5328 5343 0
-5338 5343 0
-5328 -5338 5344 0
-5339 5344 0
-5328 -5339 5345 0
-5340 5345 0
-5328 -5340 5346 0
-5341 5346 0
-5328 -5341 5347 0
-5342 5347 0
-5328 -5342 0
-5329 5348 0
-5343 5348 0
-5329 -5343 5349 0
-5344 5349 0
-5329 -5344 5350 0
-5345 5350 0
-5329 -5345 5351 0
-5346 5351 0
-5329 -5346 5352 0
-5347 5352 0
-5329 -5347 0
-5330 5353 0
-5348 5353 0
-5330 -5348 5354 0
-5349 5354 0
-5330 -5349 5355 0
-5350 5355 0
-5330 -5350 5356 0
-5351 5356 0
-5330 -5351 5357 0
-5352 5357 0
-5330 -5352 0
-5331 5358 0
-5353 5358 0
-5331 -5353 5359 0
-5354 5359 0
-5331 -5354 5360 0
-5355 5360 0
-5331 -5355 5361 0
-5356 5361 0
-5331 -5356 5362 0
-5357 5362 0
-5331 -5357 0
-5332 -5362 0
-5368 45 0
-45 5368 0
-5369 87 0
-87 5369 0
-5370 129 0
-129 5370 0
-5371 171 0
-171 5371 0
-5372 213 0
-213 5372 0
-5373 255 0
-255 5373 0
-5374 297 0
-297 5374 0
-5368 5375 0
-5369 5376 0
-5375 5376 0
-5369 -5375 0
-5370 5377 0
-5376 5377 0
-5370 -5376 0
-5371 5378 0
-5377 5378 0
-5371 -5377 0
-5372 5379 0
-5378 5379 0
-5372 -5378 0
-5373 5380 0
-5379 5380 0
-5373 -5379 0
-5374 -5380 0
-5382 45 46 47 48 49 0
-45 5382 0
-46 5382 0
-47 5382 0
-48 5382 0
-49 5382 0
-5383 87 88 89 90 91 0
-87 5383 0
-88 5383 0
-89 5383 0
-90 5383 0
-91 5383 0
-5384 129 130 131 132 133 0
-129 5384 0
-130 5384 0
-131 5384 0
-132 5384 0
-133 5384 0
-5385 171 172 173 174 175 0
-171 5385 0
-172 5385 0
-173 5385 0
-174 5385 0
-175 5385 0
-5386 213 214 215 216 217 0
-213 5386 0
-214 5386 0
-215 5386 0
-216 5386 0
-217 5386 0
-5387 255 256 257 258 259 0
-255 5387 0
-256 5387 0
-257 5387 0
-258 5387 0
-259 5387 0
-5388 297 298 299 300 301 0
-297 5388 0
-298 5388 0
-299 5388 0
-300 5388 0
-301 5388 0
-5382 5389 0
-5390 0
-5391 0
-5392 0
-5393 0
-5383 5394 0
-5389 5394 0
-5383 -5389 5395 0
-5390 5395 0
-5383 -5390 5396 0
-5391 5396 0
-5383 -5391 5397 0
-5392 5397 0
-5383 -5392 5398 0
-5393 5398 0
-5383 -5393 0
-5384 5399 0
-5394 5399 0
-5384 -5394 5400 0
-5395 5400 0
-5384 -5395 5401 0
-5396 5401 0
-5384 -5396 5402 0
-5397 5402 0
-5384 -5397 5403 0
-5398 5403 0
-5384 -5398 0
-5385 5404 0
-5399 5404 0
-5385 -5399 5405 0
-5400 5405 0
-5385 -5400 5406 0
-5401 5406 0
-5385 -5401 5407 0
-5402 5407 0
-5385 -5402 5408 0
-5403 5408 0
-5385 -5403 0
-5386 5409 0
-5404 5409 0
-5386 -5404 5410 0
-5405 5410 0
-5386 -5405 5411 0
-5406 5411 0
-5386 -5406 5412 0
-5407 5412 0
-5386 -5407 5413 0
-5408 5413 0
-5386 -5408 0
-5387 5414 0
-5409 5414 0
-5387 -5409 5415 0
-5410 5415 0
-5387 -5410 5416 0
-5411 5416 0
-5387 -5411 5417 0
-5412 5417 0
-5387 -5412 5418 0
-5413 5418 0
-5387 -5413 0
-5388 -5418 0
-5424 46 0
-46 5424 0
-5425 88 0
-88 5425 0
-5426 130 0
-130 5426 0
-5427 172 0
-172 5427 0
-5428 214 0
-214 5428 0
-5429 256 0
-256 5429 0
-5430 298 0
-298 5430 0
-5424 5431 0
-5425 5432 0
-5431 5432 0
-5425 -5431 0
-5426 5433 0
-5432 5433 0
-5426 -5432 0
-5427 5434 0
-5433 5434 0
-5427 -5433 0
-5428 5435 0
-5434 5435 0
-5428 -5434 0
-5429 5436 0
-5435 5436 0
-5429 -5435 0
-5430 -5436 0
-5438 47 0
-47 5438 0
-5439 89 0
-89 5439 0
-5440 131 0
-131 5440 0
-5441 173 0
-173 5441 0
-5442 215 0
-215 5442 0
-5443 257 0
-257 5443 0
-5444 299 0
-299 5444 0
-5438 5445 0
-5439 5446 0
-5445 5446 0
-5439 -5445 0
-5440 5447 0
-5446 5447 0
-5440 -5446 0
-5441 5448 0
-5447 5448 0
-5441 -5447 0
-5442 5449 0
-5448 5449 0
-5442 -5448 0
-5443 5450 0
-5449 5450 0
-5443 -5449 0
-5444 -5450 0
-5452 48 0
-48 5452 0
-5453 90 0
-90 5453 0
-5454 132 0
-132 5454 0
-5455 174 0
-174 5455 0
-5456 216 0
-216 5456 0
-5457 258 0
-258 5457 0
-5458 300 0
-300 5458 0
-5452 5459 0
-5453 5460 0
-5459 5460 0
-5453 -5459 0
-5454 5461 0
-5460 5461 0
-5454 -5460 0
-5455 5462 0
-5461 5462 0
-5455 -5461 0
-5456 5463 0
-5462 5463 0
-5456 -5462 0
-5457 5464 0
-5463 5464 0
-5457 -5463 0
-5458 -5464 0
-5466 49 0
-49 5466 0
-5467 91 0
-91 5467 0
-5468 133 0
-133 5468 0
-5469 175 0
-175 5469 0
-5470 217 0
-217 5470 0
-5471 259 0
-259 5471 0
-5472 301 0
-301 5472 0
-5466 5473 0
-5467 5474 0
-5473 5474 0
-5467 -5473 0
-5468 5475 0
-5474 5475 0
-5468 -5474 0
-5469 5476 0
-5475 5476 0
-5469 -5475 0
-5470 5477 0
-5476 5477 0
-5470 -5476 0
-5471 5478 0
-5477 5478 0
-5471 -5477 0
-5472 -5478 0
-5480 92 0
-92 5480 0
-5481 134 0
-134 5481 0
-5482 176 0
-176 5482 0
-5483 218 0
-218 5483 0
-5484 260 0
-260 5484 0
-5485 302 0
-302 5485 0
-5480 5486 0
-5481 5487 0
-5486 5487 0
-5481 -5486 0
-5482 5488 0
-5487 5488 0
-5482 -5487 0
-5483 5489 0
-5488 5489 0
-5483 -5488 0
-5484 5490 0
-5489 5490 0
-5484 -5489 0
-5485 -5490 0
-5492 92 93 94 95 96 0
-92 5492 0
-93 5492 0
-94 5492 0
-95 5492 0
-96 5492 0
-5493 134 135 136 137 138 0
-134 5493 0
-135 5493 0
-136 5493 0
-137 5493 0
-138 5493 0
-5494 176 177 178 179 180 0
-176 5494 0
-177 5494 0
-178 5494 0
-179 5494 0
-180 5494 0
-5495 218 219 220 221 222 0
-218 5495 0
-219 5495 0
-220 5495 0
-221 5495 0
-222 5495 0
-5496 260 261 262 263 264 0
-260 5496 0
-261 5496 0
-262 5496 0
-263 5496 0
-264 5496 0
-5497 302 303 304 305 306 0
-302 5497 0
-303 5497 0
-304 5497 0
-305 5497 0
-306 5497 0
-5492 5498 0
-5499 0
-5500 0
-5501 0
-5502 0
-5493 5503 0
-5498 5503 0
-5493 -5498 5504 0
-5499 5504 0
-5493 -5499 5505 0
-5500 5505 0
-5493 -5500 5506 0
-5501 5506 0
-5493 -5501 5507 0
-5502 5507 0
-5493 -5502 0
-5494 5508 0
-5503 5508 0
-5494 -5503 5509 0
-5504 5509 0
-5494 -5504 5510 0
-5505 5510 0
-5494 -5505 5511 0
-5506 5511 0
-5494 -5506 5512 0
-5507 5512 0
-5494 -5507 0
-5495 5513 0
-5508 5513 0
-5495 -5508 5514 0
-5509 5514 0
-5495 -5509 5515 0
-5510 5515 0
-5495 -5510 5516 0
-5511 5516 0
-5495 -5511 5517 0
-5512 5517 0
-5495 -5512 0
-5496 5518 0
-5513 5518 0
-5496 -5513 5519 0
-5514 5519 0
-5496 -5514 5520 0
-5515 5520 0
-5496 -5515 5521 0
-5516 5521 0
-5496 -5516 5522 0
-5517 5522 0
-5496 -5517 0
-5497 -5522 0
-5528 93 0
-93 5528 0
-5529 135 0
-135 5529 0
-5530 177 0
-177 5530 0
-5531 219 0
-219 5531 0
-5532 261 0
-261 5532 0
-5533 303 0
-303 5533 0
-5528 5534 0
-5529 5535 0
-5534 5535 0
-5529 -5534 0
-5530 5536 0
-5535 5536 0
-5530 -5535 0
-5531 5537 0
-5536 5537 0
-5531 -5536 0
-5532 5538 0
-5537 5538 0
-5532 -5537 0
-5533 -5538 0
-5540 93 94 95 96 97 0
-93 5540 0
-94 5540 0
-95 5540 0
-96 5540 0
-97 5540 0
-5541 135 136 137 138 139 0
-135 5541 0
-136 5541 0
-137 5541 0
-138 5541 0
-139 5541 0
-5542 177 178 179 180 181 0
-177 5542 0
-178 5542 0
-179 5542 0
-180 5542 0
-181 5542 0
-5543 219 220 221 222 223 0
-219 5543 0
-220 5543 0
-221 5543 0
-222 5543 0
-223 5543 0
-5544 261 262 263 264 265 0
-261 5544 0
-262 5544 0
-263 5544 0
-264 5544 0
-265 5544 0
-5545 303 304 305 306 307 0
-303 5545 0
-304 5545 0
-305 5545 0
-306 5545 0
-307 5545 0
-5540 5546 0
-5547 0
-5548 0
-5549 0
-5550 0
-5541 5551 0
-5546 5551 0
-5541 -5546 5552 0
-5547 5552 0
-5541 -5547 5553 0
-5548 5553 0
-5541 -5548 5554 0
-5549 5554 0
-5541 -5549 5555 0
-5550 5555 0
-5541 -5550 0
-5542 5556 0
-5551 5556 0
-5542 -5551 5557 0
-5552 5557 0
-5542 -5552 5558 0
-5553 5558 0
-5542 -5553 5559 0
-5554 5559 0
-5542 -5554 5560 0
-5555 5560 0
-5542 -5555 0
-5543 5561 0
-5556 5561 0
-5543 -5556 5562 0
-5557 5562 0
-5543 -5557 5563 0
-5558 5563 0
-5543 -5558 5564 0
-5559 5564 0
-5543 -5559 5565 0
-5560 5565 0
-5543 -5560 0
-5544 5566 0
-5561 5566 0
-5544 -5561 5567 0
-5562 5567 0
-5544 -5562 5568 0
-5563 5568 0
-5544 -5563 5569 0
-5564 5569 0
-5544 -5564 5570 0
-5565 5570 0
-5544 -5565 0
-5545 -5570 0
-5576 94 0
-94 5576 0
-5577 136 0
-136 5577 0
-5578 178 0
-178 5578 0
-5579 220 0
-220 5579 0
-5580 262 0
-262 5580 0
-5581 304 0
-304 5581 0
-5576 5582 0
-5577 5583 0
-5582 5583 0
-5577 -5582 0
-5578 5584 0
-5583 5584 0
-5578 -5583 0
-5579 5585 0
-5584 5585 0
-5579 -5584 0
-5580 5586 0
-5585 5586 0
-5580 -5585 0
-5581 -5586 0
-5588 94 95 96 97 98 0
-94 5588 0
-95 5588 0
-96 5588 0
-97 5588 0
-98 5588 0
-5589 136 137 138 139 140 0
-136 5589 0
-137 5589 0
-138 5589 0
-139 5589 0
-140 5589 0
-5590 178 179 180 181 182 0
-178 5590 0
-179 5590 0
-180 5590 0
-181 5590 0
-182 5590 0
-5591 220 221 222 223 224 0
-220 5591 0
-221 5591 0
-222 5591 0
-223 5591 0
-224 5591 0
-5592 262 263 264 265 266 0
-262 5592 0
-263 5592 0
-264 5592 0
-265 5592 0
-266 5592 0
-5593 304 305 306 307 308 0
-304 5593 0
-305 5593 0
-306 5593 0
-307 5593 0
-308 5593 0
-5588 5594 0
-5595 0
-5596 0
-5597 0
-5598 0
-5589 5599 0
-5594 5599 0
-5589 -5594 5600 0
-5595 5600 0
-5589 -5595 5601 0
-5596 5601 0
-5589 -5596 5602 0
-5597 5602 0
-5589 -5597 5603 0
-5598 5603 0
-5589 -5598 0
-5590 5604 0
-5599 5604 0
-5590 -5599 5605 0
-5600 5605 0
-5590 -5600 5606 0
-5601 5606 0
-5590 -5601 5607 0
-5602 5607 0
-5590 -5602 5608 0
-5603 5608 0
-5590 -5603 0
-5591 5609 0
-5604 5609 0
-5591 -5604 5610 0
-5605 5610 0
-5591 -5605 5611 0
-5606 5611 0
-5591 -5606 5612 0
-5607 5612 0
-5591 -5607 5613 0
-5608 5613 0
-5591 -5608 0
-5592 5614 0
-5609 5614 0
-5592 -5609 5615 0
-5610 5615 0
-5592 -5610 5616 0
-5611 5616 0
-5592 -5611 5617 0
-5612 5617 0
-5592 -5612 5618 0
-5613 5618 0
-5592 -5613 0
-5593 -5618 0
-5624 95 0
-95 5624 0
-5625 137 0
-137 5625 0
-5626 179 0
-179 5626 0
-5627 221 0
-221 5627 0
-5628 263 0
-263 5628 0
-5629 305 0
-305 5629 0
-5624 5630 0
-5625 5631 0
-5630 5631 0
-5625 -5630 0
-5626 5632 0
-5631 5632 0
-5626 -5631 0
-5627 5633 0
-5632 5633 0
-5627 -5632 0
-5628 5634 0
-5633 5634 0
-5628 -5633 0
-5629 -5634 0
-5636 96 0
-96 5636 0
-5637 138 0
-138 5637 0
-5638 180 0
-180 5638 0
-5639 222 0
-222 5639 0
-5640 264 0
-264 5640 0
-5641 306 0
-306 5641 0
-5636 5642 0
-5637 5643 0
-5642 5643 0
-5637 -5642 0
-5638 5644 0
-5643 5644 0
-5638 -5643 0
-5639 5645 0
-5644 5645 0
-5639 -5644 0
-5640 5646 0
-5645 5646 0
-5640 -5645 0
-5641 -5646 0
-5648 97 0
-97 5648 0
-5649 139 0
-139 5649 0
-5650 181 0
-181 5650 0
-5651 223 0
-223 5651 0
-5652 265 0
-265 5652 0
-5653 307 0
-307 5653 0
-5648 5654 0
-5649 5655 0
-5654 5655 0
-5649 -5654 0
-5650 5656 0
-5655 5656 0
-5650 -5655 0
-5651 5657 0
-5656 5657 0
-5651 -5656 0
-5652 5658 0
-5657 5658 0
-5652 -5657 0
-5653 -5658 0
-5660 98 0
-98 5660 0
-5661 140 0
-140 5661 0
-5662 182 0
-182 5662 0
-5663 224 0
-224 5663 0
-5664 266 0
-266 5664 0
-5665 308 0
-308 5665 0
-5660 5666 0
-5661 5667 0
-5666 5667 0
-5661 -5666 0
-5662 5668 0
-5667 5668 0
-5662 -5667 0
-5663 5669 0
-5668 5669 0
-5663 -5668 0
-5664 5670 0
-5669 5670 0
-5664 -5669 0
-5665 -5670 0
-5672 141 0
-141 5672 0
-5673 183 0
-183 5673 0
-5674 225 0
-225 5674 0
-5675 267 0
-267 5675 0
-5676 309 0
-309 5676 0
-5672 5677 0
-5673 5678 0
-5677 5678 0
-5673 -5677 0
-5674 5679 0
-5678 5679 0
-5674 -5678 0
-5675 5680 0
-5679 5680 0
-5675 -5679 0
-5676 -5680 0
-5682 141 142 143 144 145 0
-141 5682 0
-142 5682 0
-143 5682 0
-144 5682 0
-145 5682 0
-5683 183 184 185 186 187 0
-183 5683 0
-184 5683 0
-185 5683 0
-186 5683 0
-187 5683 0
-5684 225 226 227 228 229 0
-225 5684 0
-226 5684 0
-227 5684 0
-228 5684 0
-229 5684 0
-5685 267 268 269 270 271 0
-267 5685 0
-268 5685 0
-269 5685 0
-270 5685 0
-271 5685 0
-5686 309 310 311 312 313 0
-309 5686 0
-310 5686 0
-311 5686 0
-312 5686 0
-313 5686 0
-5687 142 0
-142 5687 0
-5688 184 0
-184 5688 0
-5689 226 0
-226 5689 0
-5690 268 0
-268 5690 0
-5691 310 0
-310 5691 0
-5687 5692 0
-5688 5693 0
-5692 5693 0
-5688 -5692 0
-5689 5694 0
-5693 5694 0
-5689 -5693 0
-5690 5695 0
-5694 5695 0
-5690 -5694 0
-5691 -5695 0
-5697 142 143 144 145 146 0
-142 5697 0
-143 5697 0
-144 5697 0
-145 5697 0
-146 5697 0
-5698 184 185 186 187 188 0
-184 5698 0
-185 5698 0
-186 5698 0
-187 5698 0
-188 5698 0
-5699 226 227 228 229 230 0
-226 5699 0
-227 5699 0
-228 5699 0
-229 5699 0
-230 5699 0
-5700 268 269 270 271 272 0
-268 5700 0
-269 5700 0
-270 5700 0
-271 5700 0
-272 5700 0
-5701 310 311 312 313 314 0
-310 5701 0
-311 5701 0
-312 5701 0
-313 5701 0
-314 5701 0
-5702 143 0
-143 5702 0
-5703 185 0
-185 5703 0
-5704 227 0
-227 5704 0
-5705 269 0
-269 5705 0
-5706 311 0
-311 5706 0
-5702 5707 0
-5703 5708 0
-5707 5708 0
-5703 -5707 0
-5704 5709 0
-5708 5709 0
-5704 -5708 0
-5705 5710 0
-5709 5710 0
-5705 -5709 0
-5706 -5710 0
-5712 143 144 145 146 147 0
-143 5712 0
-144 5712 0
-145 5712 0
-146 5712 0
-147 5712 0
-5713 185 186 187 188 189 0
-185 5713 0
-186 5713 0
-187 5713 0
-188 5713 0
-189 5713 0
-5714 227 228 229 230 231 0
-227 5714 0
-228 5714 0
-229 5714 0
-230 5714 0
-231 5714 0
-5715 269 270 271 272 273 0
-269 5715 0
-270 5715 0
-271 5715 0
-272 5715 0
-273 5715 0
-5716 311 312 313 314 315 0
-311 5716 0
-312 5716 0
-313 5716 0
-314 5716 0
-315 5716 0
-5717 144 0
-144 5717 0
-5718 186 0
-186 5718 0
-5719 228 0
-228 5719 0
-5720 270 0
-270 5720 0
-5721 312 0
-312 5721 0
-5717 5722 0
-5718 5723 0
-5722 5723 0
-5718 -5722 0
-5719 5724 0
-5723 5724 0
-5719 -5723 0
-5720 5725 0
-5724 5725 0
-5720 -5724 0
-5721 -5725 0
-5727 145 0
-145 5727 0
-5728 187 0
-187 5728 0
-5729 229 0
-229 5729 0
-5730 271 0
-271 5730 0
-5731 313 0
-313 5731 0
-5727 5732 0
-5728 5733 0
-5732 5733 0
-5728 -5732 0
-5729 5734 0
-5733 5734 0
-5729 -5733 0
-5730 5735 0
-5734 5735 0
-5730 -5734 0
-5731 -5735 0
-5737 146 0
-146 5737 0
-5738 188 0
-188 5738 0
-5739 230 0
-230 5739 0
-5740 272 0
-272 5740 0
-5741 314 0
-314 5741 0
-5737 5742 0
-5738 5743 0
-5742 5743 0
-5738 -5742 0
-5739 5744 0
-5743 5744 0
-5739 -5743 0
-5740 5745 0
-5744 5745 0
-5740 -5744 0
-5741 -5745 0
-5747 147 0
-147 5747 0
-5748 189 0
-189 5748 0
-5749 231 0
-231 5749 0
-5750 273 0
-273 5750 0
-5751 315 0
-315 5751 0
-5747 5752 0
-5748 5753 0
-5752 5753 0
-5748 -5752 0
-5749 5754 0
-5753 5754 0
-5749 -5753 0
-5750 5755 0
-5754 5755 0
-5750 -5754 0
-5751 -5755 0
-5757 190 0
-190 5757 0
-5758 232 0
-232 5758 0
-5759 274 0
-274 5759 0
-5760 316 0
-316 5760 0
-5757 5761 0
-5758 5762 0
-5761 5762 0
-5758 -5761 0
-5759 5763 0
-5762 5763 0
-5759 -5762 0
-5760 -5763 0
-5765 191 0
-191 5765 0
-5766 233 0
-233 5766 0
-5767 275 0
-275 5767 0
-5768 317 0
-317 5768 0
-5765 5769 0
-5766 5770 0
-5769 5770 0
-5766 -5769 0
-5767 5771 0
-5770 5771 0
-5767 -5770 0
-5768 -5771 0
-5773 192 0
-192 5773 0
-5774 234 0
-234 5774 0
-5775 276 0
-276 5775 0
-5776 318 0
-318 5776 0
-5773 5777 0
-5774 5778 0
-5777 5778 0
-5774 -5777 0
-5775 5779 0
-5778 5779 0
-5775 -5778 0
-5776 -5779 0
-5781 193 0
-193 5781 0
-5782 235 0
-235 5782 0
-5783 277 0
-277 5783 0
-5784 319 0
-319 5784 0
-5781 5785 0
-5782 5786 0
-5785 5786 0
-5782 -5785 0
-5783 5787 0
-5786 5787 0
-5783 -5786 0
-5784 -5787 0
-5789 194 0
-194 5789 0
-5790 236 0
-236 5790 0
-5791 278 0
-278 5791 0
-5792 320 0
-320 5792 0
-5789 5793 0
-5790 5794 0
-5793 5794 0
-5790 -5793 0
-5791 5795 0
-5794 5795 0
-5791 -5794 0
-5792 -5795 0
-5797 195 0
-195 5797 0
-5798 237 0
-237 5798 0
-5799 279 0
-279 5799 0
-5800 321 0
-321 5800 0
-5797 5801 0
-5798 5802 0
-5801 5802 0
-5798 -5801 0
-5799 5803 0
-5802 5803 0
-5799 -5802 0
-5800 -5803 0
-5805 196 0
-196 5805 0
-5806 238 0
-238 5806 0
-5807 280 0
-280 5807 0
-5808 322 0
-322 5808 0
-5805 5809 0
-5806 5810 0
-5809 5810 0
-5806 -5809 0
-5807 5811 0
-5810 5811 0
-5807 -5810 0
-5808 -5811 0
-5813 239 0
-239 5813 0
-5814 281 0
-281 5814 0
-5815 323 0
-323 5815 0
-5813 5816 0
-5814 5817 0
-5816 5817 0
-5814 -5816 0
-5815 -5817 0
-5819 240 0
-240 5819 0
-5820 282 0
-282 5820 0
-5821 324 0
-324 5821 0
-5819 5822 0
-5820 5823 0
-5822 5823 0
-5820 -5822 0
-5821 -5823 0
-5825 241 0
-241 5825 0
-5826 283 0
-283 5826 0
-5827 325 0
-325 5827 0
-5825 5828 0
-5826 5829 0
-5828 5829 0
-5826 -5828 0
-5827 -5829 0
-5831 242 0
-242 5831 0
-5832 284 0
-284 5832 0
-5833 326 0
-326 5833 0
-5831 5834 0
-5832 5835 0
-5834 5835 0
-5832 -5834 0
-5833 -5835 0
-5837 243 0
-243 5837 0
-5838 285 0
-285 5838 0
-5839 327 0
-327 5839 0
-5837 5840 0
-5838 5841 0
-5840 5841 0
-5838 -5840 0
-5839 -5841 0
-5843 244 0
-244 5843 0
-5844 286 0
-286 5844 0
-5845 328 0
-328 5845 0
-5843 5846 0
-5844 5847 0
-5846 5847 0
-5844 -5846 0
-5845 -5847 0
-5849 245 0
-245 5849 0
-5850 287 0
-287 5850 0
-5851 329 0
-329 5851 0
-5849 5852 0
-5850 5853 0
-5852 5853 0
-5850 -5852 0
-5851 -5853 0
-5855 288 0
-288 5855 0
-5856 330 0
-330 5856 0
-5855 5857 0
-5856 -5857 0
-5859 289 0
-289 5859 0
-5860 331 0
-331 5860 0
-5859 5861 0
-5860 -5861 0
-5863 290 0
-290 5863 0
-5864 332 0
-332 5864 0
-5863 5865 0
-5864 -5865 0
-5867 291 0
-291 5867 0
-5868 333 0
-333 5868 0
-5867 5869 0
-5868 -5869 0
-5871 292 0
-292 5871 0
-5872 334 0
-334 5872 0
-5871 5873 0
-5872 -5873 0
-5875 293 0
-293 5875 0
-5876 335 0
-335 5876 0
-5875 5877 0
-5876 -5877 0
-5879 294 0
-294 5879 0
-5880 336 0
-336 5880 0
-5879 5881 0
-5880 -5881 0
