p cnf 3160 6698
-1 217 0
-2 218 0
-217 218 0
-2 -217 0
-3 219 0
-218 219 0
-3 -218 0
-4 220 0
-219 220 0
-4 -219 0
-5 221 0
-220 221 0
-5 -220 0
-6 -221 0
1 2 3 4 5 6 0
-7 223 0
-8 224 0
-223 224 0
-8 -223 0
-9 225 0
-224 225 0
-9 -224 0
-10 226 0
-225 226 0
-10 -225 0
-11 227 0
-226 227 0
-11 -226 0
-12 -227 0
7 8 9 10 11 12 0
-13 229 0
-14 230 0
-229 230 0
-14 -229 0
-15 231 0
-230 231 0
-15 -230 0
-16 232 0
-231 232 0
-16 -231 0
-17 233 0
-232 233 0
-17 -232 0
-18 -233 0
13 14 15 16 17 18 0
-19 235 0
-20 236 0
-235 236 0
-20 -235 0
-21 237 0
-236 237 0
-21 -236 0
-22 238 0
-237 238 0
-22 -237 0
-23 239 0
-238 239 0
-23 -238 0
-24 -239 0
19 20 21 22 23 24 0
-25 241 0
-26 242 0
-241 242 0
-26 -241 0
-27 243 0
-242 243 0
-27 -242 0
-28 244 0
-243 244 0
-28 -243 0
-29 245 0
-244 245 0
-29 -244 0
-30 -245 0
25 26 27 28 29 30 0
-31 247 0
-32 248 0
-247 248 0
-32 -247 0
-33 249 0
-248 249 0
-33 -248 0
-34 250 0
-249 250 0
-34 -249 0
-35 251 0
-250 251 0
-35 -250 0
-36 -251 0
31 32 33 34 35 36 0
-37 253 0
-38 254 0
-253 254 0
-38 -253 0
-39 255 0
-254 255 0
-39 -254 0
-40 256 0
-255 256 0
-40 -255 0
-41 257 0
-256 257 0
-41 -256 0
-42 -257 0
37 38 39 40 41 42 0
-43 259 0
-44 260 0
-259 260 0
-44 -259 0
-45 261 0
-260 261 0
-45 -260 0
-46 262 0
-261 262 0
-46 -261 0
-47 263 0
-262 263 0
-47 -262 0
-48 -263 0
43 44 45 46 47 48 0
-49 265 0
-50 266 0
-265 266 0
-50 -265 0
-51 267 0
-266 267 0
-51 -266 0
-52 268 0
-267 268 0
-52 -267 0
-53 269 0
-268 269 0
-53 -268 0
-54 -269 0
49 50 51 52 53 54 0
-55 271 0
-56 272 0
-271 272 0
-56 -271 0
-57 273 0
-272 273 0
-57 -272 0
-58 274 0
-273 274 0
-58 -273 0
-59 275 0
-274 275 0
-59 -274 0
-60 -275 0
55 56 57 58 59 60 0
-61 277 0
-62 278 0
-277 278 0
-62 -277 0
-63 279 0
-278 279 0
-63 -278 0
-64 280 0
-279 280 0
-64 -279 0
-65 281 0
-280 281 0
-65 -280 0
-66 -281 0
61 62 63 64 65 66 0
-67 283 0
-68 284 0
-283 284 0
-68 -283 0
-69 285 0
-284 285 0
-69 -284 0
-70 286 0
-285 286 0
-70 -285 0
-71 287 0
-286 287 0
-71 -286 0
-72 -287 0
67 68 69 70 71 72 0
-73 289 0
-74 290 0
-289 290 0
-74 -289 0
-75 291 0
-290 291 0
-75 -290 0
-76 292 0
-291 292 0
-76 -291 0
-77 293 0
-292 293 0
-77 -292 0
-78 -293 0
73 74 75 76 77 78 0
-79 295 0
-80 296 0
-295 296 0
-80 -295 0
-81 297 0
-296 297 0
-81 -296 0
-82 298 0
-297 298 0
-82 -297 0
-83 299 0
-298 299 0
-83 -298 0
-84 -299 0
79 80 81 82 83 84 0
-85 301 0
-86 302 0
-301 302 0
-86 -301 0
-87 303 0
-302 303 0
-87 -302 0
-88 304 0
-303 304 0
-88 -303 0
-89 305 0
-304 305 0
-89 -304 0
-90 -305 0
85 86 87 88 89 90 0
-91 307 0
-92 308 0
-307 308 0
-92 -307 0
-93 309 0
-308 309 0
-93 -308 0
-94 310 0
-309 310 0
-94 -309 0
-95 311 0
-310 311 0
-95 -310 0
-96 -311 0
91 92 93 94 95 96 0
-97 313 0
-98 314 0
-313 314 0
-98 -313 0
-99 315 0
-314 315 0
-99 -314 0
-100 316 0
-315 316 0
-100 -315 0
-101 317 0
-316 317 0
-101 -316 0
-102 -317 0
97 98 99 100 101 102 0
-103 319 0
-104 320 0
-319 320 0
-104 -319 0
-105 321 0
-320 321 0
-105 -320 0
-106 322 0
-321 322 0
-106 -321 0
-107 323 0
-322 323 0
-107 -322 0
-108 -323 0
103 104 105 106 107 108 0
-109 325 0
-110 326 0
-325 326 0
-110 -325 0
-111 327 0
-326 327 0
-111 -326 0
-112 328 0
-327 328 0
-112 -327 0
-113 329 0
-328 329 0
-113 -328 0
-114 -329 0
109 110 111 112 113 114 0
-115 331 0
-116 332 0
-331 332 0
-116 -331 0
-117 333 0
-332 333 0
-117 -332 0
-118 334 0
-333 334 0
-118 -333 0
-119 335 0
-334 335 0
-119 -334 0
-120 -335 0
115 116 117 118 119 120 0
-121 337 0
-122 338 0
-337 338 0
-122 -337 0
-123 339 0
-338 339 0
-123 -338 0
-124 340 0
-339 340 0
-124 -339 0
-125 341 0
-340 341 0
-125 -340 0
-126 -341 0
121 122 123 124 125 126 0
-127 343 0
-128 344 0
-343 344 0
-128 -343 0
-129 345 0
-344 345 0
-129 -344 0
-130 346 0
-345 346 0
-130 -345 0
-131 347 0
-346 347 0
-131 -346 0
-132 -347 0
127 128 129 130 131 132 0
-133 349 0
-134 350 0
-349 350 0
-134 -349 0
-135 351 0
-350 351 0
-135 -350 0
-136 352 0
-351 352 0
-136 -351 0
-137 353 0
-352 353 0
-137 -352 0
-138 -353 0
133 134 135 136 137 138 0
-139 355 0
-140 356 0
-355 356 0
-140 -355 0
-141 357 0
-356 357 0
-141 -356 0
-142 358 0
-357 358 0
-142 -357 0
-143 359 0
-358 359 0
-143 -358 0
-144 -359 0
139 140 141 142 143 144 0
-145 361 0
-146 362 0
-361 362 0
-146 -361 0
-147 363 0
-362 363 0
-147 -362 0
-148 364 0
-363 364 0
-148 -363 0
-149 365 0
-364 365 0
-149 -364 0
-150 -365 0
145 146 147 148 149 150 0
-151 367 0
-152 368 0
-367 368 0
-152 -367 0
-153 369 0
-368 369 0
-153 -368 0
-154 370 0
-369 370 0
-154 -369 0
-155 371 0
-370 371 0
-155 -370 0
-156 -371 0
151 152 153 154 155 156 0
-157 373 0
-158 374 0
-373 374 0
-158 -373 0
-159 375 0
-374 375 0
-159 -374 0
-160 376 0
-375 376 0
-160 -375 0
-161 377 0
-376 377 0
-161 -376 0
-162 -377 0
157 158 159 160 161 162 0
-163 379 0
-164 380 0
-379 380 0
-164 -379 0
-165 381 0
-380 381 0
-165 -380 0
-166 382 0
-381 382 0
-166 -381 0
-167 383 0
-382 383 0
-167 -382 0
-168 -383 0
163 164 165 166 167 168 0
-169 385 0
-170 386 0
-385 386 0
-170 -385 0
-171 387 0
-386 387 0
-171 -386 0
-172 388 0
-387 388 0
-172 -387 0
-173 389 0
-388 389 0
-173 -388 0
-174 -389 0
169 170 171 172 173 174 0
-175 391 0
-176 392 0
-391 392 0
-176 -391 0
-177 393 0
-392 393 0
-177 -392 0
-178 394 0
-393 394 0
-178 -393 0
-179 395 0
-394 395 0
-179 -394 0
-180 -395 0
175 176 177 178 179 180 0
-181 397 0
-182 398 0
-397 398 0
-182 -397 0
-183 399 0
-398 399 0
-183 -398 0
-184 400 0
-399 400 0
-184 -399 0
-185 401 0
-400 401 0
-185 -400 0
-186 -401 0
181 182 183 184 185 186 0
-187 403 0
-188 404 0
-403 404 0
-188 -403 0
-189 405 0
-404 405 0
-189 -404 0
-190 406 0
-405 406 0
-190 -405 0
-191 407 0
-406 407 0
-191 -406 0
-192 -407 0
187 188 189 190 191 192 0
-193 409 0
-194 410 0
-409 410 0
-194 -409 0
-195 411 0
-410 411 0
-195 -410 0
-196 412 0
-411 412 0
-196 -411 0
-197 413 0
-412 413 0
-197 -412 0
-198 -413 0
193 194 195 196 197 198 0
-199 415 0
-200 416 0
-415 416 0
-200 -415 0
-201 417 0
-416 417 0
-201 -416 0
-202 418 0
-417 418 0
-202 -417 0
-203 419 0
-418 419 0
-203 -418 0
-204 -419 0
199 200 201 202 203 204 0
-205 421 0
-206 422 0
-421 422 0
-206 -421 0
-207 423 0
-422 423 0
-207 -422 0
-208 424 0
-423 424 0
-208 -423 0
-209 425 0
-424 425 0
-209 -424 0
-210 -425 0
205 206 207 208 209 210 0
-211 427 0
-212 428 0
-427 428 0
-212 -427 0
-213 429 0
-428 429 0
-213 -428 0
-214 430 0
-429 430 0
-214 -429 0
-215 431 0
-430 431 0
-215 -430 0
-216 -431 0
211 212 213 214 215 216 0
-25 0
-26 0
-27 0
-28 0
-30 0
-2 0
-3 0
-4 0
-5 0
-6 0
-31 0
-32 0
-33 0
-34 0
-35 0
-7 0
-9 0
-10 0
-11 0
-12 0
-19 0
-20 0
-21 0
-23 0
-24 0
-13 0
-14 0
-16 0
-17 0
-18 0
-433 1 0
-1 433 0
-434 7 0
-7 434 0
-435 13 0
-13 435 0
-436 19 0
-19 436 0
-437 25 0
-25 437 0
-438 31 0
-31 438 0
-433 439 0
-434 440 0
-439 440 0
-434 -439 0
-435 441 0
-440 441 0
-435 -440 0
-436 442 0
-441 442 0
-436 -441 0
-437 443 0
-442 443 0
-437 -442 0
-438 -443 0
-445 1 2 3 4 5 0
-1 445 0
-2 445 0
-3 445 0
-4 445 0
-5 445 0
-446 7 8 9 10 11 0
-7 446 0
-8 446 0
-9 446 0
-10 446 0
-11 446 0
-447 13 14 15 16 17 0
-13 447 0
-14 447 0
-15 447 0
-16 447 0
-17 447 0
-448 19 20 21 22 23 0
-19 448 0
-20 448 0
-21 448 0
-22 448 0
-23 448 0
-449 25 26 27 28 29 0
-25 449 0
-26 449 0
-27 449 0
-28 449 0
-29 449 0
-450 31 32 33 34 35 0
-31 450 0
-32 450 0
-33 450 0
-34 450 0
-35 450 0
-445 451 0
-452 0
-453 0
-454 0
-455 0
-446 456 0
-451 456 0
-446 -451 457 0
-452 457 0
-446 -452 458 0
-453 458 0
-446 -453 459 0
-454 459 0
-446 -454 460 0
-455 460 0
-446 -455 0
-447 461 0
-456 461 0
-447 -456 462 0
-457 462 0
-447 -457 463 0
-458 463 0
-447 -458 464 0
-459 464 0
-447 -459 465 0
-460 465 0
-447 -460 0
-448 466 0
-461 466 0
-448 -461 467 0
-462 467 0
-448 -462 468 0
-463 468 0
-448 -463 469 0
-464 469 0
-448 -464 470 0
-465 470 0
-448 -465 0
-449 471 0
-466 471 0
-449 -466 472 0
-467 472 0
-449 -467 473 0
-468 473 0
-449 -468 474 0
-469 474 0
-449 -469 475 0
-470 475 0
-449 -470 0
-450 -475 0
-481 2 0
-2 481 0
-482 8 0
-8 482 0
-483 14 0
-14 483 0
-484 20 0
-20 484 0
-485 26 0
-26 485 0
-486 32 0
-32 486 0
-481 487 0
-482 488 0
-487 488 0
-482 -487 0
-483 489 0
-488 489 0
-483 -488 0
-484 490 0
-489 490 0
-484 -489 0
-485 491 0
-490 491 0
-485 -490 0
-486 -491 0
-493 2 3 4 5 6 0
-2 493 0
-3 493 0
-4 493 0
-5 493 0
-6 493 0
-494 8 9 10 11 12 0
-8 494 0
-9 494 0
-10 494 0
-11 494 0
-12 494 0
-495 14 15 16 17 18 0
-14 495 0
-15 495 0
-16 495 0
-17 495 0
-18 495 0
-496 20 21 22 23 24 0
-20 496 0
-21 496 0
-22 496 0
-23 496 0
-24 496 0
-497 26 27 28 29 30 0
-26 497 0
-27 497 0
-28 497 0
-29 497 0
-30 497 0
-498 32 33 34 35 36 0
-32 498 0
-33 498 0
-34 498 0
-35 498 0
-36 498 0
-493 499 0
-500 0
-501 0
-502 0
-503 0
-494 504 0
-499 504 0
-494 -499 505 0
-500 505 0
-494 -500 506 0
-501 506 0
-494 -501 507 0
-502 507 0
-494 -502 508 0
-503 508 0
-494 -503 0
-495 509 0
-504 509 0
-495 -504 510 0
-505 510 0
-495 -505 511 0
-506 511 0
-495 -506 512 0
-507 512 0
-495 -507 513 0
-508 513 0
-495 -508 0
-496 514 0
-509 514 0
-496 -509 515 0
-510 515 0
-496 -510 516 0
-511 516 0
-496 -511 517 0
-512 517 0
-496 -512 518 0
-513 518 0
-496 -513 0
-497 519 0
-514 519 0
-497 -514 520 0
-515 520 0
-497 -515 521 0
-516 521 0
-497 -516 522 0
-517 522 0
-497 -517 523 0
-518 523 0
-497 -518 0
-498 -523 0
-529 3 0
-3 529 0
-530 9 0
-9 530 0
-531 15 0
-15 531 0
-532 21 0
-21 532 0
-533 27 0
-27 533 0
-534 33 0
-33 534 0
-529 535 0
-530 536 0
-535 536 0
-530 -535 0
-531 537 0
-536 537 0
-531 -536 0
-532 538 0
-537 538 0
-532 -537 0
-533 539 0
-538 539 0
-533 -538 0
-534 -539 0
-541 4 0
-4 541 0
-542 10 0
-10 542 0
-543 16 0
-16 543 0
-544 22 0
-22 544 0
-545 28 0
-28 545 0
-546 34 0
-34 546 0
-541 547 0
-542 548 0
-547 548 0
-542 -547 0
-543 549 0
-548 549 0
-543 -548 0
-544 550 0
-549 550 0
-544 -549 0
-545 551 0
-550 551 0
-545 -550 0
-546 -551 0
-553 5 0
-5 553 0
-554 11 0
-11 554 0
-555 17 0
-17 555 0
-556 23 0
-23 556 0
-557 29 0
-29 557 0
-558 35 0
-35 558 0
-553 559 0
-554 560 0
-559 560 0
-554 -559 0
-555 561 0
-560 561 0
-555 -560 0
-556 562 0
-561 562 0
-556 -561 0
-557 563 0
-562 563 0
-557 -562 0
-558 -563 0
-565 6 0
-6 565 0
-566 12 0
-12 566 0
-567 18 0
-18 567 0
-568 24 0
-24 568 0
-569 30 0
-30 569 0
-570 36 0
-36 570 0
-565 571 0
-566 572 0
-571 572 0
-566 -571 0
-567 573 0
-572 573 0
-567 -572 0
-568 574 0
-573 574 0
-568 -573 0
-569 575 0
-574 575 0
-569 -574 0
-570 -575 0
-577 37 0
-37 577 0
-578 43 0
-43 578 0
-579 49 0
-49 579 0
-580 55 0
-55 580 0
-581 61 0
-61 581 0
-582 67 0
-67 582 0
-577 583 0
-578 584 0
-583 584 0
-578 -583 0
-579 585 0
-584 585 0
-579 -584 0
-580 586 0
-585 586 0
-580 -585 0
-581 587 0
-586 587 0
-581 -586 0
-582 -587 0
-589 37 38 39 40 41 0
-37 589 0
-38 589 0
-39 589 0
-40 589 0
-41 589 0
-590 43 44 45 46 47 0
-43 590 0
-44 590 0
-45 590 0
-46 590 0
-47 590 0
-591 49 50 51 52 53 0
-49 591 0
-50 591 0
-51 591 0
-52 591 0
-53 591 0
-592 55 56 57 58 59 0
-55 592 0
-56 592 0
-57 592 0
-58 592 0
-59 592 0
-593 61 62 63 64 65 0
-61 593 0
-62 593 0
-63 593 0
-64 593 0
-65 593 0
-594 67 68 69 70 71 0
-67 594 0
-68 594 0
-69 594 0
-70 594 0
-71 594 0
-589 595 0
-596 0
-597 0
-598 0
-599 0
-590 600 0
-595 600 0
-590 -595 601 0
-596 601 0
-590 -596 602 0
-597 602 0
-590 -597 603 0
-598 603 0
-590 -598 604 0
-599 604 0
-590 -599 0
-591 605 0
-600 605 0
-591 -600 606 0
-601 606 0
-591 -601 607 0
-602 607 0
-591 -602 608 0
-603 608 0
-591 -603 609 0
-604 609 0
-591 -604 0
-592 610 0
-605 610 0
-592 -605 611 0
-606 611 0
-592 -606 612 0
-607 612 0
-592 -607 613 0
-608 613 0
-592 -608 614 0
-609 614 0
-592 -609 0
-593 615 0
-610 615 0
-593 -610 616 0
-611 616 0
-593 -611 617 0
-612 617 0
-593 -612 618 0
-613 618 0
-593 -613 619 0
-614 619 0
-593 -614 0
-594 -619 0
-625 38 0
-38 625 0
-626 44 0
-44 626 0
-627 50 0
-50 627 0
-628 56 0
-56 628 0
-629 62 0
-62 629 0
-630 68 0
-68 630 0
-625 631 0
-626 632 0
-631 632 0
-626 -631 0
-627 633 0
-632 633 0
-627 -632 0
-628 634 0
-633 634 0
-628 -633 0
-629 635 0
-634 635 0
-629 -634 0
-630 -635 0
-637 38 39 40 41 42 0
-38 637 0
-39 637 0
-40 637 0
-41 637 0
-42 637 0
-638 44 45 46 47 48 0
-44 638 0
-45 638 0
-46 638 0
-47 638 0
-48 638 0
-639 50 51 52 53 54 0
-50 639 0
-51 639 0
-52 639 0
-53 639 0
-54 639 0
-640 56 57 58 59 60 0
-56 640 0
-57 640 0
-58 640 0
-59 640 0
-60 640 0
-641 62 63 64 65 66 0
-62 641 0
-63 641 0
-64 641 0
-65 641 0
-66 641 0
-642 68 69 70 71 72 0
-68 642 0
-69 642 0
-70 642 0
-71 642 0
-72 642 0
-637 643 0
-644 0
-645 0
-646 0
-647 0
-638 648 0
-643 648 0
-638 -643 649 0
-644 649 0
-638 -644 650 0
-645 650 0
-638 -645 651 0
-646 651 0
-638 -646 652 0
-647 652 0
-638 -647 0
-639 653 0
-648 653 0
-639 -648 654 0
-649 654 0
-639 -649 655 0
-650 655 0
-639 -650 656 0
-651 656 0
-639 -651 657 0
-652 657 0
-639 -652 0
-640 658 0
-653 658 0
-640 -653 659 0
-654 659 0
-640 -654 660 0
-655 660 0
-640 -655 661 0
-656 661 0
-640 -656 662 0
-657 662 0
-640 -657 0
-641 663 0
-658 663 0
-641 -658 664 0
-659 664 0
-641 -659 665 0
-660 665 0
-641 -660 666 0
-661 666 0
-641 -661 667 0
-662 667 0
-641 -662 0
-642 -667 0
-673 39 0
-39 673 0
-674 45 0
-45 674 0
-675 51 0
-51 675 0
-676 57 0
-57 676 0
-677 63 0
-63 677 0
-678 69 0
-69 678 0
-673 679 0
-674 680 0
-679 680 0
-674 -679 0
-675 681 0
-680 681 0
-675 -680 0
-676 682 0
-681 682 0
-676 -681 0
-677 683 0
-682 683 0
-677 -682 0
-678 -683 0
-685 40 0
-40 685 0
-686 46 0
-46 686 0
-687 52 0
-52 687 0
-688 58 0
-58 688 0
-689 64 0
-64 689 0
-690 70 0
-70 690 0
-685 691 0
-686 692 0
-691 692 0
-686 -691 0
-687 693 0
-692 693 0
-687 -692 0
-688 694 0
-693 694 0
-688 -693 0
-689 695 0
-694 695 0
-689 -694 0
-690 -695 0
-697 41 0
-41 697 0
-698 47 0
-47 698 0
-699 53 0
-53 699 0
-700 59 0
-59 700 0
-701 65 0
-65 701 0
-702 71 0
-71 702 0
-697 703 0
-698 704 0
-703 704 0
-698 -703 0
-699 705 0
-704 705 0
-699 -704 0
-700 706 0
-705 706 0
-700 -705 0
-701 707 0
-706 707 0
-701 -706 0
-702 -707 0
-709 42 0
-42 709 0
-710 48 0
-48 710 0
-711 54 0
-54 711 0
-712 60 0
-60 712 0
-713 66 0
-66 713 0
-714 72 0
-72 714 0
-709 715 0
-710 716 0
-715 716 0
-710 -715 0
-711 717 0
-716 717 0
-711 -716 0
-712 718 0
-717 718 0
-712 -717 0
-713 719 0
-718 719 0
-713 -718 0
-714 -719 0
-721 73 0
-73 721 0
-722 79 0
-79 722 0
-723 85 0
-85 723 0
-724 91 0
-91 724 0
-725 97 0
-97 725 0
-726 103 0
-103 726 0
-721 727 0
-722 728 0
-727 728 0
-722 -727 0
-723 729 0
-728 729 0
-723 -728 0
-724 730 0
-729 730 0
-724 -729 0
-725 731 0
-730 731 0
-725 -730 0
-726 -731 0
-733 73 74 75 76 77 0
-73 733 0
-74 733 0
-75 733 0
-76 733 0
-77 733 0
-734 79 80 81 82 83 0
-79 734 0
-80 734 0
-81 734 0
-82 734 0
-83 734 0
-735 85 86 87 88 89 0
-85 735 0
-86 735 0
-87 735 0
-88 735 0
-89 735 0
-736 91 92 93 94 95 0
-91 736 0
-92 736 0
-93 736 0
-94 736 0
-95 736 0
-737 97 98 99 100 101 0
-97 737 0
-98 737 0
-99 737 0
-100 737 0
-101 737 0
-738 103 104 105 106 107 0
-103 738 0
-104 738 0
-105 738 0
-106 738 0
-107 738 0
-733 739 0
-740 0
-741 0
-742 0
-743 0
-734 744 0
-739 744 0
-734 -739 745 0
-740 745 0
-734 -740 746 0
-741 746 0
-734 -741 747 0
-742 747 0
-734 -742 748 0
-743 748 0
-734 -743 0
-735 749 0
-744 749 0
-735 -744 750 0
-745 750 0
-735 -745 751 0
-746 751 0
-735 -746 752 0
-747 752 0
-735 -747 753 0
-748 753 0
-735 -748 0
-736 754 0
-749 754 0
-736 -749 755 0
-750 755 0
-736 -750 756 0
-751 756 0
-736 -751 757 0
-752 757 0
-736 -752 758 0
-753 758 0
-736 -753 0
-737 759 0
-754 759 0
-737 -754 760 0
-755 760 0
-737 -755 761 0
-756 761 0
-737 -756 762 0
-757 762 0
-737 -757 763 0
-758 763 0
-737 -758 0
-738 -763 0
-769 74 0
-74 769 0
-770 80 0
-80 770 0
-771 86 0
-86 771 0
-772 92 0
-92 772 0
-773 98 0
-98 773 0
-774 104 0
-104 774 0
-769 775 0
-770 776 0
-775 776 0
-770 -775 0
-771 777 0
-776 777 0
-771 -776 0
-772 778 0
-777 778 0
-772 -777 0
-773 779 0
-778 779 0
-773 -778 0
-774 -779 0
-781 74 75 76 77 78 0
-74 781 0
-75 781 0
-76 781 0
-77 781 0
-78 781 0
-782 80 81 82 83 84 0
-80 782 0
-81 782 0
-82 782 0
-83 782 0
-84 782 0
-783 86 87 88 89 90 0
-86 783 0
-87 783 0
-88 783 0
-89 783 0
-90 783 0
-784 92 93 94 95 96 0
-92 784 0
-93 784 0
-94 784 0
-95 784 0
-96 784 0
-785 98 99 100 101 102 0
-98 785 0
-99 785 0
-100 785 0
-101 785 0
-102 785 0
-786 104 105 106 107 108 0
-104 786 0
-105 786 0
-106 786 0
-107 786 0
-108 786 0
-781 787 0
-788 0
-789 0
-790 0
-791 0
-782 792 0
-787 792 0
-782 -787 793 0
-788 793 0
-782 -788 794 0
-789 794 0
-782 -789 795 0
-790 795 0
-782 -790 796 0
-791 796 0
-782 -791 0
-783 797 0
-792 797 0
-783 -792 798 0
-793 798 0
-783 -793 799 0
-794 799 0
-783 -794 800 0
-795 800 0
-783 -795 801 0
-796 801 0
-783 -796 0
-784 802 0
-797 802 0
-784 -797 803 0
-798 803 0
-784 -798 804 0
-799 804 0
-784 -799 805 0
-800 805 0
-784 -800 806 0
-801 806 0
-784 -801 0
-785 807 0
-802 807 0
-785 -802 808 0
-803 808 0
-785 -803 809 0
-804 809 0
-785 -804 810 0
-805 810 0
-785 -805 811 0
-806 811 0
-785 -806 0
-786 -811 0
-817 75 0
-75 817 0
-818 81 0
-81 818 0
-819 87 0
-87 819 0
-820 93 0
-93 820 0
-821 99 0
-99 821 0
-822 105 0
-105 822 0
-817 823 0
-818 824 0
-823 824 0
-818 -823 0
-819 825 0
-824 825 0
-819 -824 0
-820 826 0
-825 826 0
-820 -825 0
-821 827 0
-826 827 0
-821 -826 0
-822 -827 0
-829 76 0
-76 829 0
-830 82 0
-82 830 0
-831 88 0
-88 831 0
-832 94 0
-94 832 0
-833 100 0
-100 833 0
-834 106 0
-106 834 0
-829 835 0
-830 836 0
-835 836 0
-830 -835 0
-831 837 0
-836 837 0
-831 -836 0
-832 838 0
-837 838 0
-832 -837 0
-833 839 0
-838 839 0
-833 -838 0
-834 -839 0
-841 77 0
-77 841 0
-842 83 0
-83 842 0
-843 89 0
-89 843 0
-844 95 0
-95 844 0
-845 101 0
-101 845 0
-846 107 0
-107 846 0
-841 847 0
-842 848 0
-847 848 0
-842 -847 0
-843 849 0
-848 849 0
-843 -848 0
-844 850 0
-849 850 0
-844 -849 0
-845 851 0
-850 851 0
-845 -850 0
-846 -851 0
-853 78 0
-78 853 0
-854 84 0
-84 854 0
-855 90 0
-90 855 0
-856 96 0
-96 856 0
-857 102 0
-102 857 0
-858 108 0
-108 858 0
-853 859 0
-854 860 0
-859 860 0
-854 -859 0
-855 861 0
-860 861 0
-855 -860 0
-856 862 0
-861 862 0
-856 -861 0
-857 863 0
-862 863 0
-857 -862 0
-858 -863 0
-865 109 0
-109 865 0
-866 115 0
-115 866 0
-867 121 0
-121 867 0
-868 127 0
-127 868 0
-869 133 0
-133 869 0
-870 139 0
-139 870 0
-865 871 0
-866 872 0
-871 872 0
-866 -871 0
-867 873 0
-872 873 0
-867 -872 0
-868 874 0
-873 874 0
-868 -873 0
-869 875 0
-874 875 0
-869 -874 0
-870 -875 0
-877 109 110 111 112 113 0
-109 877 0
-110 877 0
-111 877 0
-112 877 0
-113 877 0
-878 115 116 117 118 119 0
-115 878 0
-116 878 0
-117 878 0
-118 878 0
-119 878 0
-879 121 122 123 124 125 0
-121 879 0
-122 879 0
-123 879 0
-124 879 0
-125 879 0
-880 127 128 129 130 131 0
-127 880 0
-128 880 0
-129 880 0
-130 880 0
-131 880 0
-881 133 134 135 136 137 0
-133 881 0
-134 881 0
-135 881 0
-136 881 0
-137 881 0
-882 139 140 141 142 143 0
-139 882 0
-140 882 0
-141 882 0
-142 882 0
-143 882 0
-877 883 0
-884 0
-885 0
-886 0
-887 0
-878 888 0
-883 888 0
-878 -883 889 0
-884 889 0
-878 -884 890 0
-885 890 0
-878 -885 891 0
-886 891 0
-878 -886 892 0
-887 892 0
-878 -887 0
-879 893 0
-888 893 0
-879 -888 894 0
-889 894 0
-879 -889 895 0
-890 895 0
-879 -890 896 0
-891 896 0
-879 -891 897 0
-892 897 0
-879 -892 0
-880 898 0
-893 898 0
-880 -893 899 0
-894 899 0
-880 -894 900 0
-895 900 0
-880 -895 901 0
-896 901 0
-880 -896 902 0
-897 902 0
-880 -897 0
-881 903 0
-898 903 0
-881 -898 904 0
-899 904 0
-881 -899 905 0
-900 905 0
-881 -900 906 0
-901 906 0
-881 -901 907 0
-902 907 0
-881 -902 0
-882 -907 0
-913 110 0
-110 913 0
-914 116 0
-116 914 0
-915 122 0
-122 915 0
-916 128 0
-128 916 0
-917 134 0
-134 917 0
-918 140 0
-140 918 0
-913 919 0
-914 920 0
-919 920 0
-914 -919 0
-915 921 0
-920 921 0
-915 -920 0
-916 922 0
-921 922 0
-916 -921 0
-917 923 0
-922 923 0
-917 -922 0
-918 -923 0
-925 110 111 112 113 114 0
-110 925 0
-111 925 0
-112 925 0
-113 925 0
-114 925 0
-926 116 117 118 119 120 0
-116 926 0
-117 926 0
-118 926 0
-119 926 0
-120 926 0
-927 122 123 124 125 126 0
-122 927 0
-123 927 0
-124 927 0
-125 927 0
-126 927 0
-928 128 129 130 131 132 0
-128 928 0
-129 928 0
-130 928 0
-131 928 0
-132 928 0
-929 134 135 136 137 138 0
-134 929 0
-135 929 0
-136 929 0
-137 929 0
-138 929 0
-930 140 141 142 143 144 0
-140 930 0
-141 930 0
-142 930 0
-143 930 0
-144 930 0
-925 931 0
-932 0
-933 0
-934 0
-935 0
-926 936 0
-931 936 0
-926 -931 937 0
-932 937 0
-926 -932 938 0
-933 938 0
-926 -933 939 0
-934 939 0
-926 -934 940 0
-935 940 0
-926 -935 0
-927 941 0
-936 941 0
-927 -936 942 0
-937 942 0
-927 -937 943 0
-938 943 0
-927 -938 944 0
-939 944 0
-927 -939 945 0
-940 945 0
-927 -940 0
-928 946 0
-941 946 0
-928 -941 947 0
-942 947 0
-928 -942 948 0
-943 948 0
-928 -943 949 0
-944 949 0
-928 -944 950 0
-945 950 0
-928 -945 0
-929 951 0
-946 951 0
-929 -946 952 0
-947 952 0
-929 -947 953 0
-948 953 0
-929 -948 954 0
-949 954 0
-929 -949 955 0
-950 955 0
-929 -950 0
-930 -955 0
-961 111 0
-111 961 0
-962 117 0
-117 962 0
-963 123 0
-123 963 0
-964 129 0
-129 964 0
-965 135 0
-135 965 0
-966 141 0
-141 966 0
-961 967 0
-962 968 0
-967 968 0
-962 -967 0
-963 969 0
-968 969 0
-963 -968 0
-964 970 0
-969 970 0
-964 -969 0
-965 971 0
-970 971 0
-965 -970 0
-966 -971 0
-973 112 0
-112 973 0
-974 118 0
-118 974 0
-975 124 0
-124 975 0
-976 130 0
-130 976 0
-977 136 0
-136 977 0
-978 142 0
-142 978 0
-973 979 0
-974 980 0
-979 980 0
-974 -979 0
-975 981 0
-980 981 0
-975 -980 0
-976 982 0
-981 982 0
-976 -981 0
-977 983 0
-982 983 0
-977 -982 0
-978 -983 0
-985 113 0
-113 985 0
-986 119 0
-119 986 0
-987 125 0
-125 987 0
-988 131 0
-131 988 0
-989 137 0
-137 989 0
-990 143 0
-143 990 0
-985 991 0
-986 992 0
-991 992 0
-986 -991 0
-987 993 0
-992 993 0
-987 -992 0
-988 994 0
-993 994 0
-988 -993 0
-989 995 0
-994 995 0
-989 -994 0
-990 -995 0
-997 114 0
-114 997 0
-998 120 0
-120 998 0
-999 126 0
-126 999 0
-1000 132 0
-132 1000 0
-1001 138 0
-138 1001 0
-1002 144 0
-144 1002 0
-997 1003 0
-998 1004 0
-1003 1004 0
-998 -1003 0
-999 1005 0
-1004 1005 0
-999 -1004 0
-1000 1006 0
-1005 1006 0
-1000 -1005 0
-1001 1007 0
-1006 1007 0
-1001 -1006 0
-1002 -1007 0
-1009 145 0
-145 1009 0
-1010 151 0
-151 1010 0
-1011 157 0
-157 1011 0
-1012 163 0
-163 1012 0
-1013 169 0
-169 1013 0
-1014 175 0
-175 1014 0
-1009 1015 0
-1010 1016 0
-1015 1016 0
-1010 -1015 0
-1011 1017 0
-1016 1017 0
-1011 -1016 0
-1012 1018 0
-1017 1018 0
-1012 -1017 0
-1013 1019 0
-1018 1019 0
-1013 -1018 0
-1014 -1019 0
-1021 145 146 147 148 149 0
-145 1021 0
-146 1021 0
-147 1021 0
-148 1021 0
-149 1021 0
-1022 151 152 153 154 155 0
-151 1022 0
-152 1022 0
-153 1022 0
-154 1022 0
-155 1022 0
-1023 157 158 159 160 161 0
-157 1023 0
-158 1023 0
-159 1023 0
-160 1023 0
-161 1023 0
-1024 163 164 165 166 167 0
-163 1024 0
-164 1024 0
-165 1024 0
-166 1024 0
-167 1024 0
-1025 169 170 171 172 173 0
-169 1025 0
-170 1025 0
-171 1025 0
-172 1025 0
-173 1025 0
-1026 175 176 177 178 179 0
-175 1026 0
-176 1026 0
-177 1026 0
-178 1026 0
-179 1026 0
-1021 1027 0
-1028 0
-1029 0
-1030 0
-1031 0
-1022 1032 0
-1027 1032 0
-1022 -1027 1033 0
-1028 1033 0
-1022 -1028 1034 0
-1029 1034 0
-1022 -1029 1035 0
-1030 1035 0
-1022 -1030 1036 0
-1031 1036 0
-1022 -1031 0
-1023 1037 0
-1032 1037 0
-1023 -1032 1038 0
-1033 1038 0
-1023 -1033 1039 0
-1034 1039 0
-1023 -1034 1040 0
-1035 1040 0
-1023 -1035 1041 0
-1036 1041 0
-1023 -1036 0
-1024 1042 0
-1037 1042 0
-1024 -1037 1043 0
-1038 1043 0
-1024 -1038 1044 0
-1039 1044 0
-1024 -1039 1045 0
-1040 1045 0
-1024 -1040 1046 0
-1041 1046 0
-1024 -1041 0
-1025 1047 0
-1042 1047 0
-1025 -1042 1048 0
-1043 1048 0
-1025 -1043 1049 0
-1044 1049 0
-1025 -1044 1050 0
-1045 1050 0
-1025 -1045 1051 0
-1046 1051 0
-1025 -1046 0
-1026 -1051 0
-1057 146 0
-146 1057 0
-1058 152 0
-152 1058 0
-1059 158 0
-158 1059 0
-1060 164 0
-164 1060 0
-1061 170 0
-170 1061 0
-1062 176 0
-176 1062 0
-1057 1063 0
-1058 1064 0
-1063 1064 0
-1058 -1063 0
-1059 1065 0
-1064 1065 0
-1059 -1064 0
-1060 1066 0
-1065 1066 0
-1060 -1065 0
-1061 1067 0
-1066 1067 0
-1061 -1066 0
-1062 -1067 0
-1069 146 147 148 149 150 0
-146 1069 0
-147 1069 0
-148 1069 0
-149 1069 0
-150 1069 0
-1070 152 153 154 155 156 0
-152 1070 0
-153 1070 0
-154 1070 0
-155 1070 0
-156 1070 0
-1071 158 159 160 161 162 0
-158 1071 0
-159 1071 0
-160 1071 0
-161 1071 0
-162 1071 0
-1072 164 165 166 167 168 0
-164 1072 0
-165 1072 0
-166 1072 0
-167 1072 0
-168 1072 0
-1073 170 171 172 173 174 0
-170 1073 0
-171 1073 0
-172 1073 0
-173 1073 0
-174 1073 0
-1074 176 177 178 179 180 0
-176 1074 0
-177 1074 0
-178 1074 0
-179 1074 0
-180 1074 0
-1069 1075 0
-1076 0
-1077 0
-1078 0
-1079 0
-1070 1080 0
-1075 1080 0
-1070 -1075 1081 0
-1076 1081 0
-1070 -1076 1082 0
-1077 1082 0
-1070 -1077 1083 0
-1078 1083 0
-1070 -1078 1084 0
-1079 1084 0
-1070 -1079 0
-1071 1085 0
-1080 1085 0
-1071 -1080 1086 0
-1081 1086 0
-1071 -1081 1087 0
-1082 1087 0
-1071 -1082 1088 0
-1083 1088 0
-1071 -1083 1089 0
-1084 1089 0
-1071 -1084 0
-1072 1090 0
-1085 1090 0
-1072 -1085 1091 0
-1086 1091 0
-1072 -1086 1092 0
-1087 1092 0
-1072 -1087 1093 0
-1088 1093 0
-1072 -1088 1094 0
-1089 1094 0
-1072 -1089 0
-1073 1095 0
-1090 1095 0
-1073 -1090 1096 0
-1091 1096 0
-1073 -1091 1097 0
-1092 1097 0
-1073 -1092 1098 0
-1093 1098 0
-1073 -1093 1099 0
-1094 1099 0
-1073 -1094 0
-1074 -1099 0
-1105 147 0
-147 1105 0
-1106 153 0
-153 1106 0
-1107 159 0
-159 1107 0
-1108 165 0
-165 1108 0
-1109 171 0
-171 1109 0
-1110 177 0
-177 1110 0
-1105 1111 0
-1106 1112 0
-1111 1112 0
-1106 -1111 0
-1107 1113 0
-1112 1113 0
-1107 -1112 0
-1108 1114 0
-1113 1114 0
-1108 -1113 0
-1109 1115 0
-1114 1115 0
-1109 -1114 0
-1110 -1115 0
-1117 148 0
-148 1117 0
-1118 154 0
-154 1118 0
-1119 160 0
-160 1119 0
-1120 166 0
-166 1120 0
-1121 172 0
-172 1121 0
-1122 178 0
-178 1122 0
-1117 1123 0
-1118 1124 0
-1123 1124 0
-1118 -1123 0
-1119 1125 0
-1124 1125 0
-1119 -1124 0
-1120 1126 0
-1125 1126 0
-1120 -1125 0
-1121 1127 0
-1126 1127 0
-1121 -1126 0
-1122 -1127 0
-1129 149 0
-149 1129 0
-1130 155 0
-155 1130 0
-1131 161 0
-161 1131 0
-1132 167 0
-167 1132 0
-1133 173 0
-173 1133 0
-1134 179 0
-179 1134 0
-1129 1135 0
-1130 1136 0
-1135 1136 0
-1130 -1135 0
-1131 1137 0
-1136 1137 0
-1131 -1136 0
-1132 1138 0
-1137 1138 0
-1132 -1137 0
-1133 1139 0
-1138 1139 0
-1133 -1138 0
-1134 -1139 0
-1141 150 0
-150 1141 0
-1142 156 0
-156 1142 0
-1143 162 0
-162 1143 0
-1144 168 0
-168 1144 0
-1145 174 0
-174 1145 0
-1146 180 0
-180 1146 0
-1141 1147 0
-1142 1148 0
-1147 1148 0
-1142 -1147 0
-1143 1149 0
-1148 1149 0
-1143 -1148 0
-1144 1150 0
-1149 1150 0
-1144 -1149 0
-1145 1151 0
-1150 1151 0
-1145 -1150 0
-1146 -1151 0
-1153 181 0
-181 1153 0
-1154 187 0
-187 1154 0
-1155 193 0
-193 1155 0
-1156 199 0
-199 1156 0
-1157 205 0
-205 1157 0
-1158 211 0
-211 1158 0
-1153 1159 0
-1154 1160 0
-1159 1160 0
-1154 -1159 0
-1155 1161 0
-1160 1161 0
-1155 -1160 0
-1156 1162 0
-1161 1162 0
-1156 -1161 0
-1157 1163 0
-1162 1163 0
-1157 -1162 0
-1158 -1163 0
-1165 181 182 183 184 185 0
-181 1165 0
-182 1165 0
-183 1165 0
-184 1165 0
-185 1165 0
-1166 187 188 189 190 191 0
-187 1166 0
-188 1166 0
-189 1166 0
-190 1166 0
-191 1166 0
-1167 193 194 195 196 197 0
-193 1167 0
-194 1167 0
-195 1167 0
-196 1167 0
-197 1167 0
-1168 199 200 201 202 203 0
-199 1168 0
-200 1168 0
-201 1168 0
-202 1168 0
-203 1168 0
-1169 205 206 207 208 209 0
-205 1169 0
-206 1169 0
-207 1169 0
-208 1169 0
-209 1169 0
-1170 211 212 213 214 215 0
-211 1170 0
-212 1170 0
-213 1170 0
-214 1170 0
-215 1170 0
-1165 1171 0
-1172 0
-1173 0
-1174 0
-1175 0
-1166 1176 0
-1171 1176 0
-1166 -1171 1177 0
-1172 1177 0
-1166 -1172 1178 0
-1173 1178 0
-1166 -1173 1179 0
-1174 1179 0
-1166 -1174 1180 0
-1175 1180 0
-1166 -1175 0
-1167 1181 0
-1176 1181 0
-1167 -1176 1182 0
-1177 1182 0
-1167 -1177 1183 0
-1178 1183 0
-1167 -1178 1184 0
-1179 1184 0
-1167 -1179 1185 0
-1180 1185 0
-1167 -1180 0
-1168 1186 0
-1181 1186 0
-1168 -1181 1187 0
-1182 1187 0
-1168 -1182 1188 0
-1183 1188 0
-1168 -1183 1189 0
-1184 1189 0
-1168 -1184 1190 0
-1185 1190 0
-1168 -1185 0
-1169 1191 0
-1186 1191 0
-1169 -1186 1192 0
-1187 1192 0
-1169 -1187 1193 0
-1188 1193 0
-1169 -1188 1194 0
-1189 1194 0
-1169 -1189 1195 0
-1190 1195 0
-1169 -1190 0
-1170 -1195 0
-1201 182 0
-182 1201 0
-1202 188 0
-188 1202 0
-1203 194 0
-194 1203 0
-1204 200 0
-200 1204 0
-1205 206 0
-206 1205 0
-1206 212 0
-212 1206 0
-1201 1207 0
-1202 1208 0
-1207 1208 0
-1202 -1207 0
-1203 1209 0
-1208 1209 0
-1203 -1208 0
-1204 1210 0
-1209 1210 0
-1204 -1209 0
-1205 1211 0
-1210 1211 0
-1205 -1210 0
-1206 -1211 0
-1213 182 183 184 185 186 0
-182 1213 0
-183 1213 0
-184 1213 0
-185 1213 0
-186 1213 0
-1214 188 189 190 191 192 0
-188 1214 0
-189 1214 0
-190 1214 0
-191 1214 0
-192 1214 0
-1215 194 195 196 197 198 0
-194 1215 0
-195 1215 0
-196 1215 0
-197 1215 0
-198 1215 0
-1216 200 201 202 203 204 0
-200 1216 0
-201 1216 0
-202 1216 0
-203 1216 0
-204 1216 0
-1217 206 207 208 209 210 0
-206 1217 0
-207 1217 0
-208 1217 0
-209 1217 0
-210 1217 0
-1218 212 213 214 215 216 0
-212 1218 0
-213 1218 0
-214 1218 0
-215 1218 0
-216 1218 0
-1213 1219 0
-1220 0
-1221 0
-1222 0
-1223 0
-1214 1224 0
-1219 1224 0
-1214 -1219 1225 0
-1220 1225 0
-1214 -1220 1226 0
-1221 1226 0
-1214 -1221 1227 0
-1222 1227 0
-1214 -1222 1228 0
-1223 1228 0
-1214 -1223 0
-1215 1229 0
-1224 1229 0
-1215 -1224 1230 0
-1225 1230 0
-1215 -1225 1231 0
-1226 1231 0
-1215 -1226 1232 0
-1227 1232 0
-1215 -1227 1233 0
-1228 1233 0
-1215 -1228 0
-1216 1234 0
-1229 1234 0
-1216 -1229 1235 0
-1230 1235 0
-1216 -1230 1236 0
-1231 1236 0
-1216 -1231 1237 0
-1232 1237 0
-1216 -1232 1238 0
-1233 1238 0
-1216 -1233 0
-1217 1239 0
-1234 1239 0
-1217 -1234 1240 0
-1235 1240 0
-1217 -1235 1241 0
-1236 1241 0
-1217 -1236 1242 0
-1237 1242 0
-1217 -1237 1243 0
-1238 1243 0
-1217 -1238 0
-1218 -1243 0
-1249 183 0
-183 1249 0
-1250 189 0
-189 1250 0
-1251 195 0
-195 1251 0
-1252 201 0
-201 1252 0
-1253 207 0
-207 1253 0
-1254 213 0
-213 1254 0
-1249 1255 0
-1250 1256 0
-1255 1256 0
-1250 -1255 0
-1251 1257 0
-1256 1257 0
-1251 -1256 0
-1252 1258 0
-1257 1258 0
-1252 -1257 0
-1253 1259 0
-1258 1259 0
-1253 -1258 0
-1254 -1259 0
-1261 184 0
-184 1261 0
-1262 190 0
-190 1262 0
-1263 196 0
-196 1263 0
-1264 202 0
-202 1264 0
-1265 208 0
-208 1265 0
-1266 214 0
-214 1266 0
-1261 1267 0
-1262 1268 0
-1267 1268 0
-1262 -1267 0
-1263 1269 0
-1268 1269 0
-1263 -1268 0
-1264 1270 0
-1269 1270 0
-1264 -1269 0
-1265 1271 0
-1270 1271 0
-1265 -1270 0
-1266 -1271 0
-1273 185 0
-185 1273 0
-1274 191 0
-191 1274 0
-1275 197 0
-197 1275 0
-1276 203 0
-203 1276 0
-1277 209 0
-209 1277 0
-1278 215 0
-215 1278 0
-1273 1279 0
-1274 1280 0
-1279 1280 0
-1274 -1279 0
-1275 1281 0
-1280 1281 0
-1275 -1280 0
-1276 1282 0
-1281 1282 0
-1276 -1281 0
-1277 1283 0
-1282 1283 0
-1277 -1282 0
-1278 -1283 0
-1285 186 0
-186 1285 0
-1286 192 0
-192 1286 0
-1287 198 0
-198 1287 0
-1288 204 0
-204 1288 0
-1289 210 0
-210 1289 0
-1290 216 0
-216 1290 0
-1285 1291 0
-1286 1292 0
-1291 1292 0
-1286 -1291 0
-1287 1293 0
-1292 1293 0
-1287 -1292 0
-1288 1294 0
-1293 1294 0
-1288 -1293 0
-1289 1295 0
-1294 1295 0
-1289 -1294 0
-1290 -1295 0
-1297 1 0
-1 1297 0
-1298 37 0
-37 1298 0
-1299 73 0
-73 1299 0
-1300 109 0
-109 1300 0
-1301 145 0
-145 1301 0
-1302 181 0
-181 1302 0
-1297 1303 0
-1298 1304 0
-1303 1304 0
-1298 -1303 0
-1299 1305 0
-1304 1305 0
-1299 -1304 0
-1300 1306 0
-1305 1306 0
-1300 -1305 0
-1301 1307 0
-1306 1307 0
-1301 -1306 0
-1302 -1307 0
-1309 1 2 3 4 5 0
-1 1309 0
-2 1309 0
-3 1309 0
-4 1309 0
-5 1309 0
-1310 37 38 39 40 41 0
-37 1310 0
-38 1310 0
-39 1310 0
-40 1310 0
-41 1310 0
-1311 73 74 75 76 77 0
-73 1311 0
-74 1311 0
-75 1311 0
-76 1311 0
-77 1311 0
-1312 109 110 111 112 113 0
-109 1312 0
-110 1312 0
-111 1312 0
-112 1312 0
-113 1312 0
-1313 145 146 147 148 149 0
-145 1313 0
-146 1313 0
-147 1313 0
-148 1313 0
-149 1313 0
-1314 181 182 183 184 185 0
-181 1314 0
-182 1314 0
-183 1314 0
-184 1314 0
-185 1314 0
-1309 1315 0
-1316 0
-1317 0
-1318 0
-1319 0
-1310 1320 0
-1315 1320 0
-1310 -1315 1321 0
-1316 1321 0
-1310 -1316 1322 0
-1317 1322 0
-1310 -1317 1323 0
-1318 1323 0
-1310 -1318 1324 0
-1319 1324 0
-1310 -1319 0
-1311 1325 0
-1320 1325 0
-1311 -1320 1326 0
-1321 1326 0
-1311 -1321 1327 0
-1322 1327 0
-1311 -1322 1328 0
-1323 1328 0
-1311 -1323 1329 0
-1324 1329 0
-1311 -1324 0
-1312 1330 0
-1325 1330 0
-1312 -1325 1331 0
-1326 1331 0
-1312 -1326 1332 0
-1327 1332 0
-1312 -1327 1333 0
-1328 1333 0
-1312 -1328 1334 0
-1329 1334 0
-1312 -1329 0
-1313 1335 0
-1330 1335 0
-1313 -1330 1336 0
-1331 1336 0
-1313 -1331 1337 0
-1332 1337 0
-1313 -1332 1338 0
-1333 1338 0
-1313 -1333 1339 0
-1334 1339 0
-1313 -1334 0
-1314 -1339 0
-1345 2 0
-2 1345 0
-1346 38 0
-38 1346 0
-1347 74 0
-74 1347 0
-1348 110 0
-110 1348 0
-1349 146 0
-146 1349 0
-1350 182 0
-182 1350 0
-1345 1351 0
-1346 1352 0
-1351 1352 0
-1346 -1351 0
-1347 1353 0
-1352 1353 0
-1347 -1352 0
-1348 1354 0
-1353 1354 0
-1348 -1353 0
-1349 1355 0
-1354 1355 0
-1349 -1354 0
-1350 -1355 0
-1357 2 3 4 5 6 0
-2 1357 0
-3 1357 0
-4 1357 0
-5 1357 0
-6 1357 0
-1358 38 39 40 41 42 0
-38 1358 0
-39 1358 0
-40 1358 0
-41 1358 0
-42 1358 0
-1359 74 75 76 77 78 0
-74 1359 0
-75 1359 0
-76 1359 0
-77 1359 0
-78 1359 0
-1360 110 111 112 113 114 0
-110 1360 0
-111 1360 0
-112 1360 0
-113 1360 0
-114 1360 0
-1361 146 147 148 149 150 0
-146 1361 0
-147 1361 0
-148 1361 0
-149 1361 0
-150 1361 0
-1362 182 183 184 185 186 0
-182 1362 0
-183 1362 0
-184 1362 0
-185 1362 0
-186 1362 0
-1357 1363 0
-1364 0
-1365 0
-1366 0
-1367 0
-1358 1368 0
-1363 1368 0
-1358 -1363 1369 0
-1364 1369 0
-1358 -1364 1370 0
-1365 1370 0
-1358 -1365 1371 0
-1366 1371 0
-1358 -1366 1372 0
-1367 1372 0
-1358 -1367 0
-1359 1373 0
-1368 1373 0
-1359 -1368 1374 0
-1369 1374 0
-1359 -1369 1375 0
-1370 1375 0
-1359 -1370 1376 0
-1371 1376 0
-1359 -1371 1377 0
-1372 1377 0
-1359 -1372 0
-1360 1378 0
-1373 1378 0
-1360 -1373 1379 0
-1374 1379 0
-1360 -1374 1380 0
-1375 1380 0
-1360 -1375 1381 0
-1376 1381 0
-1360 -1376 1382 0
-1377 1382 0
-1360 -1377 0
-1361 1383 0
-1378 1383 0
-1361 -1378 1384 0
-1379 1384 0
-1361 -1379 1385 0
-1380 1385 0
-1361 -1380 1386 0
-1381 1386 0
-1361 -1381 1387 0
-1382 1387 0
-1361 -1382 0
-1362 -1387 0
-1393 3 0
-3 1393 0
-1394 39 0
-39 1394 0
-1395 75 0
-75 1395 0
-1396 111 0
-111 1396 0
-1397 147 0
-147 1397 0
-1398 183 0
-183 1398 0
-1393 1399 0
-1394 1400 0
-1399 1400 0
-1394 -1399 0
-1395 1401 0
-1400 1401 0
-1395 -1400 0
-1396 1402 0
-1401 1402 0
-1396 -1401 0
-1397 1403 0
-1402 1403 0
-1397 -1402 0
-1398 -1403 0
-1405 4 0
-4 1405 0
-1406 40 0
-40 1406 0
-1407 76 0
-76 1407 0
-1408 112 0
-112 1408 0
-1409 148 0
-148 1409 0
-1410 184 0
-184 1410 0
-1405 1411 0
-1406 1412 0
-1411 1412 0
-1406 -1411 0
-1407 1413 0
-1412 1413 0
-1407 -1412 0
-1408 1414 0
-1413 1414 0
-1408 -1413 0
-1409 1415 0
-1414 1415 0
-1409 -1414 0
-1410 -1415 0
-1417 5 0
-5 1417 0
-1418 41 0
-41 1418 0
-1419 77 0
-77 1419 0
-1420 113 0
-113 1420 0
-1421 149 0
-149 1421 0
-1422 185 0
-185 1422 0
-1417 1423 0
-1418 1424 0
-1423 1424 0
-1418 -1423 0
-1419 1425 0
-1424 1425 0
-1419 -1424 0
-1420 1426 0
-1425 1426 0
-1420 -1425 0
-1421 1427 0
-1426 1427 0
-1421 -1426 0
-1422 -1427 0
-1429 6 0
-6 1429 0
-1430 42 0
-42 1430 0
-1431 78 0
-78 1431 0
-1432 114 0
-114 1432 0
-1433 150 0
-150 1433 0
-1434 186 0
-186 1434 0
-1429 1435 0
-1430 1436 0
-1435 1436 0
-1430 -1435 0
-1431 1437 0
-1436 1437 0
-1431 -1436 0
-1432 1438 0
-1437 1438 0
-1432 -1437 0
-1433 1439 0
-1438 1439 0
-1433 -1438 0
-1434 -1439 0
-1441 7 0
-7 1441 0
-1442 43 0
-43 1442 0
-1443 79 0
-79 1443 0
-1444 115 0
-115 1444 0
-1445 151 0
-151 1445 0
-1446 187 0
-187 1446 0
-1441 1447 0
-1442 1448 0
-1447 1448 0
-1442 -1447 0
-1443 1449 0
-1448 1449 0
-1443 -1448 0
-1444 1450 0
-1449 1450 0
-1444 -1449 0
-1445 1451 0
-1450 1451 0
-1445 -1450 0
-1446 -1451 0
-1453 7 8 9 10 11 0
-7 1453 0
-8 1453 0
-9 1453 0
-10 1453 0
-11 1453 0
-1454 43 44 45 46 47 0
-43 1454 0
-44 1454 0
-45 1454 0
-46 1454 0
-47 1454 0
-1455 79 80 81 82 83 0
-79 1455 0
-80 1455 0
-81 1455 0
-82 1455 0
-83 1455 0
-1456 115 116 117 118 119 0
-115 1456 0
-116 1456 0
-117 1456 0
-118 1456 0
-119 1456 0
-1457 151 152 153 154 155 0
-151 1457 0
-152 1457 0
-153 1457 0
-154 1457 0
-155 1457 0
-1458 187 188 189 190 191 0
-187 1458 0
-188 1458 0
-189 1458 0
-190 1458 0
-191 1458 0
-1453 1459 0
-1460 0
-1461 0
-1462 0
-1463 0
-1454 1464 0
-1459 1464 0
-1454 -1459 1465 0
-1460 1465 0
-1454 -1460 1466 0
-1461 1466 0
-1454 -1461 1467 0
-1462 1467 0
-1454 -1462 1468 0
-1463 1468 0
-1454 -1463 0
-1455 1469 0
-1464 1469 0
-1455 -1464 1470 0
-1465 1470 0
-1455 -1465 1471 0
-1466 1471 0
-1455 -1466 1472 0
-1467 1472 0
-1455 -1467 1473 0
-1468 1473 0
-1455 -1468 0
-1456 1474 0
-1469 1474 0
-1456 -1469 1475 0
-1470 1475 0
-1456 -1470 1476 0
-1471 1476 0
-1456 -1471 1477 0
-1472 1477 0
-1456 -1472 1478 0
-1473 1478 0
-1456 -1473 0
-1457 1479 0
-1474 1479 0
-1457 -1474 1480 0
-1475 1480 0
-1457 -1475 1481 0
-1476 1481 0
-1457 -1476 1482 0
-1477 1482 0
-1457 -1477 1483 0
-1478 1483 0
-1457 -1478 0
-1458 -1483 0
-1489 8 0
-8 1489 0
-1490 44 0
-44 1490 0
-1491 80 0
-80 1491 0
-1492 116 0
-116 1492 0
-1493 152 0
-152 1493 0
-1494 188 0
-188 1494 0
-1489 1495 0
-1490 1496 0
-1495 1496 0
-1490 -1495 0
-1491 1497 0
-1496 1497 0
-1491 -1496 0
-1492 1498 0
-1497 1498 0
-1492 -1497 0
-1493 1499 0
-1498 1499 0
-1493 -1498 0
-1494 -1499 0
-1501 8 9 10 11 12 0
-8 1501 0
-9 1501 0
-10 1501 0
-11 1501 0
-12 1501 0
-1502 44 45 46 47 48 0
-44 1502 0
-45 1502 0
-46 1502 0
-47 1502 0
-48 1502 0
-1503 80 81 82 83 84 0
-80 1503 0
-81 1503 0
-82 1503 0
-83 1503 0
-84 1503 0
-1504 116 117 118 119 120 0
-116 1504 0
-117 1504 0
-118 1504 0
-119 1504 0
-120 1504 0
-1505 152 153 154 155 156 0
-152 1505 0
-153 1505 0
-154 1505 0
-155 1505 0
-156 1505 0
-1506 188 189 190 191 192 0
-188 1506 0
-189 1506 0
-190 1506 0
-191 1506 0
-192 1506 0
-1501 1507 0
-1508 0
-1509 0
-1510 0
-1511 0
-1502 1512 0
-1507 1512 0
-1502 -1507 1513 0
-1508 1513 0
-1502 -1508 1514 0
-1509 1514 0
-1502 -1509 1515 0
-1510 1515 0
-1502 -1510 1516 0
-1511 1516 0
-1502 -1511 0
-1503 1517 0
-1512 1517 0
-1503 -1512 1518 0
-1513 1518 0
-1503 -1513 1519 0
-1514 1519 0
-1503 -1514 1520 0
-1515 1520 0
-1503 -1515 1521 0
-1516 1521 0
-1503 -1516 0
-1504 1522 0
-1517 1522 0
-1504 -1517 1523 0
-1518 1523 0
-1504 -1518 1524 0
-1519 1524 0
-1504 -1519 1525 0
-1520 1525 0
-1504 -1520 1526 0
-1521 1526 0
-1504 -1521 0
-1505 1527 0
-1522 1527 0
-1505 -1522 1528 0
-1523 1528 0
-1505 -1523 1529 0
-1524 1529 0
-1505 -1524 1530 0
-1525 1530 0
-1505 -1525 1531 0
-1526 1531 0
-1505 -1526 0
-1506 -1531 0
-1537 9 0
-9 1537 0
-1538 45 0
-45 1538 0
-1539 81 0
-81 1539 0
-1540 117 0
-117 1540 0
-1541 153 0
-153 1541 0
-1542 189 0
-189 1542 0
-1537 1543 0
-1538 1544 0
-1543 1544 0
-1538 -1543 0
-1539 1545 0
-1544 1545 0
-1539 -1544 0
-1540 1546 0
-1545 1546 0
-1540 -1545 0
-1541 1547 0
-1546 1547 0
-1541 -1546 0
-1542 -1547 0
-1549 10 0
-10 1549 0
-1550 46 0
-46 1550 0
-1551 82 0
-82 1551 0
-1552 118 0
-118 1552 0
-1553 154 0
-154 1553 0
-1554 190 0
-190 1554 0
-1549 1555 0
-1550 1556 0
-1555 1556 0
-1550 -1555 0
-1551 1557 0
-1556 1557 0
-1551 -1556 0
-1552 1558 0
-1557 1558 0
-1552 -1557 0
-1553 1559 0
-1558 1559 0
-1553 -1558 0
-1554 -1559 0
-1561 11 0
-11 1561 0
-1562 47 0
-47 1562 0
-1563 83 0
-83 1563 0
-1564 119 0
-119 1564 0
-1565 155 0
-155 1565 0
-1566 191 0
-191 1566 0
-1561 1567 0
-1562 1568 0
-1567 1568 0
-1562 -1567 0
-1563 1569 0
-1568 1569 0
-1563 -1568 0
-1564 1570 0
-1569 1570 0
-1564 -1569 0
-1565 1571 0
-1570 1571 0
-1565 -1570 0
-1566 -1571 0
-1573 12 0
-12 1573 0
-1574 48 0
-48 1574 0
-1575 84 0
-84 1575 0
-1576 120 0
-120 1576 0
-1577 156 0
-156 1577 0
-1578 192 0
-192 1578 0
-1573 1579 0
-1574 1580 0
-1579 1580 0
-1574 -1579 0
-1575 1581 0
-1580 1581 0
-1575 -1580 0
-1576 1582 0
-1581 1582 0
-1576 -1581 0
-1577 1583 0
-1582 1583 0
-1577 -1582 0
-1578 -1583 0
-1585 13 0
-13 1585 0
-1586 49 0
-49 1586 0
-1587 85 0
-85 1587 0
-1588 121 0
-121 1588 0
-1589 157 0
-157 1589 0
-1590 193 0
-193 1590 0
-1585 1591 0
-1586 1592 0
-1591 1592 0
-1586 -1591 0
-1587 1593 0
-1592 1593 0
-1587 -1592 0
-1588 1594 0
-1593 1594 0
-1588 -1593 0
-1589 1595 0
-1594 1595 0
-1589 -1594 0
-1590 -1595 0
-1597 13 14 15 16 17 0
-13 1597 0
-14 1597 0
-15 1597 0
-16 1597 0
-17 1597 0
-1598 49 50 51 52 53 0
-49 1598 0
-50 1598 0
-51 1598 0
-52 1598 0
-53 1598 0
-1599 85 86 87 88 89 0
-85 1599 0
-86 1599 0
-87 1599 0
-88 1599 0
-89 1599 0
-1600 121 122 123 124 125 0
-121 1600 0
-122 1600 0
-123 1600 0
-124 1600 0
-125 1600 0
-1601 157 158 159 160 161 0
-157 1601 0
-158 1601 0
-159 1601 0
-160 1601 0
-161 1601 0
-1602 193 194 195 196 197 0
-193 1602 0
-194 1602 0
-195 1602 0
-196 1602 0
-197 1602 0
-1597 1603 0
-1604 0
-1605 0
-1606 0
-1607 0
-1598 1608 0
-1603 1608 0
-1598 -1603 1609 0
-1604 1609 0
-1598 -1604 1610 0
-1605 1610 0
-1598 -1605 1611 0
-1606 1611 0
-1598 -1606 1612 0
-1607 1612 0
-1598 -1607 0
-1599 1613 0
-1608 1613 0
-1599 -1608 1614 0
-1609 1614 0
-1599 -1609 1615 0
-1610 1615 0
-1599 -1610 1616 0
-1611 1616 0
-1599 -1611 1617 0
-1612 1617 0
-1599 -1612 0
-1600 1618 0
-1613 1618 0
-1600 -1613 1619 0
-1614 1619 0
-1600 -1614 1620 0
-1615 1620 0
-1600 -1615 1621 0
-1616 1621 0
-1600 -1616 1622 0
-1617 1622 0
-1600 -1617 0
-1601 1623 0
-1618 1623 0
-1601 -1618 1624 0
-1619 1624 0
-1601 -1619 1625 0
-1620 1625 0
-1601 -1620 1626 0
-1621 1626 0
-1601 -1621 1627 0
-1622 1627 0
-1601 -1622 0
-1602 -1627 0
-1633 14 0
-14 1633 0
-1634 50 0
-50 1634 0
-1635 86 0
-86 1635 0
-1636 122 0
-122 1636 0
-1637 158 0
-158 1637 0
-1638 194 0
-194 1638 0
-1633 1639 0
-1634 1640 0
-1639 1640 0
-1634 -1639 0
-1635 1641 0
-1640 1641 0
-1635 -1640 0
-1636 1642 0
-1641 1642 0
-1636 -1641 0
-1637 1643 0
-1642 1643 0
-1637 -1642 0
-1638 -1643 0
-1645 14 15 16 17 18 0
-14 1645 0
-15 1645 0
-16 1645 0
-17 1645 0
-18 1645 0
-1646 50 51 52 53 54 0
-50 1646 0
-51 1646 0
-52 1646 0
-53 1646 0
-54 1646 0
-1647 86 87 88 89 90 0
-86 1647 0
-87 1647 0
-88 1647 0
-89 1647 0
-90 1647 0
-1648 122 123 124 125 126 0
-122 1648 0
-123 1648 0
-124 1648 0
-125 1648 0
-126 1648 0
-1649 158 159 160 161 162 0
-158 1649 0
-159 1649 0
-160 1649 0
-161 1649 0
-162 1649 0
-1650 194 195 196 197 198 0
-194 1650 0
-195 1650 0
-196 1650 0
-197 1650 0
-198 1650 0
-1645 1651 0
-1652 0
-1653 0
-1654 0
-1655 0
-1646 1656 0
-1651 1656 0
-1646 -1651 1657 0
-1652 1657 0
-1646 -1652 1658 0
-1653 1658 0
-1646 -1653 1659 0
-1654 1659 0
-1646 -1654 1660 0
-1655 1660 0
-1646 -1655 0
-1647 1661 0
-1656 1661 0
-1647 -1656 1662 0
-1657 1662 0
-1647 -1657 1663 0
-1658 1663 0
-1647 -1658 1664 0
-1659 1664 0
-1647 -1659 1665 0
-1660 1665 0
-1647 -1660 0
-1648 1666 0
-1661 1666 0
-1648 -1661 1667 0
-1662 1667 0
-1648 -1662 1668 0
-1663 1668 0
-1648 -1663 1669 0
-1664 1669 0
-1648 -1664 1670 0
-1665 1670 0
-1648 -1665 0
-1649 1671 0
-1666 1671 0
-1649 -1666 1672 0
-1667 1672 0
-1649 -1667 1673 0
-1668 1673 0
-1649 -1668 1674 0
-1669 1674 0
-1649 -1669 1675 0
-1670 1675 0
-1649 -1670 0
-1650 -1675 0
-1681 15 0
-15 1681 0
-1682 51 0
-51 1682 0
-1683 87 0
-87 1683 0
-1684 123 0
-123 1684 0
-1685 159 0
-159 1685 0
-1686 195 0
-195 1686 0
-1681 1687 0
-1682 1688 0
-1687 1688 0
-1682 -1687 0
-1683 1689 0
-1688 1689 0
-1683 -1688 0
-1684 1690 0
-1689 1690 0
-1684 -1689 0
-1685 1691 0
-1690 1691 0
-1685 -1690 0
-1686 -1691 0
-1693 16 0
-16 1693 0
-1694 52 0
-52 1694 0
-1695 88 0
-88 1695 0
-1696 124 0
-124 1696 0
-1697 160 0
-160 1697 0
-1698 196 0
-196 1698 0
-1693 1699 0
-1694 1700 0
-1699 1700 0
-1694 -1699 0
-1695 1701 0
-1700 1701 0
-1695 -1700 0
-1696 1702 0
-1701 1702 0
-1696 -1701 0
-1697 1703 0
-1702 1703 0
-1697 -1702 0
-1698 -1703 0
-1705 17 0
-17 1705 0
-1706 53 0
-53 1706 0
-1707 89 0
-89 1707 0
-1708 125 0
-125 1708 0
-1709 161 0
-161 1709 0
-1710 197 0
-197 1710 0
-1705 1711 0
-1706 1712 0
-1711 1712 0
-1706 -1711 0
-1707 1713 0
-1712 1713 0
-1707 -1712 0
-1708 1714 0
-1713 1714 0
-1708 -1713 0
-1709 1715 0
-1714 1715 0
-1709 -1714 0
-1710 -1715 0
-1717 18 0
-18 1717 0
-1718 54 0
-54 1718 0
-1719 90 0
-90 1719 0
-1720 126 0
-126 1720 0
-1721 162 0
-162 1721 0
-1722 198 0
-198 1722 0
-1717 1723 0
-1718 1724 0
-1723 1724 0
-1718 -1723 0
-1719 1725 0
-1724 1725 0
-1719 -1724 0
-1720 1726 0
-1725 1726 0
-1720 -1725 0
-1721 1727 0
-1726 1727 0
-1721 -1726 0
-1722 -1727 0
-1729 19 0
-19 1729 0
-1730 55 0
-55 1730 0
-1731 91 0
-91 1731 0
-1732 127 0
-127 1732 0
-1733 163 0
-163 1733 0
-1734 199 0
-199 1734 0
-1729 1735 0
-1730 1736 0
-1735 1736 0
-1730 -1735 0
-1731 1737 0
-1736 1737 0
-1731 -1736 0
-1732 1738 0
-1737 1738 0
-1732 -1737 0
-1733 1739 0
-1738 1739 0
-1733 -1738 0
-1734 -1739 0
-1741 19 20 21 22 23 0
-19 1741 0
-20 1741 0
-21 1741 0
-22 1741 0
-23 1741 0
-1742 55 56 57 58 59 0
-55 1742 0
-56 1742 0
-57 1742 0
-58 1742 0
-59 1742 0
-1743 91 92 93 94 95 0
-91 1743 0
-92 1743 0
-93 1743 0
-94 1743 0
-95 1743 0
-1744 127 128 129 130 131 0
-127 1744 0
-128 1744 0
-129 1744 0
-130 1744 0
-131 1744 0
-1745 163 164 165 166 167 0
-163 1745 0
-164 1745 0
-165 1745 0
-166 1745 0
-167 1745 0
-1746 199 200 201 202 203 0
-199 1746 0
-200 1746 0
-201 1746 0
-202 1746 0
-203 1746 0
-1741 1747 0
-1748 0
-1749 0
-1750 0
-1751 0
-1742 1752 0
-1747 1752 0
-1742 -1747 1753 0
-1748 1753 0
-1742 -1748 1754 0
-1749 1754 0
-1742 -1749 1755 0
-1750 1755 0
-1742 -1750 1756 0
-1751 1756 0
-1742 -1751 0
-1743 1757 0
-1752 1757 0
-1743 -1752 1758 0
-1753 1758 0
-1743 -1753 1759 0
-1754 1759 0
-1743 -1754 1760 0
-1755 1760 0
-1743 -1755 1761 0
-1756 1761 0
-1743 -1756 0
-1744 1762 0
-1757 1762 0
-1744 -1757 1763 0
-1758 1763 0
-1744 -1758 1764 0
-1759 1764 0
-1744 -1759 1765 0
-1760 1765 0
-1744 -1760 1766 0
-1761 1766 0
-1744 -1761 0
-1745 1767 0
-1762 1767 0
-1745 -1762 1768 0
-1763 1768 0
-1745 -1763 1769 0
-1764 1769 0
-1745 -1764 1770 0
-1765 1770 0
-1745 -1765 1771 0
-1766 1771 0
-1745 -1766 0
-1746 -1771 0
-1777 20 0
-20 1777 0
-1778 56 0
-56 1778 0
-1779 92 0
-92 1779 0
-1780 128 0
-128 1780 0
-1781 164 0
-164 1781 0
-1782 200 0
-200 1782 0
-1777 1783 0
-1778 1784 0
-1783 1784 0
-1778 -1783 0
-1779 1785 0
-1784 1785 0
-1779 -1784 0
-1780 1786 0
-1785 1786 0
-1780 -1785 0
-1781 1787 0
-1786 1787 0
-1781 -1786 0
-1782 -1787 0
-1789 20 21 22 23 24 0
-20 1789 0
-21 1789 0
-22 1789 0
-23 1789 0
-24 1789 0
-1790 56 57 58 59 60 0
-56 1790 0
-57 1790 0
-58 1790 0
-59 1790 0
-60 1790 0
-1791 92 93 94 95 96 0
-92 1791 0
-93 1791 0
-94 1791 0
-95 1791 0
-96 1791 0
-1792 128 129 130 131 132 0
-128 1792 0
-129 1792 0
-130 1792 0
-131 1792 0
-132 1792 0
-1793 164 165 166 167 168 0
-164 1793 0
-165 1793 0
-166 1793 0
-167 1793 0
-168 1793 0
-1794 200 201 202 203 204 0
-200 1794 0
-201 1794 0
-202 1794 0
-203 1794 0
-204 1794 0
-1789 1795 0
-1796 0
-1797 0
-1798 0
-1799 0
-1790 1800 0
-1795 1800 0
-1790 -1795 1801 0
-1796 1801 0
-1790 -1796 1802 0
-1797 1802 0
-1790 -1797 1803 0
-1798 1803 0
-1790 -1798 1804 0
-1799 1804 0
-1790 -1799 0
-1791 1805 0
-1800 1805 0
-1791 -1800 1806 0
-1801 1806 0
-1791 -1801 1807 0
-1802 1807 0
-1791 -1802 1808 0
-1803 1808 0
-1791 -1803 1809 0
-1804 1809 0
-1791 -1804 0
-1792 1810 0
-1805 1810 0
-1792 -1805 1811 0
-1806 1811 0
-1792 -1806 1812 0
-1807 1812 0
-1792 -1807 1813 0
-1808 1813 0
-1792 -1808 1814 0
-1809 1814 0
-1792 -1809 0
-1793 1815 0
-1810 1815 0
-1793 -1810 1816 0
-1811 1816 0
-1793 -1811 1817 0
-1812 1817 0
-1793 -1812 1818 0
-1813 1818 0
-1793 -1813 1819 0
-1814 1819 0
-1793 -1814 0
-1794 -1819 0
-1825 21 0
-21 1825 0
-1826 57 0
-57 1826 0
-1827 93 0
-93 1827 0
-1828 129 0
-129 1828 0
-1829 165 0
-165 1829 0
-1830 201 0
-201 1830 0
-1825 1831 0
-1826 1832 0
-1831 1832 0
-1826 -1831 0
-1827 1833 0
-1832 1833 0
-1827 -1832 0
-1828 1834 0
-1833 1834 0
-1828 -1833 0
-1829 1835 0
-1834 1835 0
-1829 -1834 0
-1830 -1835 0
-1837 22 0
-22 1837 0
-1838 58 0
-58 1838 0
-1839 94 0
-94 1839 0
-1840 130 0
-130 1840 0
-1841 166 0
-166 1841 0
-1842 202 0
-202 1842 0
-1837 1843 0
-1838 1844 0
-1843 1844 0
-1838 -1843 0
-1839 1845 0
-1844 1845 0
-1839 -1844 0
-1840 1846 0
-1845 1846 0
-1840 -1845 0
-1841 1847 0
-1846 1847 0
-1841 -1846 0
-1842 -1847 0
-1849 23 0
-23 1849 0
-1850 59 0
-59 1850 0
-1851 95 0
-95 1851 0
-1852 131 0
-131 1852 0
-1853 167 0
-167 1853 0
-1854 203 0
-203 1854 0
-1849 1855 0
-1850 1856 0
-1855 1856 0
-1850 -1855 0
-1851 1857 0
-1856 1857 0
-1851 -1856 0
-1852 1858 0
-1857 1858 0
-1852 -1857 0
-1853 1859 0
-1858 1859 0
-1853 -1858 0
-1854 -1859 0
-1861 24 0
-24 1861 0
-1862 60 0
-60 1862 0
-1863 96 0
-96 1863 0
-1864 132 0
-132 1864 0
-1865 168 0
-168 1865 0
-1866 204 0
-204 1866 0
-1861 1867 0
-1862 1868 0
-1867 1868 0
-1862 -1867 0
-1863 1869 0
-1868 1869 0
-1863 -1868 0
-1864 1870 0
-1869 1870 0
-1864 -1869 0
-1865 1871 0
-1870 1871 0
-1865 -1870 0
-1866 -1871 0
-1873 25 0
-25 1873 0
-1874 61 0
-61 1874 0
-1875 97 0
-97 1875 0
-1876 133 0
-133 1876 0
-1877 169 0
-169 1877 0
-1878 205 0
-205 1878 0
-1873 1879 0
-1874 1880 0
-1879 1880 0
-1874 -1879 0
-1875 1881 0
-1880 1881 0
-1875 -1880 0
-1876 1882 0
-1881 1882 0
-1876 -1881 0
-1877 1883 0
-1882 1883 0
-1877 -1882 0
-1878 -1883 0
-1885 25 26 27 28 29 0
-25 1885 0
-26 1885 0
-27 1885 0
-28 1885 0
-29 1885 0
-1886 61 62 63 64 65 0
-61 1886 0
-62 1886 0
-63 1886 0
-64 1886 0
-65 1886 0
-1887 97 98 99 100 101 0
-97 1887 0
-98 1887 0
-99 1887 0
-100 1887 0
-101 1887 0
-1888 133 134 135 136 137 0
-133 1888 0
-134 1888 0
-135 1888 0
-136 1888 0
-137 1888 0
-1889 169 170 171 172 173 0
-169 1889 0
-170 1889 0
-171 1889 0
-172 1889 0
-173 1889 0
-1890 205 206 207 208 209 0
-205 1890 0
-206 1890 0
-207 1890 0
-208 1890 0
-209 1890 0
-1885 1891 0
-1892 0
-1893 0
-1894 0
-1895 0
-1886 1896 0
-1891 1896 0
-1886 -1891 1897 0
-1892 1897 0
-1886 -1892 1898 0
-1893 1898 0
-1886 -1893 1899 0
-1894 1899 0
-1886 -1894 1900 0
-1895 1900 0
-1886 -1895 0
-1887 1901 0
-1896 1901 0
-1887 -1896 1902 0
-1897 1902 0
-1887 -1897 1903 0
-1898 1903 0
-1887 -1898 1904 0
-1899 1904 0
-1887 -1899 1905 0
-1900 1905 0
-1887 -1900 0
-1888 1906 0
-1901 1906 0
-1888 -1901 1907 0
-1902 1907 0
-1888 -1902 1908 0
-1903 1908 0
-1888 -1903 1909 0
-1904 1909 0
-1888 -1904 1910 0
-1905 1910 0
-1888 -1905 0
-1889 1911 0
-1906 1911 0
-1889 -1906 1912 0
-1907 1912 0
-1889 -1907 1913 0
-1908 1913 0
-1889 -1908 1914 0
-1909 1914 0
-1889 -1909 1915 0
-1910 1915 0
-1889 -1910 0
-1890 -1915 0
-1921 26 0
-26 1921 0
-1922 62 0
-62 1922 0
-1923 98 0
-98 1923 0
-1924 134 0
-134 1924 0
-1925 170 0
-170 1925 0
-1926 206 0
-206 1926 0
-1921 1927 0
-1922 1928 0
-1927 1928 0
-1922 -1927 0
-1923 1929 0
-1928 1929 0
-1923 -1928 0
-1924 1930 0
-1929 1930 0
-1924 -1929 0
-1925 1931 0
-1930 1931 0
-1925 -1930 0
-1926 -1931 0
-1933 26 27 28 29 30 0
-26 1933 0
-27 1933 0
-28 1933 0
-29 1933 0
-30 1933 0
-1934 62 63 64 65 66 0
-62 1934 0
-63 1934 0
-64 1934 0
-65 1934 0
-66 1934 0
-1935 98 99 100 101 102 0
-98 1935 0
-99 1935 0
-100 1935 0
-101 1935 0
-102 1935 0
-1936 134 135 136 137 138 0
-134 1936 0
-135 1936 0
-136 1936 0
-137 1936 0
-138 1936 0
-1937 170 171 172 173 174 0
-170 1937 0
-171 1937 0
-172 1937 0
-173 1937 0
-174 1937 0
-1938 206 207 208 209 210 0
-206 1938 0
-207 1938 0
-208 1938 0
-209 1938 0
-210 1938 0
-1933 1939 0
-1940 0
-1941 0
-1942 0
-1943 0
-1934 1944 0
-1939 1944 0
-1934 -1939 1945 0
-1940 1945 0
-1934 -1940 1946 0
-1941 1946 0
-1934 -1941 1947 0
-1942 1947 0
-1934 -1942 1948 0
-1943 1948 0
-1934 -1943 0
-1935 1949 0
-1944 1949 0
-1935 -1944 1950 0
-1945 1950 0
-1935 -1945 1951 0
-1946 1951 0
-1935 -1946 1952 0
-1947 1952 0
-1935 -1947 1953 0
-1948 1953 0
-1935 -1948 0
-1936 1954 0
-1949 1954 0
-1936 -1949 1955 0
-1950 1955 0
-1936 -1950 1956 0
-1951 1956 0
-1936 -1951 1957 0
-1952 1957 0
-1936 -1952 1958 0
-1953 1958 0
-1936 -1953 0
-1937 1959 0
-1954 1959 0
-1937 -1954 1960 0
-1955 1960 0
-1937 -1955 1961 0
-1956 1961 0
-1937 -1956 1962 0
-1957 1962 0
-1937 -1957 1963 0
-1958 1963 0
-1937 -1958 0
-1938 -1963 0
-1969 27 0
-27 1969 0
-1970 63 0
-63 1970 0
-1971 99 0
-99 1971 0
-1972 135 0
-135 1972 0
-1973 171 0
-171 1973 0
-1974 207 0
-207 1974 0
-1969 1975 0
-1970 1976 0
-1975 1976 0
-1970 -1975 0
-1971 1977 0
-1976 1977 0
-1971 -1976 0
-1972 1978 0
-1977 1978 0
-1972 -1977 0
-1973 1979 0
-1978 1979 0
-1973 -1978 0
-1974 -1979 0
-1981 28 0
-28 1981 0
-1982 64 0
-64 1982 0
-1983 100 0
-100 1983 0
-1984 136 0
-136 1984 0
-1985 172 0
-172 1985 0
-1986 208 0
-208 1986 0
-1981 1987 0
-1982 1988 0
-1987 1988 0
-1982 -1987 0
-1983 1989 0
-1988 1989 0
-1983 -1988 0
-1984 1990 0
-1989 1990 0
-1984 -1989 0
-1985 1991 0
-1990 1991 0
-1985 -1990 0
-1986 -1991 0
-1993 29 0
-29 1993 0
-1994 65 0
-65 1994 0
-1995 101 0
-101 1995 0
-1996 137 0
-137 1996 0
-1997 173 0
-173 1997 0
-1998 209 0
-209 1998 0
-1993 1999 0
-1994 2000 0
-1999 2000 0
-1994 -1999 0
-1995 2001 0
-2000 2001 0
-1995 -2000 0
-1996 2002 0
-2001 2002 0
-1996 -2001 0
-1997 2003 0
-2002 2003 0
-1997 -2002 0
-1998 -2003 0
-2005 30 0
-30 2005 0
-2006 66 0
-66 2006 0
-2007 102 0
-102 2007 0
-2008 138 0
-138 2008 0
-2009 174 0
-174 2009 0
-2010 210 0
-210 2010 0
-2005 2011 0
-2006 2012 0
-2011 2012 0
-2006 -2011 0
-2007 2013 0
-2012 2013 0
-2007 -2012 0
-2008 2014 0
-2013 2014 0
-2008 -2013 0
-2009 2015 0
-2014 2015 0
-2009 -2014 0
-2010 -2015 0
-2017 31 0
-31 2017 0
-2018 67 0
-67 2018 0
-2019 103 0
-103 2019 0
-2020 139 0
-139 2020 0
-2021 175 0
-175 2021 0
-2022 211 0
-211 2022 0
-2017 2023 0
-2018 2024 0
-2023 2024 0
-2018 -2023 0
-2019 2025 0
-2024 2025 0
-2019 -2024 0
-2020 2026 0
-2025 2026 0
-2020 -2025 0
-2021 2027 0
-2026 2027 0
-2021 -2026 0
-2022 -2027 0
-2029 31 32 33 34 35 0
-31 2029 0
-32 2029 0
-33 2029 0
-34 2029 0
-35 2029 0
-2030 67 68 69 70 71 0
-67 2030 0
-68 2030 0
-69 2030 0
-70 2030 0
-71 2030 0
-2031 103 104 105 106 107 0
-103 2031 0
-104 2031 0
-105 2031 0
-106 2031 0
-107 2031 0
-2032 139 140 141 142 143 0
-139 2032 0
-140 2032 0
-141 2032 0
-142 2032 0
-143 2032 0
-2033 175 176 177 178 179 0
-175 2033 0
-176 2033 0
-177 2033 0
-178 2033 0
-179 2033 0
-2034 211 212 213 214 215 0
-211 2034 0
-212 2034 0
-213 2034 0
-214 2034 0
-215 2034 0
-2029 2035 0
-2036 0
-2037 0
-2038 0
-2039 0
-2030 2040 0
-2035 2040 0
-2030 -2035 2041 0
-2036 2041 0
-2030 -2036 2042 0
-2037 2042 0
-2030 -2037 2043 0
-2038 2043 0
-2030 -2038 2044 0
-2039 2044 0
-2030 -2039 0
-2031 2045 0
-2040 2045 0
-2031 -2040 2046 0
-2041 2046 0
-2031 -2041 2047 0
-2042 2047 0
-2031 -2042 2048 0
-2043 2048 0
-2031 -2043 2049 0
-2044 2049 0
-2031 -2044 0
-2032 2050 0
-2045 2050 0
-2032 -2045 2051 0
-2046 2051 0
-2032 -2046 2052 0
-2047 2052 0
-2032 -2047 2053 0
-2048 2053 0
-2032 -2048 2054 0
-2049 2054 0
-2032 -2049 0
-2033 2055 0
-2050 2055 0
-2033 -2050 2056 0
-2051 2056 0
-2033 -2051 2057 0
-2052 2057 0
-2033 -2052 2058 0
-2053 2058 0
-2033 -2053 2059 0
-2054 2059 0
-2033 -2054 0
-2034 -2059 0
-2065 32 0
-32 2065 0
-2066 68 0
-68 2066 0
-2067 104 0
-104 2067 0
-2068 140 0
-140 2068 0
-2069 176 0
-176 2069 0
-2070 212 0
-212 2070 0
-2065 2071 0
-2066 2072 0
-2071 2072 0
-2066 -2071 0
-2067 2073 0
-2072 2073 0
-2067 -2072 0
-2068 2074 0
-2073 2074 0
-2068 -2073 0
-2069 2075 0
-2074 2075 0
-2069 -2074 0
-2070 -2075 0
-2077 32 33 34 35 36 0
-32 2077 0
-33 2077 0
-34 2077 0
-35 2077 0
-36 2077 0
-2078 68 69 70 71 72 0
-68 2078 0
-69 2078 0
-70 2078 0
-71 2078 0
-72 2078 0
-2079 104 105 106 107 108 0
-104 2079 0
-105 2079 0
-106 2079 0
-107 2079 0
-108 2079 0
-2080 140 141 142 143 144 0
-140 2080 0
-141 2080 0
-142 2080 0
-143 2080 0
-144 2080 0
-2081 176 177 178 179 180 0
-176 2081 0
-177 2081 0
-178 2081 0
-179 2081 0
-180 2081 0
-2082 212 213 214 215 216 0
-212 2082 0
-213 2082 0
-214 2082 0
-215 2082 0
-216 2082 0
-2077 2083 0
-2084 0
-2085 0
-2086 0
-2087 0
-2078 2088 0
-2083 2088 0
-2078 -2083 2089 0
-2084 2089 0
-2078 -2084 2090 0
-2085 2090 0
-2078 -2085 2091 0
-2086 2091 0
-2078 -2086 2092 0
-2087 2092 0
-2078 -2087 0
-2079 2093 0
-2088 2093 0
-2079 -2088 2094 0
-2089 2094 0
-2079 -2089 2095 0
-2090 2095 0
-2079 -2090 2096 0
-2091 2096 0
-2079 -2091 2097 0
-2092 2097 0
-2079 -2092 0
-2080 2098 0
-2093 2098 0
-2080 -2093 2099 0
-2094 2099 0
-2080 -2094 2100 0
-2095 2100 0
-2080 -2095 2101 0
-2096 2101 0
-2080 -2096 2102 0
-2097 2102 0
-2080 -2097 0
-2081 2103 0
-2098 2103 0
-2081 -2098 2104 0
-2099 2104 0
-2081 -2099 2105 0
-2100 2105 0
-2081 -2100 2106 0
-2101 2106 0
-2081 -2101 2107 0
-2102 2107 0
-2081 -2102 0
-2082 -2107 0
-2113 33 0
-33 2113 0
-2114 69 0
-69 2114 0
-2115 105 0
-105 2115 0
-2116 141 0
-141 2116 0
-2117 177 0
-177 2117 0
-2118 213 0
-213 2118 0
-2113 2119 0
-2114 2120 0
-2119 2120 0
-2114 -2119 0
-2115 2121 0
-2120 2121 0
-2115 -2120 0
-2116 2122 0
-2121 2122 0
-2116 -2121 0
-2117 2123 0
-2122 2123 0
-2117 -2122 0
-2118 -2123 0
-2125 34 0
-34 2125 0
-2126 70 0
-70 2126 0
-2127 106 0
-106 2127 0
-2128 142 0
-142 2128 0
-2129 178 0
-178 2129 0
-2130 214 0
-214 2130 0
-2125 2131 0
-2126 2132 0
-2131 2132 0
-2126 -2131 0
-2127 2133 0
-2132 2133 0
-2127 -2132 0
-2128 2134 0
-2133 2134 0
-2128 -2133 0
-2129 2135 0
-2134 2135 0
-2129 -2134 0
-2130 -2135 0
-2137 35 0
-35 2137 0
-2138 71 0
-71 2138 0
-2139 107 0
-107 2139 0
-2140 143 0
-143 2140 0
-2141 179 0
-179 2141 0
-2142 215 0
-215 2142 0
-2137 2143 0
-2138 2144 0
-2143 2144 0
-2138 -2143 0
-2139 2145 0
-2144 2145 0
-2139 -2144 0
-2140 2146 0
-2145 2146 0
-2140 -2145 0
-2141 2147 0
-2146 2147 0
-2141 -2146 0
-2142 -2147 0
-2149 36 0
-36 2149 0
-2150 72 0
-72 2150 0
-2151 108 0
-108 2151 0
-2152 144 0
-144 2152 0
-2153 180 0
-180 2153 0
-2154 216 0
-216 2154 0
-2149 2155 0
-2150 2156 0
-2155 2156 0
-2150 -2155 0
-2151 2157 0
-2156 2157 0
-2151 -2156 0
-2152 2158 0
-2157 2158 0
-2152 -2157 0
-2153 2159 0
-2158 2159 0
-2153 -2158 0
-2154 -2159 0
-2161 25 0
-25 2161 0
-2162 67 0
-67 2162 0
-2161 2163 0
-2162 -2163 0
-2165 26 0
-26 2165 0
-2166 68 0
-68 2166 0
-2165 2167 0
-2166 -2167 0
-2169 27 0
-27 2169 0
-2170 69 0
-69 2170 0
-2169 2171 0
-2170 -2171 0
-2173 28 0
-28 2173 0
-2174 70 0
-70 2174 0
-2173 2175 0
-2174 -2175 0
-2177 29 0
-29 2177 0
-2178 71 0
-71 2178 0
-2177 2179 0
-2178 -2179 0
-2181 30 0
-30 2181 0
-2182 72 0
-72 2182 0
-2181 2183 0
-2182 -2183 0
-2185 19 0
-19 2185 0
-2186 61 0
-61 2186 0
-2187 103 0
-103 2187 0
-2185 2188 0
-2186 2189 0
-2188 2189 0
-2186 -2188 0
-2187 -2189 0
-2191 20 0
-20 2191 0
-2192 62 0
-62 2192 0
-2193 104 0
-104 2193 0
-2191 2194 0
-2192 2195 0
-2194 2195 0
-2192 -2194 0
-2193 -2195 0
-2197 21 0
-21 2197 0
-2198 63 0
-63 2198 0
-2199 105 0
-105 2199 0
-2197 2200 0
-2198 2201 0
-2200 2201 0
-2198 -2200 0
-2199 -2201 0
-2203 22 0
-22 2203 0
-2204 64 0
-64 2204 0
-2205 106 0
-106 2205 0
-2203 2206 0
-2204 2207 0
-2206 2207 0
-2204 -2206 0
-2205 -2207 0
-2209 23 0
-23 2209 0
-2210 65 0
-65 2210 0
-2211 107 0
-107 2211 0
-2209 2212 0
-2210 2213 0
-2212 2213 0
-2210 -2212 0
-2211 -2213 0
-2215 24 0
-24 2215 0
-2216 66 0
-66 2216 0
-2217 108 0
-108 2217 0
-2215 2218 0
-2216 2219 0
-2218 2219 0
-2216 -2218 0
-2217 -2219 0
-2221 13 0
-13 2221 0
-2222 55 0
-55 2222 0
-2223 97 0
-97 2223 0
-2224 139 0
-139 2224 0
-2221 2225 0
-2222 2226 0
-2225 2226 0
-2222 -2225 0
-2223 2227 0
-2226 2227 0
-2223 -2226 0
-2224 -2227 0
-2229 14 0
-14 2229 0
-2230 56 0
-56 2230 0
-2231 98 0
-98 2231 0
-2232 140 0
-140 2232 0
-2229 2233 0
-2230 2234 0
-2233 2234 0
-2230 -2233 0
-2231 2235 0
-2234 2235 0
-2231 -2234 0
-2232 -2235 0
-2237 15 0
-15 2237 0
-2238 57 0
-57 2238 0
-2239 99 0
-99 2239 0
-2240 141 0
-141 2240 0
-2237 2241 0
-2238 2242 0
-2241 2242 0
-2238 -2241 0
-2239 2243 0
-2242 2243 0
-2239 -2242 0
-2240 -2243 0
-2245 16 0
-16 2245 0
-2246 58 0
-58 2246 0
-2247 100 0
-100 2247 0
-2248 142 0
-142 2248 0
-2245 2249 0
-2246 2250 0
-2249 2250 0
-2246 -2249 0
-2247 2251 0
-2250 2251 0
-2247 -2250 0
-2248 -2251 0
-2253 17 0
-17 2253 0
-2254 59 0
-59 2254 0
-2255 101 0
-101 2255 0
-2256 143 0
-143 2256 0
-2253 2257 0
-2254 2258 0
-2257 2258 0
-2254 -2257 0
-2255 2259 0
-2258 2259 0
-2255 -2258 0
-2256 -2259 0
-2261 18 0
-18 2261 0
-2262 60 0
-60 2262 0
-2263 102 0
-102 2263 0
-2264 144 0
-144 2264 0
-2261 2265 0
-2262 2266 0
-2265 2266 0
-2262 -2265 0
-2263 2267 0
-2266 2267 0
-2263 -2266 0
-2264 -2267 0
-2269 7 0
-7 2269 0
-2270 49 0
-49 2270 0
-2271 91 0
-91 2271 0
-2272 133 0
-133 2272 0
-2273 175 0
-175 2273 0
-2269 2274 0
-2270 2275 0
-2274 2275 0
-2270 -2274 0
-2271 2276 0
-2275 2276 0
-2271 -2275 0
-2272 2277 0
-2276 2277 0
-2272 -2276 0
-2273 -2277 0
-2279 7 8 9 10 11 0
-7 2279 0
-8 2279 0
-9 2279 0
-10 2279 0
-11 2279 0
-2280 49 50 51 52 53 0
-49 2280 0
-50 2280 0
-51 2280 0
-52 2280 0
-53 2280 0
-2281 91 92 93 94 95 0
-91 2281 0
-92 2281 0
-93 2281 0
-94 2281 0
-95 2281 0
-2282 133 134 135 136 137 0
-133 2282 0
-134 2282 0
-135 2282 0
-136 2282 0
-137 2282 0
-2283 175 176 177 178 179 0
-175 2283 0
-176 2283 0
-177 2283 0
-178 2283 0
-179 2283 0
-2284 8 0
-8 2284 0
-2285 50 0
-50 2285 0
-2286 92 0
-92 2286 0
-2287 134 0
-134 2287 0
-2288 176 0
-176 2288 0
-2284 2289 0
-2285 2290 0
-2289 2290 0
-2285 -2289 0
-2286 2291 0
-2290 2291 0
-2286 -2290 0
-2287 2292 0
-2291 2292 0
-2287 -2291 0
-2288 -2292 0
-2294 8 9 10 11 12 0
-8 2294 0
-9 2294 0
-10 2294 0
-11 2294 0
-12 2294 0
-2295 50 51 52 53 54 0
-50 2295 0
-51 2295 0
-52 2295 0
-53 2295 0
-54 2295 0
-2296 92 93 94 95 96 0
-92 2296 0
-93 2296 0
-94 2296 0
-95 2296 0
-96 2296 0
-2297 134 135 136 137 138 0
-134 2297 0
-135 2297 0
-136 2297 0
-137 2297 0
-138 2297 0
-2298 176 177 178 179 180 0
-176 2298 0
-177 2298 0
-178 2298 0
-179 2298 0
-180 2298 0
-2299 9 0
-9 2299 0
-2300 51 0
-51 2300 0
-2301 93 0
-93 2301 0
-2302 135 0
-135 2302 0
-2303 177 0
-177 2303 0
-2299 2304 0
-2300 2305 0
-2304 2305 0
-2300 -2304 0
-2301 2306 0
-2305 2306 0
-2301 -2305 0
-2302 2307 0
-2306 2307 0
-2302 -2306 0
-2303 -2307 0
-2309 10 0
-10 2309 0
-2310 52 0
-52 2310 0
-2311 94 0
-94 2311 0
-2312 136 0
-136 2312 0
-2313 178 0
-178 2313 0
-2309 2314 0
-2310 2315 0
-2314 2315 0
-2310 -2314 0
-2311 2316 0
-2315 2316 0
-2311 -2315 0
-2312 2317 0
-2316 2317 0
-2312 -2316 0
-2313 -2317 0
-2319 11 0
-11 2319 0
-2320 53 0
-53 2320 0
-2321 95 0
-95 2321 0
-2322 137 0
-137 2322 0
-2323 179 0
-179 2323 0
-2319 2324 0
-2320 2325 0
-2324 2325 0
-2320 -2324 0
-2321 2326 0
-2325 2326 0
-2321 -2325 0
-2322 2327 0
-2326 2327 0
-2322 -2326 0
-2323 -2327 0
-2329 12 0
-12 2329 0
-2330 54 0
-54 2330 0
-2331 96 0
-96 2331 0
-2332 138 0
-138 2332 0
-2333 180 0
-180 2333 0
-2329 2334 0
-2330 2335 0
-2334 2335 0
-2330 -2334 0
-2331 2336 0
-2335 2336 0
-2331 -2335 0
-2332 2337 0
-2336 2337 0
-2332 -2336 0
-2333 -2337 0
-2339 1 0
-1 2339 0
-2340 43 0
-43 2340 0
-2341 85 0
-85 2341 0
-2342 127 0
-127 2342 0
-2343 169 0
-169 2343 0
-2344 211 0
-211 2344 0
-2339 2345 0
-2340 2346 0
-2345 2346 0
-2340 -2345 0
-2341 2347 0
-2346 2347 0
-2341 -2346 0
-2342 2348 0
-2347 2348 0
-2342 -2347 0
-2343 2349 0
-2348 2349 0
-2343 -2348 0
-2344 -2349 0
-2351 1 2 3 4 5 0
-1 2351 0
-2 2351 0
-3 2351 0
-4 2351 0
-5 2351 0
-2352 43 44 45 46 47 0
-43 2352 0
-44 2352 0
-45 2352 0
-46 2352 0
-47 2352 0
-2353 85 86 87 88 89 0
-85 2353 0
-86 2353 0
-87 2353 0
-88 2353 0
-89 2353 0
-2354 127 128 129 130 131 0
-127 2354 0
-128 2354 0
-129 2354 0
-130 2354 0
-131 2354 0
-2355 169 170 171 172 173 0
-169 2355 0
-170 2355 0
-171 2355 0
-172 2355 0
-173 2355 0
-2356 211 212 213 214 215 0
-211 2356 0
-212 2356 0
-213 2356 0
-214 2356 0
-215 2356 0
-2351 2357 0
-2358 0
-2359 0
-2360 0
-2361 0
-2352 2362 0
-2357 2362 0
-2352 -2357 2363 0
-2358 2363 0
-2352 -2358 2364 0
-2359 2364 0
-2352 -2359 2365 0
-2360 2365 0
-2352 -2360 2366 0
-2361 2366 0
-2352 -2361 0
-2353 2367 0
-2362 2367 0
-2353 -2362 2368 0
-2363 2368 0
-2353 -2363 2369 0
-2364 2369 0
-2353 -2364 2370 0
-2365 2370 0
-2353 -2365 2371 0
-2366 2371 0
-2353 -2366 0
-2354 2372 0
-2367 2372 0
-2354 -2367 2373 0
-2368 2373 0
-2354 -2368 2374 0
-2369 2374 0
-2354 -2369 2375 0
-2370 2375 0
-2354 -2370 2376 0
-2371 2376 0
-2354 -2371 0
-2355 2377 0
-2372 2377 0
-2355 -2372 2378 0
-2373 2378 0
-2355 -2373 2379 0
-2374 2379 0
-2355 -2374 2380 0
-2375 2380 0
-2355 -2375 2381 0
-2376 2381 0
-2355 -2376 0
-2356 -2381 0
-2387 2 0
-2 2387 0
-2388 44 0
-44 2388 0
-2389 86 0
-86 2389 0
-2390 128 0
-128 2390 0
-2391 170 0
-170 2391 0
-2392 212 0
-212 2392 0
-2387 2393 0
-2388 2394 0
-2393 2394 0
-2388 -2393 0
-2389 2395 0
-2394 2395 0
-2389 -2394 0
-2390 2396 0
-2395 2396 0
-2390 -2395 0
-2391 2397 0
-2396 2397 0
-2391 -2396 0
-2392 -2397 0
-2399 2 3 4 5 6 0
-2 2399 0
-3 2399 0
-4 2399 0
-5 2399 0
-6 2399 0
-2400 44 45 46 47 48 0
-44 2400 0
-45 2400 0
-46 2400 0
-47 2400 0
-48 2400 0
-2401 86 87 88 89 90 0
-86 2401 0
-87 2401 0
-88 2401 0
-89 2401 0
-90 2401 0
-2402 128 129 130 131 132 0
-128 2402 0
-129 2402 0
-130 2402 0
-131 2402 0
-132 2402 0
-2403 170 171 172 173 174 0
-170 2403 0
-171 2403 0
-172 2403 0
-173 2403 0
-174 2403 0
-2404 212 213 214 215 216 0
-212 2404 0
-213 2404 0
-214 2404 0
-215 2404 0
-216 2404 0
-2399 2405 0
-2406 0
-2407 0
-2408 0
-2409 0
-2400 2410 0
-2405 2410 0
-2400 -2405 2411 0
-2406 2411 0
-2400 -2406 2412 0
-2407 2412 0
-2400 -2407 2413 0
-2408 2413 0
-2400 -2408 2414 0
-2409 2414 0
-2400 -2409 0
-2401 2415 0
-2410 2415 0
-2401 -2410 2416 0
-2411 2416 0
-2401 -2411 2417 0
-2412 2417 0
-2401 -2412 2418 0
-2413 2418 0
-2401 -2413 2419 0
-2414 2419 0
-2401 -2414 0
-2402 2420 0
-2415 2420 0
-2402 -2415 2421 0
-2416 2421 0
-2402 -2416 2422 0
-2417 2422 0
-2402 -2417 2423 0
-2418 2423 0
-2402 -2418 2424 0
-2419 2424 0
-2402 -2419 0
-2403 2425 0
-2420 2425 0
-2403 -2420 2426 0
-2421 2426 0
-2403 -2421 2427 0
-2422 2427 0
-2403 -2422 2428 0
-2423 2428 0
-2403 -2423 2429 0
-2424 2429 0
-2403 -2424 0
-2404 -2429 0
-2435 3 0
-3 2435 0
-2436 45 0
-45 2436 0
-2437 87 0
-87 2437 0
-2438 129 0
-129 2438 0
-2439 171 0
-171 2439 0
-2440 213 0
-213 2440 0
-2435 2441 0
-2436 2442 0
-2441 2442 0
-2436 -2441 0
-2437 2443 0
-2442 2443 0
-2437 -2442 0
-2438 2444 0
-2443 2444 0
-2438 -2443 0
-2439 2445 0
-2444 2445 0
-2439 -2444 0
-2440 -2445 0
-2447 4 0
-4 2447 0
-2448 46 0
-46 2448 0
-2449 88 0
-88 2449 0
-2450 130 0
-130 2450 0
-2451 172 0
-172 2451 0
-2452 214 0
-214 2452 0
-2447 2453 0
-2448 2454 0
-2453 2454 0
-2448 -2453 0
-2449 2455 0
-2454 2455 0
-2449 -2454 0
-2450 2456 0
-2455 2456 0
-2450 -2455 0
-2451 2457 0
-2456 2457 0
-2451 -2456 0
-2452 -2457 0
-2459 5 0
-5 2459 0
-2460 47 0
-47 2460 0
-2461 89 0
-89 2461 0
-2462 131 0
-131 2462 0
-2463 173 0
-173 2463 0
-2464 215 0
-215 2464 0
-2459 2465 0
-2460 2466 0
-2465 2466 0
-2460 -2465 0
-2461 2467 0
-2466 2467 0
-2461 -2466 0
-2462 2468 0
-2467 2468 0
-2462 -2467 0
-2463 2469 0
-2468 2469 0
-2463 -2468 0
-2464 -2469 0
-2471 6 0
-6 2471 0
-2472 48 0
-48 2472 0
-2473 90 0
-90 2473 0
-2474 132 0
-132 2474 0
-2475 174 0
-174 2475 0
-2476 216 0
-216 2476 0
-2471 2477 0
-2472 2478 0
-2477 2478 0
-2472 -2477 0
-2473 2479 0
-2478 2479 0
-2473 -2478 0
-2474 2480 0
-2479 2480 0
-2474 -2479 0
-2475 2481 0
-2480 2481 0
-2475 -2480 0
-2476 -2481 0
-2483 37 0
-37 2483 0
-2484 79 0
-79 2484 0
-2485 121 0
-121 2485 0
-2486 163 0
-163 2486 0
-2487 205 0
-205 2487 0
-2483 2488 0
-2484 2489 0
-2488 2489 0
-2484 -2488 0
-2485 2490 0
-2489 2490 0
-2485 -2489 0
-2486 2491 0
-2490 2491 0
-2486 -2490 0
-2487 -2491 0
-2493 37 38 39 40 41 0
-37 2493 0
-38 2493 0
-39 2493 0
-40 2493 0
-41 2493 0
-2494 79 80 81 82 83 0
-79 2494 0
-80 2494 0
-81 2494 0
-82 2494 0
-83 2494 0
-2495 121 122 123 124 125 0
-121 2495 0
-122 2495 0
-123 2495 0
-124 2495 0
-125 2495 0
-2496 163 164 165 166 167 0
-163 2496 0
-164 2496 0
-165 2496 0
-166 2496 0
-167 2496 0
-2497 205 206 207 208 209 0
-205 2497 0
-206 2497 0
-207 2497 0
-208 2497 0
-209 2497 0
-2498 38 0
-38 2498 0
-2499 80 0
-80 2499 0
-2500 122 0
-122 2500 0
-2501 164 0
-164 2501 0
-2502 206 0
-206 2502 0
-2498 2503 0
-2499 2504 0
-2503 2504 0
-2499 -2503 0
-2500 2505 0
-2504 2505 0
-2500 -2504 0
-2501 2506 0
-2505 2506 0
-2501 -2505 0
-2502 -2506 0
-2508 38 39 40 41 42 0
-38 2508 0
-39 2508 0
-40 2508 0
-41 2508 0
-42 2508 0
-2509 80 81 82 83 84 0
-80 2509 0
-81 2509 0
-82 2509 0
-83 2509 0
-84 2509 0
-2510 122 123 124 125 126 0
-122 2510 0
-123 2510 0
-124 2510 0
-125 2510 0
-126 2510 0
-2511 164 165 166 167 168 0
-164 2511 0
-165 2511 0
-166 2511 0
-167 2511 0
-168 2511 0
-2512 206 207 208 209 210 0
-206 2512 0
-207 2512 0
-208 2512 0
-209 2512 0
-210 2512 0
-2513 39 0
-39 2513 0
-2514 81 0
-81 2514 0
-2515 123 0
-123 2515 0
-2516 165 0
-165 2516 0
-2517 207 0
-207 2517 0
-2513 2518 0
-2514 2519 0
-2518 2519 0
-2514 -2518 0
-2515 2520 0
-2519 2520 0
-2515 -2519 0
-2516 2521 0
-2520 2521 0
-2516 -2520 0
-2517 -2521 0
-2523 40 0
-40 2523 0
-2524 82 0
-82 2524 0
-2525 124 0
-124 2525 0
-2526 166 0
-166 2526 0
-2527 208 0
-208 2527 0
-2523 2528 0
-2524 2529 0
-2528 2529 0
-2524 -2528 0
-2525 2530 0
-2529 2530 0
-2525 -2529 0
-2526 2531 0
-2530 2531 0
-2526 -2530 0
-2527 -2531 0
-2533 41 0
-41 2533 0
-2534 83 0
-83 2534 0
-2535 125 0
-125 2535 0
-2536 167 0
-167 2536 0
-2537 209 0
-209 2537 0
-2533 2538 0
-2534 2539 0
-2538 2539 0
-2534 -2538 0
-2535 2540 0
-2539 2540 0
-2535 -2539 0
-2536 2541 0
-2540 2541 0
-2536 -2540 0
-2537 -2541 0
-2543 42 0
-42 2543 0
-2544 84 0
-84 2544 0
-2545 126 0
-126 2545 0
-2546 168 0
-168 2546 0
-2547 210 0
-210 2547 0
-2543 2548 0
-2544 2549 0
-2548 2549 0
-2544 -2548 0
-2545 2550 0
-2549 2550 0
-2545 -2549 0
-2546 2551 0
-2550 2551 0
-2546 -2550 0
-2547 -2551 0
-2553 73 0
-73 2553 0
-2554 115 0
-115 2554 0
-2555 157 0
-157 2555 0
-2556 199 0
-199 2556 0
-2553 2557 0
-2554 2558 0
-2557 2558 0
-2554 -2557 0
-2555 2559 0
-2558 2559 0
-2555 -2558 0
-2556 -2559 0
-2561 74 0
-74 2561 0
-2562 116 0
-116 2562 0
-2563 158 0
-158 2563 0
-2564 200 0
-200 2564 0
-2561 2565 0
-2562 2566 0
-2565 2566 0
-2562 -2565 0
-2563 2567 0
-2566 2567 0
-2563 -2566 0
-2564 -2567 0
-2569 75 0
-75 2569 0
-2570 117 0
-117 2570 0
-2571 159 0
-159 2571 0
-2572 201 0
-201 2572 0
-2569 2573 0
-2570 2574 0
-2573 2574 0
-2570 -2573 0
-2571 2575 0
-2574 2575 0
-2571 -2574 0
-2572 -2575 0
-2577 76 0
-76 2577 0
-2578 118 0
-118 2578 0
-2579 160 0
-160 2579 0
-2580 202 0
-202 2580 0
-2577 2581 0
-2578 2582 0
-2581 2582 0
-2578 -2581 0
-2579 2583 0
-2582 2583 0
-2579 -2582 0
-2580 -2583 0
-2585 77 0
-77 2585 0
-2586 119 0
-119 2586 0
-2587 161 0
-161 2587 0
-2588 203 0
-203 2588 0
-2585 2589 0
-2586 2590 0
-2589 2590 0
-2586 -2589 0
-2587 2591 0
-2590 2591 0
-2587 -2590 0
-2588 -2591 0
-2593 78 0
-78 2593 0
-2594 120 0
-120 2594 0
-2595 162 0
-162 2595 0
-2596 204 0
-204 2596 0
-2593 2597 0
-2594 2598 0
-2597 2598 0
-2594 -2597 0
-2595 2599 0
-2598 2599 0
-2595 -2598 0
-2596 -2599 0
-2601 109 0
-109 2601 0
-2602 151 0
-151 2602 0
-2603 193 0
-193 2603 0
-2601 2604 0
-2602 2605 0
-2604 2605 0
-2602 -2604 0
-2603 -2605 0
-2607 110 0
-110 2607 0
-2608 152 0
-152 2608 0
-2609 194 0
-194 2609 0
-2607 2610 0
-2608 2611 0
-2610 2611 0
-2608 -2610 0
-2609 -2611 0
-2613 111 0
-111 2613 0
-2614 153 0
-153 2614 0
-2615 195 0
-195 2615 0
-2613 2616 0
-2614 2617 0
-2616 2617 0
-2614 -2616 0
-2615 -2617 0
-2619 112 0
-112 2619 0
-2620 154 0
-154 2620 0
-2621 196 0
-196 2621 0
-2619 2622 0
-2620 2623 0
-2622 2623 0
-2620 -2622 0
-2621 -2623 0
-2625 113 0
-113 2625 0
-2626 155 0
-155 2626 0
-2627 197 0
-197 2627 0
-2625 2628 0
-2626 2629 0
-2628 2629 0
-2626 -2628 0
-2627 -2629 0
-2631 114 0
-114 2631 0
-2632 156 0
-156 2632 0
-2633 198 0
-198 2633 0
-2631 2634 0
-2632 2635 0
-2634 2635 0
-2632 -2634 0
-2633 -2635 0
-2637 145 0
-145 2637 0
-2638 187 0
-187 2638 0
-2637 2639 0
-2638 -2639 0
-2641 146 0
-146 2641 0
-2642 188 0
-188 2642 0
-2641 2643 0
-2642 -2643 0
-2645 147 0
-147 2645 0
-2646 189 0
-189 2646 0
-2645 2647 0
-2646 -2647 0
-2649 148 0
-148 2649 0
-2650 190 0
-190 2650 0
-2649 2651 0
-2650 -2651 0
-2653 149 0
-149 2653 0
-2654 191 0
-191 2654 0
-2653 2655 0
-2654 -2655 0
-2657 150 0
-150 2657 0
-2658 192 0
-192 2658 0
-2657 2659 0
-2658 -2659 0
-2661 7 0
-7 2661 0
-2662 37 0
-37 2662 0
-2661 2663 0
-2662 -2663 0
-2665 8 0
-8 2665 0
-2666 38 0
-38 2666 0
-2665 2667 0
-2666 -2667 0
-2669 9 0
-9 2669 0
-2670 39 0
-39 2670 0
-2669 2671 0
-2670 -2671 0
-2673 10 0
-10 2673 0
-2674 40 0
-40 2674 0
-2673 2675 0
-2674 -2675 0
-2677 11 0
-11 2677 0
-2678 41 0
-41 2678 0
-2677 2679 0
-2678 -2679 0
-2681 12 0
-12 2681 0
-2682 42 0
-42 2682 0
-2681 2683 0
-2682 -2683 0
-2685 13 0
-13 2685 0
-2686 43 0
-43 2686 0
-2687 73 0
-73 2687 0
-2685 2688 0
-2686 2689 0
-2688 2689 0
-2686 -2688 0
-2687 -2689 0
-2691 14 0
-14 2691 0
-2692 44 0
-44 2692 0
-2693 74 0
-74 2693 0
-2691 2694 0
-2692 2695 0
-2694 2695 0
-2692 -2694 0
-2693 -2695 0
-2697 15 0
-15 2697 0
-2698 45 0
-45 2698 0
-2699 75 0
-75 2699 0
-2697 2700 0
-2698 2701 0
-2700 2701 0
-2698 -2700 0
-2699 -2701 0
-2703 16 0
-16 2703 0
-2704 46 0
-46 2704 0
-2705 76 0
-76 2705 0
-2703 2706 0
-2704 2707 0
-2706 2707 0
-2704 -2706 0
-2705 -2707 0
-2709 17 0
-17 2709 0
-2710 47 0
-47 2710 0
-2711 77 0
-77 2711 0
-2709 2712 0
-2710 2713 0
-2712 2713 0
-2710 -2712 0
-2711 -2713 0
-2715 18 0
-18 2715 0
-2716 48 0
-48 2716 0
-2717 78 0
-78 2717 0
-2715 2718 0
-2716 2719 0
-2718 2719 0
-2716 -2718 0
-2717 -2719 0
-2721 19 0
-19 2721 0
-2722 49 0
-49 2722 0
-2723 79 0
-79 2723 0
-2724 109 0
-109 2724 0
-2721 2725 0
-2722 2726 0
-2725 2726 0
-2722 -2725 0
-2723 2727 0
-2726 2727 0
-2723 -2726 0
-2724 -2727 0
-2729 20 0
-20 2729 0
-2730 50 0
-50 2730 0
-2731 80 0
-80 2731 0
-2732 110 0
-110 2732 0
-2729 2733 0
-2730 2734 0
-2733 2734 0
-2730 -2733 0
-2731 2735 0
-2734 2735 0
-2731 -2734 0
-2732 -2735 0
-2737 21 0
-21 2737 0
-2738 51 0
-51 2738 0
-2739 81 0
-81 2739 0
-2740 111 0
-111 2740 0
-2737 2741 0
-2738 2742 0
-2741 2742 0
-2738 -2741 0
-2739 2743 0
-2742 2743 0
-2739 -2742 0
-2740 -2743 0
-2745 22 0
-22 2745 0
-2746 52 0
-52 2746 0
-2747 82 0
-82 2747 0
-2748 112 0
-112 2748 0
-2745 2749 0
-2746 2750 0
-2749 2750 0
-2746 -2749 0
-2747 2751 0
-2750 2751 0
-2747 -2750 0
-2748 -2751 0
-2753 23 0
-23 2753 0
-2754 53 0
-53 2754 0
-2755 83 0
-83 2755 0
-2756 113 0
-113 2756 0
-2753 2757 0
-2754 2758 0
-2757 2758 0
-2754 -2757 0
-2755 2759 0
-2758 2759 0
-2755 -2758 0
-2756 -2759 0
-2761 24 0
-24 2761 0
-2762 54 0
-54 2762 0
-2763 84 0
-84 2763 0
-2764 114 0
-114 2764 0
-2761 2765 0
-2762 2766 0
-2765 2766 0
-2762 -2765 0
-2763 2767 0
-2766 2767 0
-2763 -2766 0
-2764 -2767 0
-2769 25 0
-25 2769 0
-2770 55 0
-55 2770 0
-2771 85 0
-85 2771 0
-2772 115 0
-115 2772 0
-2773 145 0
-145 2773 0
-2769 2774 0
-2770 2775 0
-2774 2775 0
-2770 -2774 0
-2771 2776 0
-2775 2776 0
-2771 -2775 0
-2772 2777 0
-2776 2777 0
-2772 -2776 0
-2773 -2777 0
-2779 25 26 27 28 29 0
-25 2779 0
-26 2779 0
-27 2779 0
-28 2779 0
-29 2779 0
-2780 55 56 57 58 59 0
-55 2780 0
-56 2780 0
-57 2780 0
-58 2780 0
-59 2780 0
-2781 85 86 87 88 89 0
-85 2781 0
-86 2781 0
-87 2781 0
-88 2781 0
-89 2781 0
-2782 115 116 117 118 119 0
-115 2782 0
-116 2782 0
-117 2782 0
-118 2782 0
-119 2782 0
-2783 145 146 147 148 149 0
-145 2783 0
-146 2783 0
-147 2783 0
-148 2783 0
-149 2783 0
-2784 26 0
-26 2784 0
-2785 56 0
-56 2785 0
-2786 86 0
-86 2786 0
-2787 116 0
-116 2787 0
-2788 146 0
-146 2788 0
-2784 2789 0
-2785 2790 0
-2789 2790 0
-2785 -2789 0
-2786 2791 0
-2790 2791 0
-2786 -2790 0
-2787 2792 0
-2791 2792 0
-2787 -2791 0
-2788 -2792 0
-2794 26 27 28 29 30 0
-26 2794 0
-27 2794 0
-28 2794 0
-29 2794 0
-30 2794 0
-2795 56 57 58 59 60 0
-56 2795 0
-57 2795 0
-58 2795 0
-59 2795 0
-60 2795 0
-2796 86 87 88 89 90 0
-86 2796 0
-87 2796 0
-88 2796 0
-89 2796 0
-90 2796 0
-2797 116 117 118 119 120 0
-116 2797 0
-117 2797 0
-118 2797 0
-119 2797 0
-120 2797 0
-2798 146 147 148 149 150 0
-146 2798 0
-147 2798 0
-148 2798 0
-149 2798 0
-150 2798 0
-2799 27 0
-27 2799 0
-2800 57 0
-57 2800 0
-2801 87 0
-87 2801 0
-2802 117 0
-117 2802 0
-2803 147 0
-147 2803 0
-2799 2804 0
-2800 2805 0
-2804 2805 0
-2800 -2804 0
-2801 2806 0
-2805 2806 0
-2801 -2805 0
-2802 2807 0
-2806 2807 0
-2802 -2806 0
-2803 -2807 0
-2809 28 0
-28 2809 0
-2810 58 0
-58 2810 0
-2811 88 0
-88 2811 0
-2812 118 0
-118 2812 0
-2813 148 0
-148 2813 0
-2809 2814 0
-2810 2815 0
-2814 2815 0
-2810 -2814 0
-2811 2816 0
-2815 2816 0
-2811 -2815 0
-2812 2817 0
-2816 2817 0
-2812 -2816 0
-2813 -2817 0
-2819 29 0
-29 2819 0
-2820 59 0
-59 2820 0
-2821 89 0
-89 2821 0
-2822 119 0
-119 2822 0
-2823 149 0
-149 2823 0
-2819 2824 0
-2820 2825 0
-2824 2825 0
-2820 -2824 0
-2821 2826 0
-2825 2826 0
-2821 -2825 0
-2822 2827 0
-2826 2827 0
-2822 -2826 0
-2823 -2827 0
-2829 30 0
-30 2829 0
-2830 60 0
-60 2830 0
-2831 90 0
-90 2831 0
-2832 120 0
-120 2832 0
-2833 150 0
-150 2833 0
-2829 2834 0
-2830 2835 0
-2834 2835 0
-2830 -2834 0
-2831 2836 0
-2835 2836 0
-2831 -2835 0
-2832 2837 0
-2836 2837 0
-2832 -2836 0
-2833 -2837 0
-2839 31 0
-31 2839 0
-2840 61 0
-61 2840 0
-2841 91 0
-91 2841 0
-2842 121 0
-121 2842 0
-2843 151 0
-151 2843 0
-2844 181 0
-181 2844 0
-2839 2845 0
-2840 2846 0
-2845 2846 0
-2840 -2845 0
-2841 2847 0
-2846 2847 0
-2841 -2846 0
-2842 2848 0
-2847 2848 0
-2842 -2847 0
-2843 2849 0
-2848 2849 0
-2843 -2848 0
-2844 -2849 0
-2851 31 32 33 34 35 0
-31 2851 0
-32 2851 0
-33 2851 0
-34 2851 0
-35 2851 0
-2852 61 62 63 64 65 0
-61 2852 0
-62 2852 0
-63 2852 0
-64 2852 0
-65 2852 0
-2853 91 92 93 94 95 0
-91 2853 0
-92 2853 0
-93 2853 0
-94 2853 0
-95 2853 0
-2854 121 122 123 124 125 0
-121 2854 0
-122 2854 0
-123 2854 0
-124 2854 0
-125 2854 0
-2855 151 152 153 154 155 0
-151 2855 0
-152 2855 0
-153 2855 0
-154 2855 0
-155 2855 0
-2856 181 182 183 184 185 0
-181 2856 0
-182 2856 0
-183 2856 0
-184 2856 0
-185 2856 0
-2851 2857 0
-2858 0
-2859 0
-2860 0
-2861 0
-2852 2862 0
-2857 2862 0
-2852 -2857 2863 0
-2858 2863 0
-2852 -2858 2864 0
-2859 2864 0
-2852 -2859 2865 0
-2860 2865 0
-2852 -2860 2866 0
-2861 2866 0
-2852 -2861 0
-2853 2867 0
-2862 2867 0
-2853 -2862 2868 0
-2863 2868 0
-2853 -2863 2869 0
-2864 2869 0
-2853 -2864 2870 0
-2865 2870 0
-2853 -2865 2871 0
-2866 2871 0
-2853 -2866 0
-2854 2872 0
-2867 2872 0
-2854 -2867 2873 0
-2868 2873 0
-2854 -2868 2874 0
-2869 2874 0
-2854 -2869 2875 0
-2870 2875 0
-2854 -2870 2876 0
-2871 2876 0
-2854 -2871 0
-2855 2877 0
-2872 2877 0
-2855 -2872 2878 0
-2873 2878 0
-2855 -2873 2879 0
-2874 2879 0
-2855 -2874 2880 0
-2875 2880 0
-2855 -2875 2881 0
-2876 2881 0
-2855 -2876 0
-2856 -2881 0
-2887 32 0
-32 2887 0
-2888 62 0
-62 2888 0
-2889 92 0
-92 2889 0
-2890 122 0
-122 2890 0
-2891 152 0
-152 2891 0
-2892 182 0
-182 2892 0
-2887 2893 0
-2888 2894 0
-2893 2894 0
-2888 -2893 0
-2889 2895 0
-2894 2895 0
-2889 -2894 0
-2890 2896 0
-2895 2896 0
-2890 -2895 0
-2891 2897 0
-2896 2897 0
-2891 -2896 0
-2892 -2897 0
-2899 32 33 34 35 36 0
-32 2899 0
-33 2899 0
-34 2899 0
-35 2899 0
-36 2899 0
-2900 62 63 64 65 66 0
-62 2900 0
-63 2900 0
-64 2900 0
-65 2900 0
-66 2900 0
-2901 92 93 94 95 96 0
-92 2901 0
-93 2901 0
-94 2901 0
-95 2901 0
-96 2901 0
-2902 122 123 124 125 126 0
-122 2902 0
-123 2902 0
-124 2902 0
-125 2902 0
-126 2902 0
-2903 152 153 154 155 156 0
-152 2903 0
-153 2903 0
-154 2903 0
-155 2903 0
-156 2903 0
-2904 182 183 184 185 186 0
-182 2904 0
-183 2904 0
-184 2904 0
-185 2904 0
-186 2904 0
-2899 2905 0
-2906 0
-2907 0
-2908 0
-2909 0
-2900 2910 0
-2905 2910 0
-2900 -2905 2911 0
-2906 2911 0
-2900 -2906 2912 0
-2907 2912 0
-2900 -2907 2913 0
-2908 2913 0
-2900 -2908 2914 0
-2909 2914 0
-2900 -2909 0
-2901 2915 0
-2910 2915 0
-2901 -2910 2916 0
-2911 2916 0
-2901 -2911 2917 0
-2912 2917 0
-2901 -2912 2918 0
-2913 2918 0
-2901 -2913 2919 0
-2914 2919 0
-2901 -2914 0
-2902 2920 0
-2915 2920 0
-2902 -2915 2921 0
-2916 2921 0
-2902 -2916 2922 0
-2917 2922 0
-2902 -2917 2923 0
-2918 2923 0
-2902 -2918 2924 0
-2919 2924 0
-2902 -2919 0
-2903 2925 0
-2920 2925 0
-2903 -2920 2926 0
-2921 2926 0
-2903 -2921 2927 0
-2922 2927 0
-2903 -2922 2928 0
-2923 2928 0
-2903 -2923 2929 0
-2924 2929 0
-2903 -2924 0
-2904 -2929 0
-2935 33 0
-33 2935 0
-2936 63 0
-63 2936 0
-2937 93 0
-93 2937 0
-2938 123 0
-123 2938 0
-2939 153 0
-153 2939 0
-2940 183 0
-183 2940 0
-2935 2941 0
-2936 2942 0
-2941 2942 0
-2936 -2941 0
-2937 2943 0
-2942 2943 0
-2937 -2942 0
-2938 2944 0
-2943 2944 0
-2938 -2943 0
-2939 2945 0
-2944 2945 0
-2939 -2944 0
-2940 -2945 0
-2947 34 0
-34 2947 0
-2948 64 0
-64 2948 0
-2949 94 0
-94 2949 0
-2950 124 0
-124 2950 0
-2951 154 0
-154 2951 0
-2952 184 0
-184 2952 0
-2947 2953 0
-2948 2954 0
-2953 2954 0
-2948 -2953 0
-2949 2955 0
-2954 2955 0
-2949 -2954 0
-2950 2956 0
-2955 2956 0
-2950 -2955 0
-2951 2957 0
-2956 2957 0
-2951 -2956 0
-2952 -2957 0
-2959 35 0
-35 2959 0
-2960 65 0
-65 2960 0
-2961 95 0
-95 2961 0
-2962 125 0
-125 2962 0
-2963 155 0
-155 2963 0
-2964 185 0
-185 2964 0
-2959 2965 0
-2960 2966 0
-2965 2966 0
-2960 -2965 0
-2961 2967 0
-2966 2967 0
-2961 -2966 0
-2962 2968 0
-2967 2968 0
-2962 -2967 0
-2963 2969 0
-2968 2969 0
-2963 -2968 0
-2964 -2969 0
-2971 36 0
-36 2971 0
-2972 66 0
-66 2972 0
-2973 96 0
-96 2973 0
-2974 126 0
-126 2974 0
-2975 156 0
-156 2975 0
-2976 186 0
-186 2976 0
-2971 2977 0
-2972 2978 0
-2977 2978 0
-2972 -2977 0
-2973 2979 0
-2978 2979 0
-2973 -2978 0
-2974 2980 0
-2979 2980 0
-2974 -2979 0
-2975 2981 0
-2980 2981 0
-2975 -2980 0
-2976 -2981 0
-2983 67 0
-67 2983 0
-2984 97 0
-97 2984 0
-2985 127 0
-127 2985 0
-2986 157 0
-157 2986 0
-2987 187 0
-187 2987 0
-2983 2988 0
-2984 2989 0
-2988 2989 0
-2984 -2988 0
-2985 2990 0
-2989 2990 0
-2985 -2989 0
-2986 2991 0
-2990 2991 0
-2986 -2990 0
-2987 -2991 0
-2993 67 68 69 70 71 0
-67 2993 0
-68 2993 0
-69 2993 0
-70 2993 0
-71 2993 0
-2994 97 98 99 100 101 0
-97 2994 0
-98 2994 0
-99 2994 0
-100 2994 0
-101 2994 0
-2995 127 128 129 130 131 0
-127 2995 0
-128 2995 0
-129 2995 0
-130 2995 0
-131 2995 0
-2996 157 158 159 160 161 0
-157 2996 0
-158 2996 0
-159 2996 0
-160 2996 0
-161 2996 0
-2997 187 188 189 190 191 0
-187 2997 0
-188 2997 0
-189 2997 0
-190 2997 0
-191 2997 0
-2998 68 0
-68 2998 0
-2999 98 0
-98 2999 0
-3000 128 0
-128 3000 0
-3001 158 0
-158 3001 0
-3002 188 0
-188 3002 0
-2998 3003 0
-2999 3004 0
-3003 3004 0
-2999 -3003 0
-3000 3005 0
-3004 3005 0
-3000 -3004 0
-3001 3006 0
-3005 3006 0
-3001 -3005 0
-3002 -3006 0
-3008 68 69 70 71 72 0
-68 3008 0
-69 3008 0
-70 3008 0
-71 3008 0
-72 3008 0
-3009 98 99 100 101 102 0
-98 3009 0
-99 3009 0
-100 3009 0
-101 3009 0
-102 3009 0
-3010 128 129 130 131 132 0
-128 3010 0
-129 3010 0
-130 3010 0
-131 3010 0
-132 3010 0
-3011 158 159 160 161 162 0
-158 3011 0
-159 3011 0
-160 3011 0
-161 3011 0
-162 3011 0
-3012 188 189 190 191 192 0
-188 3012 0
-189 3012 0
-190 3012 0
-191 3012 0
-192 3012 0
-3013 69 0
-69 3013 0
-3014 99 0
-99 3014 0
-3015 129 0
-129 3015 0
-3016 159 0
-159 3016 0
-3017 189 0
-189 3017 0
-3013 3018 0
-3014 3019 0
-3018 3019 0
-3014 -3018 0
-3015 3020 0
-3019 3020 0
-3015 -3019 0
-3016 3021 0
-3020 3021 0
-3016 -3020 0
-3017 -3021 0
-3023 70 0
-70 3023 0
-3024 100 0
-100 3024 0
-3025 130 0
-130 3025 0
-3026 160 0
-160 3026 0
-3027 190 0
-190 3027 0
-3023 3028 0
-3024 3029 0
-3028 3029 0
-3024 -3028 0
-3025 3030 0
-3029 3030 0
-3025 -3029 0
-3026 3031 0
-3030 3031 0
-3026 -3030 0
-3027 -3031 0
-3033 71 0
-71 3033 0
-3034 101 0
-101 3034 0
-3035 131 0
-131 3035 0
-3036 161 0
-161 3036 0
-3037 191 0
-191 3037 0
-3033 3038 0
-3034 3039 0
-3038 3039 0
-3034 -3038 0
-3035 3040 0
-3039 3040 0
-3035 -3039 0
-3036 3041 0
-3040 3041 0
-3036 -3040 0
-3037 -3041 0
-3043 72 0
-72 3043 0
-3044 102 0
-102 3044 0
-3045 132 0
-132 3045 0
-3046 162 0
-162 3046 0
-3047 192 0
-192 3047 0
-3043 3048 0
-3044 3049 0
-3048 3049 0
-3044 -3048 0
-3045 3050 0
-3049 3050 0
-3045 -3049 0
-3046 3051 0
-3050 3051 0
-3046 -3050 0
-3047 -3051 0
-3053 103 0
-103 3053 0
-3054 133 0
-133 3054 0
-3055 163 0
-163 3055 0
-3056 193 0
-193 3056 0
-3053 3057 0
-3054 3058 0
-3057 3058 0
-3054 -3057 0
-3055 3059 0
-3058 3059 0
-3055 -3058 0
-3056 -3059 0
-3061 104 0
-104 3061 0
-3062 134 0
-134 3062 0
-3063 164 0
-164 3063 0
-3064 194 0
-194 3064 0
-3061 3065 0
-3062 3066 0
-3065 3066 0
-3062 -3065 0
-3063 3067 0
-3066 3067 0
-3063 -3066 0
-3064 -3067 0
-3069 105 0
-105 3069 0
-3070 135 0
-135 3070 0
-3071 165 0
-165 3071 0
-3072 195 0
-195 3072 0
-3069 3073 0
-3070 3074 0
-3073 3074 0
-3070 -3073 0
-3071 3075 0
-3074 3075 0
-3071 -3074 0
-3072 -3075 0
-3077 106 0
-106 3077 0
-3078 136 0
-136 3078 0
-3079 166 0
-166 3079 0
-3080 196 0
-196 3080 0
-3077 3081 0
-3078 3082 0
-3081 3082 0
-3078 -3081 0
-3079 3083 0
-3082 3083 0
-3079 -3082 0
-3080 -3083 0
-3085 107 0
-107 3085 0
-3086 137 0
-137 3086 0
-3087 167 0
-167 3087 0
-3088 197 0
-197 3088 0
-3085 3089 0
-3086 3090 0
-3089 3090 0
-3086 -3089 0
-3087 3091 0
-3090 3091 0
-3087 -3090 0
-3088 -3091 0
-3093 108 0
-108 3093 0
-3094 138 0
-138 3094 0
-3095 168 0
-168 3095 0
-3096 198 0
-198 3096 0
-3093 3097 0
-3094 3098 0
-3097 3098 0
-3094 -3097 0
-3095 3099 0
-3098 3099 0
-3095 -3098 0
-3096 -3099 0
-3101 139 0
-139 3101 0
-3102 169 0
-169 3102 0
-3103 199 0
-199 3103 0
-3101 3104 0
-3102 3105 0
-3104 3105 0
-3102 -3104 0
-3103 -3105 0
-3107 140 0
-140 3107 0
-3108 170 0
-170 3108 0
-3109 200 0
-200 3109 0
-3107 3110 0
-3108 3111 0
-3110 3111 0
-3108 -3110 0
-3109 -3111 0
-3113 141 0
-141 3113 0
-3114 171 0
-171 3114 0
-3115 201 0
-201 3115 0
-3113 3116 0
-3114 3117 0
-3116 3117 0
-3114 -3116 0
-3115 -3117 0
-3119 142 0
-142 3119 0
-3120 172 0
-172 3120 0
-3121 202 0
-202 3121 0
-3119 3122 0
-3120 3123 0
-3122 3123 0
-3120 -3122 0
-3121 -3123 0
-3125 143 0
-143 3125 0
-3126 173 0
-173 3126 0
-3127 203 0
-203 3127 0
-3125 3128 0
-3126 3129 0
-3128 3129 0
-3126 -3128 0
-3127 -3129 0
-3131 144 0
-144 3131 0
-3132 174 0
-174 3132 0
-3133 204 0
-204 3133 0
-3131 3134 0
-3132 3135 0
-3134 3135 0
-3132 -3134 0
-3133 -3135 0
-3137 175 0
-175 3137 0
-3138 205 0
-205 3138 0
-3137 3139 0
-3138 -3139 0
-3141 176 0
-176 3141 0
-3142 206 0
-206 3142 0
-3141 3143 0
-3142 -3143 0
-3145 177 0
-177 3145 0
-3146 207 0
-207 3146 0
-3145 3147 0
-3146 -3147 0
-3149 178 0
-178 3149 0
-3150 208 0
-208 3150 0
-3149 3151 0
-3150 -3151 0
-3153 179 0
-179 3153 0
-3154 209 0
-209 3154 0
-3153 3155 0
-3154 -3155 0
-3157 180 0
-180 3157 0
-3158 210 0
-210 3158 0
-3157 3159 0
-3158 -3159 0
