p cnf 17654 41774
-1 344 0
-2 345 0
-344 345 0
-2 -344 0
-3 346 0
-345 346 0
-3 -345 0
-4 347 0
-346 347 0
-4 -346 0
-5 348 0
-347 348 0
-5 -347 0
-6 349 0
-348 349 0
-6 -348 0
-7 -349 0
1 2 3 4 5 6 7 0
-8 351 0
-9 352 0
-351 352 0
-9 -351 0
-10 353 0
-352 353 0
-10 -352 0
-11 354 0
-353 354 0
-11 -353 0
-12 355 0
-354 355 0
-12 -354 0
-13 356 0
-355 356 0
-13 -355 0
-14 -356 0
8 9 10 11 12 13 14 0
-15 358 0
-16 359 0
-358 359 0
-16 -358 0
-17 360 0
-359 360 0
-17 -359 0
-18 361 0
-360 361 0
-18 -360 0
-19 362 0
-361 362 0
-19 -361 0
-20 363 0
-362 363 0
-20 -362 0
-21 -363 0
15 16 17 18 19 20 21 0
-22 365 0
-23 366 0
-365 366 0
-23 -365 0
-24 367 0
-366 367 0
-24 -366 0
-25 368 0
-367 368 0
-25 -367 0
-26 369 0
-368 369 0
-26 -368 0
-27 370 0
-369 370 0
-27 -369 0
-28 -370 0
22 23 24 25 26 27 28 0
-29 372 0
-30 373 0
-372 373 0
-30 -372 0
-31 374 0
-373 374 0
-31 -373 0
-32 375 0
-374 375 0
-32 -374 0
-33 376 0
-375 376 0
-33 -375 0
-34 377 0
-376 377 0
-34 -376 0
-35 -377 0
29 30 31 32 33 34 35 0
-36 379 0
-37 380 0
-379 380 0
-37 -379 0
-38 381 0
-380 381 0
-38 -380 0
-39 382 0
-381 382 0
-39 -381 0
-40 383 0
-382 383 0
-40 -382 0
-41 384 0
-383 384 0
-41 -383 0
-42 -384 0
36 37 38 39 40 41 42 0
-43 386 0
-44 387 0
-386 387 0
-44 -386 0
-45 388 0
-387 388 0
-45 -387 0
-46 389 0
-388 389 0
-46 -388 0
-47 390 0
-389 390 0
-47 -389 0
-48 391 0
-390 391 0
-48 -390 0
-49 -391 0
43 44 45 46 47 48 49 0
-50 393 0
-51 394 0
-393 394 0
-51 -393 0
-52 395 0
-394 395 0
-52 -394 0
-53 396 0
-395 396 0
-53 -395 0
-54 397 0
-396 397 0
-54 -396 0
-55 398 0
-397 398 0
-55 -397 0
-56 -398 0
50 51 52 53 54 55 56 0
-57 400 0
-58 401 0
-400 401 0
-58 -400 0
-59 402 0
-401 402 0
-59 -401 0
-60 403 0
-402 403 0
-60 -402 0
-61 404 0
-403 404 0
-61 -403 0
-62 405 0
-404 405 0
-62 -404 0
-63 -405 0
57 58 59 60 61 62 63 0
-64 407 0
-65 408 0
-407 408 0
-65 -407 0
-66 409 0
-408 409 0
-66 -408 0
-67 410 0
-409 410 0
-67 -409 0
-68 411 0
-410 411 0
-68 -410 0
-69 412 0
-411 412 0
-69 -411 0
-70 -412 0
64 65 66 67 68 69 70 0
-71 414 0
-72 415 0
-414 415 0
-72 -414 0
-73 416 0
-415 416 0
-73 -415 0
-74 417 0
-416 417 0
-74 -416 0
-75 418 0
-417 418 0
-75 -417 0
-76 419 0
-418 419 0
-76 -418 0
-77 -419 0
71 72 73 74 75 76 77 0
-78 421 0
-79 422 0
-421 422 0
-79 -421 0
-80 423 0
-422 423 0
-80 -422 0
-81 424 0
-423 424 0
-81 -423 0
-82 425 0
-424 425 0
-82 -424 0
-83 426 0
-425 426 0
-83 -425 0
-84 -426 0
78 79 80 81 82 83 84 0
-85 428 0
-86 429 0
-428 429 0
-86 -428 0
-87 430 0
-429 430 0
-87 -429 0
-88 431 0
-430 431 0
-88 -430 0
-89 432 0
-431 432 0
-89 -431 0
-90 433 0
-432 433 0
-90 -432 0
-91 -433 0
85 86 87 88 89 90 91 0
-92 435 0
-93 436 0
-435 436 0
-93 -435 0
-94 437 0
-436 437 0
-94 -436 0
-95 438 0
-437 438 0
-95 -437 0
-96 439 0
-438 439 0
-96 -438 0
-97 440 0
-439 440 0
-97 -439 0
-98 -440 0
92 93 94 95 96 97 98 0
-99 442 0
-100 443 0
-442 443 0
-100 -442 0
-101 444 0
-443 444 0
-101 -443 0
-102 445 0
-444 445 0
-102 -444 0
-103 446 0
-445 446 0
-103 -445 0
-104 447 0
-446 447 0
-104 -446 0
-105 -447 0
99 100 101 102 103 104 105 0
-106 449 0
-107 450 0
-449 450 0
-107 -449 0
-108 451 0
-450 451 0
-108 -450 0
-109 452 0
-451 452 0
-109 -451 0
-110 453 0
-452 453 0
-110 -452 0
-111 454 0
-453 454 0
-111 -453 0
-112 -454 0
106 107 108 109 110 111 112 0
-113 456 0
-114 457 0
-456 457 0
-114 -456 0
-115 458 0
-457 458 0
-115 -457 0
-116 459 0
-458 459 0
-116 -458 0
-117 460 0
-459 460 0
-117 -459 0
-118 461 0
-460 461 0
-118 -460 0
-119 -461 0
113 114 115 116 117 118 119 0
-120 463 0
-121 464 0
-463 464 0
-121 -463 0
-122 465 0
-464 465 0
-122 -464 0
-123 466 0
-465 466 0
-123 -465 0
-124 467 0
-466 467 0
-124 -466 0
-125 468 0
-467 468 0
-125 -467 0
-126 -468 0
120 121 122 123 124 125 126 0
-127 470 0
-128 471 0
-470 471 0
-128 -470 0
-129 472 0
-471 472 0
-129 -471 0
-130 473 0
-472 473 0
-130 -472 0
-131 474 0
-473 474 0
-131 -473 0
-132 475 0
-474 475 0
-132 -474 0
-133 -475 0
127 128 129 130 131 132 133 0
-134 477 0
-135 478 0
-477 478 0
-135 -477 0
-136 479 0
-478 479 0
-136 -478 0
-137 480 0
-479 480 0
-137 -479 0
-138 481 0
-480 481 0
-138 -480 0
-139 482 0
-481 482 0
-139 -481 0
-140 -482 0
134 135 136 137 138 139 140 0
-141 484 0
-142 485 0
-484 485 0
-142 -484 0
-143 486 0
-485 486 0
-143 -485 0
-144 487 0
-486 487 0
-144 -486 0
-145 488 0
-487 488 0
-145 -487 0
-146 489 0
-488 489 0
-146 -488 0
-147 -489 0
141 142 143 144 145 146 147 0
-148 491 0
-149 492 0
-491 492 0
-149 -491 0
-150 493 0
-492 493 0
-150 -492 0
-151 494 0
-493 494 0
-151 -493 0
-152 495 0
-494 495 0
-152 -494 0
-153 496 0
-495 496 0
-153 -495 0
-154 -496 0
148 149 150 151 152 153 154 0
-155 498 0
-156 499 0
-498 499 0
-156 -498 0
-157 500 0
-499 500 0
-157 -499 0
-158 501 0
-500 501 0
-158 -500 0
-159 502 0
-501 502 0
-159 -501 0
-160 503 0
-502 503 0
-160 -502 0
-161 -503 0
155 156 157 158 159 160 161 0
-162 505 0
-163 506 0
-505 506 0
-163 -505 0
-164 507 0
-506 507 0
-164 -506 0
-165 508 0
-507 508 0
-165 -507 0
-166 509 0
-508 509 0
-166 -508 0
-167 510 0
-509 510 0
-167 -509 0
-168 -510 0
162 163 164 165 166 167 168 0
-169 512 0
-170 513 0
-512 513 0
-170 -512 0
-171 514 0
-513 514 0
-171 -513 0
-172 515 0
-514 515 0
-172 -514 0
-173 516 0
-515 516 0
-173 -515 0
-174 517 0
-516 517 0
-174 -516 0
-175 -517 0
169 170 171 172 173 174 175 0
-176 519 0
-177 520 0
-519 520 0
-177 -519 0
-178 521 0
-520 521 0
-178 -520 0
-179 522 0
-521 522 0
-179 -521 0
-180 523 0
-522 523 0
-180 -522 0
-181 524 0
-523 524 0
-181 -523 0
-182 -524 0
176 177 178 179 180 181 182 0
-183 526 0
-184 527 0
-526 527 0
-184 -526 0
-185 528 0
-527 528 0
-185 -527 0
-186 529 0
-528 529 0
-186 -528 0
-187 530 0
-529 530 0
-187 -529 0
-188 531 0
-530 531 0
-188 -530 0
-189 -531 0
183 184 185 186 187 188 189 0
-190 533 0
-191 534 0
-533 534 0
-191 -533 0
-192 535 0
-534 535 0
-192 -534 0
-193 536 0
-535 536 0
-193 -535 0
-194 537 0
-536 537 0
-194 -536 0
-195 538 0
-537 538 0
-195 -537 0
-196 -538 0
190 191 192 193 194 195 196 0
-197 540 0
-198 541 0
-540 541 0
-198 -540 0
-199 542 0
-541 542 0
-199 -541 0
-200 543 0
-542 543 0
-200 -542 0
-201 544 0
-543 544 0
-201 -543 0
-202 545 0
-544 545 0
-202 -544 0
-203 -545 0
197 198 199 200 201 202 203 0
-204 547 0
-205 548 0
-547 548 0
-205 -547 0
-206 549 0
-548 549 0
-206 -548 0
-207 550 0
-549 550 0
-207 -549 0
-208 551 0
-550 551 0
-208 -550 0
-209 552 0
-551 552 0
-209 -551 0
-210 -552 0
204 205 206 207 208 209 210 0
-211 554 0
-212 555 0
-554 555 0
-212 -554 0
-213 556 0
-555 556 0
-213 -555 0
-214 557 0
-556 557 0
-214 -556 0
-215 558 0
-557 558 0
-215 -557 0
-216 559 0
-558 559 0
-216 -558 0
-217 -559 0
211 212 213 214 215 216 217 0
-218 561 0
-219 562 0
-561 562 0
-219 -561 0
-220 563 0
-562 563 0
-220 -562 0
-221 564 0
-563 564 0
-221 -563 0
-222 565 0
-564 565 0
-222 -564 0
-223 566 0
-565 566 0
-223 -565 0
-224 -566 0
218 219 220 221 222 223 224 0
-225 568 0
-226 569 0
-568 569 0
-226 -568 0
-227 570 0
-569 570 0
-227 -569 0
-228 571 0
-570 571 0
-228 -570 0
-229 572 0
-571 572 0
-229 -571 0
-230 573 0
-572 573 0
-230 -572 0
-231 -573 0
225 226 227 228 229 230 231 0
-232 575 0
-233 576 0
-575 576 0
-233 -575 0
-234 577 0
-576 577 0
-234 -576 0
-235 578 0
-577 578 0
-235 -577 0
-236 579 0
-578 579 0
-236 -578 0
-237 580 0
-579 580 0
-237 -579 0
-238 -580 0
232 233 234 235 236 237 238 0
-239 582 0
-240 583 0
-582 583 0
-240 -582 0
-241 584 0
-583 584 0
-241 -583 0
-242 585 0
-584 585 0
-242 -584 0
-243 586 0
-585 586 0
-243 -585 0
-244 587 0
-586 587 0
-244 -586 0
-245 -587 0
239 240 241 242 243 244 245 0
-246 589 0
-247 590 0
-589 590 0
-247 -589 0
-248 591 0
-590 591 0
-248 -590 0
-249 592 0
-591 592 0
-249 -591 0
-250 593 0
-592 593 0
-250 -592 0
-251 594 0
-593 594 0
-251 -593 0
-252 -594 0
246 247 248 249 250 251 252 0
-253 596 0
-254 597 0
-596 597 0
-254 -596 0
-255 598 0
-597 598 0
-255 -597 0
-256 599 0
-598 599 0
-256 -598 0
-257 600 0
-599 600 0
-257 -599 0
-258 601 0
-600 601 0
-258 -600 0
-259 -601 0
253 254 255 256 257 258 259 0
-260 603 0
-261 604 0
-603 604 0
-261 -603 0
-262 605 0
-604 605 0
-262 -604 0
-263 606 0
-605 606 0
-263 -605 0
-264 607 0
-606 607 0
-264 -606 0
-265 608 0
-607 608 0
-265 -607 0
-266 -608 0
260 261 262 263 264 265 266 0
-267 610 0
-268 611 0
-610 611 0
-268 -610 0
-269 612 0
-611 612 0
-269 -611 0
-270 613 0
-612 613 0
-270 -612 0
-271 614 0
-613 614 0
-271 -613 0
-272 615 0
-614 615 0
-272 -614 0
-273 -615 0
267 268 269 270 271 272 273 0
-274 617 0
-275 618 0
-617 618 0
-275 -617 0
-276 619 0
-618 619 0
-276 -618 0
-277 620 0
-619 620 0
-277 -619 0
-278 621 0
-620 621 0
-278 -620 0
-279 622 0
-621 622 0
-279 -621 0
-280 -622 0
274 275 276 277 278 279 280 0
-281 624 0
-282 625 0
-624 625 0
-282 -624 0
-283 626 0
-625 626 0
-283 -625 0
-284 627 0
-626 627 0
-284 -626 0
-285 628 0
-627 628 0
-285 -627 0
-286 629 0
-628 629 0
-286 -628 0
-287 -629 0
281 282 283 284 285 286 287 0
-288 631 0
-289 632 0
-631 632 0
-289 -631 0
-290 633 0
-632 633 0
-290 -632 0
-291 634 0
-633 634 0
-291 -633 0
-292 635 0
-634 635 0
-292 -634 0
-293 636 0
-635 636 0
-293 -635 0
-294 -636 0
288 289 290 291 292 293 294 0
-295 638 0
-296 639 0
-638 639 0
-296 -638 0
-297 640 0
-639 640 0
-297 -639 0
-298 641 0
-640 641 0
-298 -640 0
-299 642 0
-641 642 0
-299 -641 0
-300 643 0
-642 643 0
-300 -642 0
-301 -643 0
295 296 297 298 299 300 301 0
-302 645 0
-303 646 0
-645 646 0
-303 -645 0
-304 647 0
-646 647 0
-304 -646 0
-305 648 0
-647 648 0
-305 -647 0
-306 649 0
-648 649 0
-306 -648 0
-307 650 0
-649 650 0
-307 -649 0
-308 -650 0
302 303 304 305 306 307 308 0
-309 652 0
-310 653 0
-652 653 0
-310 -652 0
-311 654 0
-653 654 0
-311 -653 0
-312 655 0
-654 655 0
-312 -654 0
-313 656 0
-655 656 0
-313 -655 0
-314 657 0
-656 657 0
-314 -656 0
-315 -657 0
309 310 311 312 313 314 315 0
-316 659 0
-317 660 0
-659 660 0
-317 -659 0
-318 661 0
-660 661 0
-318 -660 0
-319 662 0
-661 662 0
-319 -661 0
-320 663 0
-662 663 0
-320 -662 0
-321 664 0
-663 664 0
-321 -663 0
-322 -664 0
316 317 318 319 320 321 322 0
-323 666 0
-324 667 0
-666 667 0
-324 -666 0
-325 668 0
-667 668 0
-325 -667 0
-326 669 0
-668 669 0
-326 -668 0
-327 670 0
-669 670 0
-327 -669 0
-328 671 0
-670 671 0
-328 -670 0
-329 -671 0
323 324 325 326 327 328 329 0
-330 673 0
-331 674 0
-673 674 0
-331 -673 0
-332 675 0
-674 675 0
-332 -674 0
-333 676 0
-675 676 0
-333 -675 0
-334 677 0
-676 677 0
-334 -676 0
-335 678 0
-677 678 0
-335 -677 0
-336 -678 0
330 331 332 333 334 335 336 0
-337 680 0
-338 681 0
-680 681 0
-338 -680 0
-339 682 0
-681 682 0
-339 -681 0
-340 683 0
-682 683 0
-340 -682 0
-341 684 0
-683 684 0
-341 -683 0
-342 685 0
-684 685 0
-342 -684 0
-343 -685 0
337 338 339 340 341 342 343 0
-687 1 0
-1 687 0
-688 8 0
-8 688 0
-689 15 0
-15 689 0
-690 22 0
-22 690 0
-691 29 0
-29 691 0
-692 36 0
-36 692 0
-693 43 0
-43 693 0
-687 694 0
-688 695 0
-694 695 0
-688 -694 0
-689 696 0
-695 696 0
-689 -695 0
-690 697 0
-696 697 0
-690 -696 0
-691 698 0
-697 698 0
-691 -697 0
-692 699 0
-698 699 0
-692 -698 0
-693 -699 0
-701 1 2 0
-1 701 0
-2 701 0
-702 8 9 0
-8 702 0
-9 702 0
-703 15 16 0
-15 703 0
-16 703 0
-704 22 23 0
-22 704 0
-23 704 0
-705 29 30 0
-29 705 0
-30 705 0
-706 36 37 0
-36 706 0
-37 706 0
-707 43 44 0
-43 707 0
-44 707 0
-701 708 0
-709 0
-702 710 0
-708 710 0
-702 -708 711 0
-709 711 0
-702 -709 0
-703 712 0
-710 712 0
-703 -710 713 0
-711 713 0
-703 -711 0
-704 714 0
-712 714 0
-704 -712 715 0
-713 715 0
-704 -713 0
-705 716 0
-714 716 0
-705 -714 717 0
-715 717 0
-705 -715 0
-706 718 0
-716 718 0
-706 -716 719 0
-717 719 0
-706 -717 0
-707 -719 0
-722 1 2 3 0
-1 722 0
-2 722 0
-3 722 0
-723 8 9 10 0
-8 723 0
-9 723 0
-10 723 0
-724 15 16 17 0
-15 724 0
-16 724 0
-17 724 0
-725 22 23 24 0
-22 725 0
-23 725 0
-24 725 0
-726 29 30 31 0
-29 726 0
-30 726 0
-31 726 0
-727 36 37 38 0
-36 727 0
-37 727 0
-38 727 0
-728 43 44 45 0
-43 728 0
-44 728 0
-45 728 0
-722 729 0
-730 0
-731 0
-723 732 0
-729 732 0
-723 -729 733 0
-730 733 0
-723 -730 734 0
-731 734 0
-723 -731 0
-724 735 0
-732 735 0
-724 -732 736 0
-733 736 0
-724 -733 737 0
-734 737 0
-724 -734 0
-725 738 0
-735 738 0
-725 -735 739 0
-736 739 0
-725 -736 740 0
-737 740 0
-725 -737 0
-726 741 0
-738 741 0
-726 -738 742 0
-739 742 0
-726 -739 743 0
-740 743 0
-726 -740 0
-727 744 0
-741 744 0
-727 -741 745 0
-742 745 0
-727 -742 746 0
-743 746 0
-727 -743 0
-728 -746 0
-750 1 2 3 4 0
-1 750 0
-2 750 0
-3 750 0
-4 750 0
-751 8 9 10 11 0
-8 751 0
-9 751 0
-10 751 0
-11 751 0
-752 15 16 17 18 0
-15 752 0
-16 752 0
-17 752 0
-18 752 0
-753 22 23 24 25 0
-22 753 0
-23 753 0
-24 753 0
-25 753 0
-754 29 30 31 32 0
-29 754 0
-30 754 0
-31 754 0
-32 754 0
-755 36 37 38 39 0
-36 755 0
-37 755 0
-38 755 0
-39 755 0
-756 43 44 45 46 0
-43 756 0
-44 756 0
-45 756 0
-46 756 0
-750 757 0
-758 0
-759 0
-760 0
-751 761 0
-757 761 0
-751 -757 762 0
-758 762 0
-751 -758 763 0
-759 763 0
-751 -759 764 0
-760 764 0
-751 -760 0
-752 765 0
-761 765 0
-752 -761 766 0
-762 766 0
-752 -762 767 0
-763 767 0
-752 -763 768 0
-764 768 0
-752 -764 0
-753 769 0
-765 769 0
-753 -765 770 0
-766 770 0
-753 -766 771 0
-767 771 0
-753 -767 772 0
-768 772 0
-753 -768 0
-754 773 0
-769 773 0
-754 -769 774 0
-770 774 0
-754 -770 775 0
-771 775 0
-754 -771 776 0
-772 776 0
-754 -772 0
-755 777 0
-773 777 0
-755 -773 778 0
-774 778 0
-755 -774 779 0
-775 779 0
-755 -775 780 0
-776 780 0
-755 -776 0
-756 -780 0
-785 1 2 3 4 5 0
-1 785 0
-2 785 0
-3 785 0
-4 785 0
-5 785 0
-786 8 9 10 11 12 0
-8 786 0
-9 786 0
-10 786 0
-11 786 0
-12 786 0
-787 15 16 17 18 19 0
-15 787 0
-16 787 0
-17 787 0
-18 787 0
-19 787 0
-788 22 23 24 25 26 0
-22 788 0
-23 788 0
-24 788 0
-25 788 0
-26 788 0
-789 29 30 31 32 33 0
-29 789 0
-30 789 0
-31 789 0
-32 789 0
-33 789 0
-790 36 37 38 39 40 0
-36 790 0
-37 790 0
-38 790 0
-39 790 0
-40 790 0
-791 43 44 45 46 47 0
-43 791 0
-44 791 0
-45 791 0
-46 791 0
-47 791 0
-785 792 0
-793 0
-794 0
-795 0
-796 0
-786 797 0
-792 797 0
-786 -792 798 0
-793 798 0
-786 -793 799 0
-794 799 0
-786 -794 800 0
-795 800 0
-786 -795 801 0
-796 801 0
-786 -796 0
-787 802 0
-797 802 0
-787 -797 803 0
-798 803 0
-787 -798 804 0
-799 804 0
-787 -799 805 0
-800 805 0
-787 -800 806 0
-801 806 0
-787 -801 0
-788 807 0
-802 807 0
-788 -802 808 0
-803 808 0
-788 -803 809 0
-804 809 0
-788 -804 810 0
-805 810 0
-788 -805 811 0
-806 811 0
-788 -806 0
-789 812 0
-807 812 0
-789 -807 813 0
-808 813 0
-789 -808 814 0
-809 814 0
-789 -809 815 0
-810 815 0
-789 -810 816 0
-811 816 0
-789 -811 0
-790 817 0
-812 817 0
-790 -812 818 0
-813 818 0
-790 -813 819 0
-814 819 0
-790 -814 820 0
-815 820 0
-790 -815 821 0
-816 821 0
-790 -816 0
-791 -821 0
-827 1 2 3 4 5 6 0
-1 827 0
-2 827 0
-3 827 0
-4 827 0
-5 827 0
-6 827 0
-828 8 9 10 11 12 13 0
-8 828 0
-9 828 0
-10 828 0
-11 828 0
-12 828 0
-13 828 0
-829 15 16 17 18 19 20 0
-15 829 0
-16 829 0
-17 829 0
-18 829 0
-19 829 0
-20 829 0
-830 22 23 24 25 26 27 0
-22 830 0
-23 830 0
-24 830 0
-25 830 0
-26 830 0
-27 830 0
-831 29 30 31 32 33 34 0
-29 831 0
-30 831 0
-31 831 0
-32 831 0
-33 831 0
-34 831 0
-832 36 37 38 39 40 41 0
-36 832 0
-37 832 0
-38 832 0
-39 832 0
-40 832 0
-41 832 0
-833 43 44 45 46 47 48 0
-43 833 0
-44 833 0
-45 833 0
-46 833 0
-47 833 0
-48 833 0
-827 834 0
-835 0
-836 0
-837 0
-838 0
-839 0
-828 840 0
-834 840 0
-828 -834 841 0
-835 841 0
-828 -835 842 0
-836 842 0
-828 -836 843 0
-837 843 0
-828 -837 844 0
-838 844 0
-828 -838 845 0
-839 845 0
-828 -839 0
-829 846 0
-840 846 0
-829 -840 847 0
-841 847 0
-829 -841 848 0
-842 848 0
-829 -842 849 0
-843 849 0
-829 -843 850 0
-844 850 0
-829 -844 851 0
-845 851 0
-829 -845 0
-830 852 0
-846 852 0
-830 -846 853 0
-847 853 0
-830 -847 854 0
-848 854 0
-830 -848 855 0
-849 855 0
-830 -849 856 0
-850 856 0
-830 -850 857 0
-851 857 0
-830 -851 0
-831 858 0
-852 858 0
-831 -852 859 0
-853 859 0
-831 -853 860 0
-854 860 0
-831 -854 861 0
-855 861 0
-831 -855 862 0
-856 862 0
-831 -856 863 0
-857 863 0
-831 -857 0
-832 864 0
-858 864 0
-832 -858 865 0
-859 865 0
-832 -859 866 0
-860 866 0
-832 -860 867 0
-861 867 0
-832 -861 868 0
-862 868 0
-832 -862 869 0
-863 869 0
-832 -863 0
-833 -869 0
-876 1 2 3 4 5 6 7 0
-1 876 0
-2 876 0
-3 876 0
-4 876 0
-5 876 0
-6 876 0
-7 876 0
-877 8 9 10 11 12 13 14 0
-8 877 0
-9 877 0
-10 877 0
-11 877 0
-12 877 0
-13 877 0
-14 877 0
-878 15 16 17 18 19 20 21 0
-15 878 0
-16 878 0
-17 878 0
-18 878 0
-19 878 0
-20 878 0
-21 878 0
-879 22 23 24 25 26 27 28 0
-22 879 0
-23 879 0
-24 879 0
-25 879 0
-26 879 0
-27 879 0
-28 879 0
-880 29 30 31 32 33 34 35 0
-29 880 0
-30 880 0
-31 880 0
-32 880 0
-33 880 0
-34 880 0
-35 880 0
-881 36 37 38 39 40 41 42 0
-36 881 0
-37 881 0
-38 881 0
-39 881 0
-40 881 0
-41 881 0
-42 881 0
-882 43 44 45 46 47 48 49 0
-43 882 0
-44 882 0
-45 882 0
-46 882 0
-47 882 0
-48 882 0
-49 882 0
-883 2 0
-2 883 0
-884 9 0
-9 884 0
-885 16 0
-16 885 0
-886 23 0
-23 886 0
-887 30 0
-30 887 0
-888 37 0
-37 888 0
-889 44 0
-44 889 0
-883 890 0
-884 891 0
-890 891 0
-884 -890 0
-885 892 0
-891 892 0
-885 -891 0
-886 893 0
-892 893 0
-886 -892 0
-887 894 0
-893 894 0
-887 -893 0
-888 895 0
-894 895 0
-888 -894 0
-889 -895 0
-897 2 3 0
-2 897 0
-3 897 0
-898 9 10 0
-9 898 0
-10 898 0
-899 16 17 0
-16 899 0
-17 899 0
-900 23 24 0
-23 900 0
-24 900 0
-901 30 31 0
-30 901 0
-31 901 0
-902 37 38 0
-37 902 0
-38 902 0
-903 44 45 0
-44 903 0
-45 903 0
-897 904 0
-905 0
-898 906 0
-904 906 0
-898 -904 907 0
-905 907 0
-898 -905 0
-899 908 0
-906 908 0
-899 -906 909 0
-907 909 0
-899 -907 0
-900 910 0
-908 910 0
-900 -908 911 0
-909 911 0
-900 -909 0
-901 912 0
-910 912 0
-901 -910 913 0
-911 913 0
-901 -911 0
-902 914 0
-912 914 0
-902 -912 915 0
-913 915 0
-902 -913 0
-903 -915 0
-918 2 3 4 0
-2 918 0
-3 918 0
-4 918 0
-919 9 10 11 0
-9 919 0
-10 919 0
-11 919 0
-920 16 17 18 0
-16 920 0
-17 920 0
-18 920 0
-921 23 24 25 0
-23 921 0
-24 921 0
-25 921 0
-922 30 31 32 0
-30 922 0
-31 922 0
-32 922 0
-923 37 38 39 0
-37 923 0
-38 923 0
-39 923 0
-924 44 45 46 0
-44 924 0
-45 924 0
-46 924 0
-918 925 0
-926 0
-927 0
-919 928 0
-925 928 0
-919 -925 929 0
-926 929 0
-919 -926 930 0
-927 930 0
-919 -927 0
-920 931 0
-928 931 0
-920 -928 932 0
-929 932 0
-920 -929 933 0
-930 933 0
-920 -930 0
-921 934 0
-931 934 0
-921 -931 935 0
-932 935 0
-921 -932 936 0
-933 936 0
-921 -933 0
-922 937 0
-934 937 0
-922 -934 938 0
-935 938 0
-922 -935 939 0
-936 939 0
-922 -936 0
-923 940 0
-937 940 0
-923 -937 941 0
-938 941 0
-923 -938 942 0
-939 942 0
-923 -939 0
-924 -942 0
-946 2 3 4 5 0
-2 946 0
-3 946 0
-4 946 0
-5 946 0
-947 9 10 11 12 0
-9 947 0
-10 947 0
-11 947 0
-12 947 0
-948 16 17 18 19 0
-16 948 0
-17 948 0
-18 948 0
-19 948 0
-949 23 24 25 26 0
-23 949 0
-24 949 0
-25 949 0
-26 949 0
-950 30 31 32 33 0
-30 950 0
-31 950 0
-32 950 0
-33 950 0
-951 37 38 39 40 0
-37 951 0
-38 951 0
-39 951 0
-40 951 0
-952 44 45 46 47 0
-44 952 0
-45 952 0
-46 952 0
-47 952 0
-946 953 0
-954 0
-955 0
-956 0
-947 957 0
-953 957 0
-947 -953 958 0
-954 958 0
-947 -954 959 0
-955 959 0
-947 -955 960 0
-956 960 0
-947 -956 0
-948 961 0
-957 961 0
-948 -957 962 0
-958 962 0
-948 -958 963 0
-959 963 0
-948 -959 964 0
-960 964 0
-948 -960 0
-949 965 0
-961 965 0
-949 -961 966 0
-962 966 0
-949 -962 967 0
-963 967 0
-949 -963 968 0
-964 968 0
-949 -964 0
-950 969 0
-965 969 0
-950 -965 970 0
-966 970 0
-950 -966 971 0
-967 971 0
-950 -967 972 0
-968 972 0
-950 -968 0
-951 973 0
-969 973 0
-951 -969 974 0
-970 974 0
-951 -970 975 0
-971 975 0
-951 -971 976 0
-972 976 0
-951 -972 0
-952 -976 0
-981 2 3 4 5 6 0
-2 981 0
-3 981 0
-4 981 0
-5 981 0
-6 981 0
-982 9 10 11 12 13 0
-9 982 0
-10 982 0
-11 982 0
-12 982 0
-13 982 0
-983 16 17 18 19 20 0
-16 983 0
-17 983 0
-18 983 0
-19 983 0
-20 983 0
-984 23 24 25 26 27 0
-23 984 0
-24 984 0
-25 984 0
-26 984 0
-27 984 0
-985 30 31 32 33 34 0
-30 985 0
-31 985 0
-32 985 0
-33 985 0
-34 985 0
-986 37 38 39 40 41 0
-37 986 0
-38 986 0
-39 986 0
-40 986 0
-41 986 0
-987 44 45 46 47 48 0
-44 987 0
-45 987 0
-46 987 0
-47 987 0
-48 987 0
-981 988 0
-989 0
-990 0
-991 0
-992 0
-982 993 0
-988 993 0
-982 -988 994 0
-989 994 0
-982 -989 995 0
-990 995 0
-982 -990 996 0
-991 996 0
-982 -991 997 0
-992 997 0
-982 -992 0
-983 998 0
-993 998 0
-983 -993 999 0
-994 999 0
-983 -994 1000 0
-995 1000 0
-983 -995 1001 0
-996 1001 0
-983 -996 1002 0
-997 1002 0
-983 -997 0
-984 1003 0
-998 1003 0
-984 -998 1004 0
-999 1004 0
-984 -999 1005 0
-1000 1005 0
-984 -1000 1006 0
-1001 1006 0
-984 -1001 1007 0
-1002 1007 0
-984 -1002 0
-985 1008 0
-1003 1008 0
-985 -1003 1009 0
-1004 1009 0
-985 -1004 1010 0
-1005 1010 0
-985 -1005 1011 0
-1006 1011 0
-985 -1006 1012 0
-1007 1012 0
-985 -1007 0
-986 1013 0
-1008 1013 0
-986 -1008 1014 0
-1009 1014 0
-986 -1009 1015 0
-1010 1015 0
-986 -1010 1016 0
-1011 1016 0
-986 -1011 1017 0
-1012 1017 0
-986 -1012 0
-987 -1017 0
-1023 2 3 4 5 6 7 0
-2 1023 0
-3 1023 0
-4 1023 0
-5 1023 0
-6 1023 0
-7 1023 0
-1024 9 10 11 12 13 14 0
-9 1024 0
-10 1024 0
-11 1024 0
-12 1024 0
-13 1024 0
-14 1024 0
-1025 16 17 18 19 20 21 0
-16 1025 0
-17 1025 0
-18 1025 0
-19 1025 0
-20 1025 0
-21 1025 0
-1026 23 24 25 26 27 28 0
-23 1026 0
-24 1026 0
-25 1026 0
-26 1026 0
-27 1026 0
-28 1026 0
-1027 30 31 32 33 34 35 0
-30 1027 0
-31 1027 0
-32 1027 0
-33 1027 0
-34 1027 0
-35 1027 0
-1028 37 38 39 40 41 42 0
-37 1028 0
-38 1028 0
-39 1028 0
-40 1028 0
-41 1028 0
-42 1028 0
-1029 44 45 46 47 48 49 0
-44 1029 0
-45 1029 0
-46 1029 0
-47 1029 0
-48 1029 0
-49 1029 0
-1023 1030 0
-1031 0
-1032 0
-1033 0
-1034 0
-1035 0
-1024 1036 0
-1030 1036 0
-1024 -1030 1037 0
-1031 1037 0
-1024 -1031 1038 0
-1032 1038 0
-1024 -1032 1039 0
-1033 1039 0
-1024 -1033 1040 0
-1034 1040 0
-1024 -1034 1041 0
-1035 1041 0
-1024 -1035 0
-1025 1042 0
-1036 1042 0
-1025 -1036 1043 0
-1037 1043 0
-1025 -1037 1044 0
-1038 1044 0
-1025 -1038 1045 0
-1039 1045 0
-1025 -1039 1046 0
-1040 1046 0
-1025 -1040 1047 0
-1041 1047 0
-1025 -1041 0
-1026 1048 0
-1042 1048 0
-1026 -1042 1049 0
-1043 1049 0
-1026 -1043 1050 0
-1044 1050 0
-1026 -1044 1051 0
-1045 1051 0
-1026 -1045 1052 0
-1046 1052 0
-1026 -1046 1053 0
-1047 1053 0
-1026 -1047 0
-1027 1054 0
-1048 1054 0
-1027 -1048 1055 0
-1049 1055 0
-1027 -1049 1056 0
-1050 1056 0
-1027 -1050 1057 0
-1051 1057 0
-1027 -1051 1058 0
-1052 1058 0
-1027 -1052 1059 0
-1053 1059 0
-1027 -1053 0
-1028 1060 0
-1054 1060 0
-1028 -1054 1061 0
-1055 1061 0
-1028 -1055 1062 0
-1056 1062 0
-1028 -1056 1063 0
-1057 1063 0
-1028 -1057 1064 0
-1058 1064 0
-1028 -1058 1065 0
-1059 1065 0
-1028 -1059 0
-1029 -1065 0
-1072 3 0
-3 1072 0
-1073 10 0
-10 1073 0
-1074 17 0
-17 1074 0
-1075 24 0
-24 1075 0
-1076 31 0
-31 1076 0
-1077 38 0
-38 1077 0
-1078 45 0
-45 1078 0
-1072 1079 0
-1073 1080 0
-1079 1080 0
-1073 -1079 0
-1074 1081 0
-1080 1081 0
-1074 -1080 0
-1075 1082 0
-1081 1082 0
-1075 -1081 0
-1076 1083 0
-1082 1083 0
-1076 -1082 0
-1077 1084 0
-1083 1084 0
-1077 -1083 0
-1078 -1084 0
-1086 3 4 0
-3 1086 0
-4 1086 0
-1087 10 11 0
-10 1087 0
-11 1087 0
-1088 17 18 0
-17 1088 0
-18 1088 0
-1089 24 25 0
-24 1089 0
-25 1089 0
-1090 31 32 0
-31 1090 0
-32 1090 0
-1091 38 39 0
-38 1091 0
-39 1091 0
-1092 45 46 0
-45 1092 0
-46 1092 0
-1086 1093 0
-1094 0
-1087 1095 0
-1093 1095 0
-1087 -1093 1096 0
-1094 1096 0
-1087 -1094 0
-1088 1097 0
-1095 1097 0
-1088 -1095 1098 0
-1096 1098 0
-1088 -1096 0
-1089 1099 0
-1097 1099 0
-1089 -1097 1100 0
-1098 1100 0
-1089 -1098 0
-1090 1101 0
-1099 1101 0
-1090 -1099 1102 0
-1100 1102 0
-1090 -1100 0
-1091 1103 0
-1101 1103 0
-1091 -1101 1104 0
-1102 1104 0
-1091 -1102 0
-1092 -1104 0
-1107 3 4 5 0
-3 1107 0
-4 1107 0
-5 1107 0
-1108 10 11 12 0
-10 1108 0
-11 1108 0
-12 1108 0
-1109 17 18 19 0
-17 1109 0
-18 1109 0
-19 1109 0
-1110 24 25 26 0
-24 1110 0
-25 1110 0
-26 1110 0
-1111 31 32 33 0
-31 1111 0
-32 1111 0
-33 1111 0
-1112 38 39 40 0
-38 1112 0
-39 1112 0
-40 1112 0
-1113 45 46 47 0
-45 1113 0
-46 1113 0
-47 1113 0
-1107 1114 0
-1115 0
-1116 0
-1108 1117 0
-1114 1117 0
-1108 -1114 1118 0
-1115 1118 0
-1108 -1115 1119 0
-1116 1119 0
-1108 -1116 0
-1109 1120 0
-1117 1120 0
-1109 -1117 1121 0
-1118 1121 0
-1109 -1118 1122 0
-1119 1122 0
-1109 -1119 0
-1110 1123 0
-1120 1123 0
-1110 -1120 1124 0
-1121 1124 0
-1110 -1121 1125 0
-1122 1125 0
-1110 -1122 0
-1111 1126 0
-1123 1126 0
-1111 -1123 1127 0
-1124 1127 0
-1111 -1124 1128 0
-1125 1128 0
-1111 -1125 0
-1112 1129 0
-1126 1129 0
-1112 -1126 1130 0
-1127 1130 0
-1112 -1127 1131 0
-1128 1131 0
-1112 -1128 0
-1113 -1131 0
-1135 3 4 5 6 0
-3 1135 0
-4 1135 0
-5 1135 0
-6 1135 0
-1136 10 11 12 13 0
-10 1136 0
-11 1136 0
-12 1136 0
-13 1136 0
-1137 17 18 19 20 0
-17 1137 0
-18 1137 0
-19 1137 0
-20 1137 0
-1138 24 25 26 27 0
-24 1138 0
-25 1138 0
-26 1138 0
-27 1138 0
-1139 31 32 33 34 0
-31 1139 0
-32 1139 0
-33 1139 0
-34 1139 0
-1140 38 39 40 41 0
-38 1140 0
-39 1140 0
-40 1140 0
-41 1140 0
-1141 45 46 47 48 0
-45 1141 0
-46 1141 0
-47 1141 0
-48 1141 0
-1135 1142 0
-1143 0
-1144 0
-1145 0
-1136 1146 0
-1142 1146 0
-1136 -1142 1147 0
-1143 1147 0
-1136 -1143 1148 0
-1144 1148 0
-1136 -1144 1149 0
-1145 1149 0
-1136 -1145 0
-1137 1150 0
-1146 1150 0
-1137 -1146 1151 0
-1147 1151 0
-1137 -1147 1152 0
-1148 1152 0
-1137 -1148 1153 0
-1149 1153 0
-1137 -1149 0
-1138 1154 0
-1150 1154 0
-1138 -1150 1155 0
-1151 1155 0
-1138 -1151 1156 0
-1152 1156 0
-1138 -1152 1157 0
-1153 1157 0
-1138 -1153 0
-1139 1158 0
-1154 1158 0
-1139 -1154 1159 0
-1155 1159 0
-1139 -1155 1160 0
-1156 1160 0
-1139 -1156 1161 0
-1157 1161 0
-1139 -1157 0
-1140 1162 0
-1158 1162 0
-1140 -1158 1163 0
-1159 1163 0
-1140 -1159 1164 0
-1160 1164 0
-1140 -1160 1165 0
-1161 1165 0
-1140 -1161 0
-1141 -1165 0
-1170 3 4 5 6 7 0
-3 1170 0
-4 1170 0
-5 1170 0
-6 1170 0
-7 1170 0
-1171 10 11 12 13 14 0
-10 1171 0
-11 1171 0
-12 1171 0
-13 1171 0
-14 1171 0
-1172 17 18 19 20 21 0
-17 1172 0
-18 1172 0
-19 1172 0
-20 1172 0
-21 1172 0
-1173 24 25 26 27 28 0
-24 1173 0
-25 1173 0
-26 1173 0
-27 1173 0
-28 1173 0
-1174 31 32 33 34 35 0
-31 1174 0
-32 1174 0
-33 1174 0
-34 1174 0
-35 1174 0
-1175 38 39 40 41 42 0
-38 1175 0
-39 1175 0
-40 1175 0
-41 1175 0
-42 1175 0
-1176 45 46 47 48 49 0
-45 1176 0
-46 1176 0
-47 1176 0
-48 1176 0
-49 1176 0
-1170 1177 0
-1178 0
-1179 0
-1180 0
-1181 0
-1171 1182 0
-1177 1182 0
-1171 -1177 1183 0
-1178 1183 0
-1171 -1178 1184 0
-1179 1184 0
-1171 -1179 1185 0
-1180 1185 0
-1171 -1180 1186 0
-1181 1186 0
-1171 -1181 0
-1172 1187 0
-1182 1187 0
-1172 -1182 1188 0
-1183 1188 0
-1172 -1183 1189 0
-1184 1189 0
-1172 -1184 1190 0
-1185 1190 0
-1172 -1185 1191 0
-1186 1191 0
-1172 -1186 0
-1173 1192 0
-1187 1192 0
-1173 -1187 1193 0
-1188 1193 0
-1173 -1188 1194 0
-1189 1194 0
-1173 -1189 1195 0
-1190 1195 0
-1173 -1190 1196 0
-1191 1196 0
-1173 -1191 0
-1174 1197 0
-1192 1197 0
-1174 -1192 1198 0
-1193 1198 0
-1174 -1193 1199 0
-1194 1199 0
-1174 -1194 1200 0
-1195 1200 0
-1174 -1195 1201 0
-1196 1201 0
-1174 -1196 0
-1175 1202 0
-1197 1202 0
-1175 -1197 1203 0
-1198 1203 0
-1175 -1198 1204 0
-1199 1204 0
-1175 -1199 1205 0
-1200 1205 0
-1175 -1200 1206 0
-1201 1206 0
-1175 -1201 0
-1176 -1206 0
-1212 4 0
-4 1212 0
-1213 11 0
-11 1213 0
-1214 18 0
-18 1214 0
-1215 25 0
-25 1215 0
-1216 32 0
-32 1216 0
-1217 39 0
-39 1217 0
-1218 46 0
-46 1218 0
-1212 1219 0
-1213 1220 0
-1219 1220 0
-1213 -1219 0
-1214 1221 0
-1220 1221 0
-1214 -1220 0
-1215 1222 0
-1221 1222 0
-1215 -1221 0
-1216 1223 0
-1222 1223 0
-1216 -1222 0
-1217 1224 0
-1223 1224 0
-1217 -1223 0
-1218 -1224 0
-1226 4 5 0
-4 1226 0
-5 1226 0
-1227 11 12 0
-11 1227 0
-12 1227 0
-1228 18 19 0
-18 1228 0
-19 1228 0
-1229 25 26 0
-25 1229 0
-26 1229 0
-1230 32 33 0
-32 1230 0
-33 1230 0
-1231 39 40 0
-39 1231 0
-40 1231 0
-1232 46 47 0
-46 1232 0
-47 1232 0
-1226 1233 0
-1234 0
-1227 1235 0
-1233 1235 0
-1227 -1233 1236 0
-1234 1236 0
-1227 -1234 0
-1228 1237 0
-1235 1237 0
-1228 -1235 1238 0
-1236 1238 0
-1228 -1236 0
-1229 1239 0
-1237 1239 0
-1229 -1237 1240 0
-1238 1240 0
-1229 -1238 0
-1230 1241 0
-1239 1241 0
-1230 -1239 1242 0
-1240 1242 0
-1230 -1240 0
-1231 1243 0
-1241 1243 0
-1231 -1241 1244 0
-1242 1244 0
-1231 -1242 0
-1232 -1244 0
-1247 4 5 6 0
-4 1247 0
-5 1247 0
-6 1247 0
-1248 11 12 13 0
-11 1248 0
-12 1248 0
-13 1248 0
-1249 18 19 20 0
-18 1249 0
-19 1249 0
-20 1249 0
-1250 25 26 27 0
-25 1250 0
-26 1250 0
-27 1250 0
-1251 32 33 34 0
-32 1251 0
-33 1251 0
-34 1251 0
-1252 39 40 41 0
-39 1252 0
-40 1252 0
-41 1252 0
-1253 46 47 48 0
-46 1253 0
-47 1253 0
-48 1253 0
-1247 1254 0
-1255 0
-1256 0
-1248 1257 0
-1254 1257 0
-1248 -1254 1258 0
-1255 1258 0
-1248 -1255 1259 0
-1256 1259 0
-1248 -1256 0
-1249 1260 0
-1257 1260 0
-1249 -1257 1261 0
-1258 1261 0
-1249 -1258 1262 0
-1259 1262 0
-1249 -1259 0
-1250 1263 0
-1260 1263 0
-1250 -1260 1264 0
-1261 1264 0
-1250 -1261 1265 0
-1262 1265 0
-1250 -1262 0
-1251 1266 0
-1263 1266 0
-1251 -1263 1267 0
-1264 1267 0
-1251 -1264 1268 0
-1265 1268 0
-1251 -1265 0
-1252 1269 0
-1266 1269 0
-1252 -1266 1270 0
-1267 1270 0
-1252 -1267 1271 0
-1268 1271 0
-1252 -1268 0
-1253 -1271 0
-1275 4 5 6 7 0
-4 1275 0
-5 1275 0
-6 1275 0
-7 1275 0
-1276 11 12 13 14 0
-11 1276 0
-12 1276 0
-13 1276 0
-14 1276 0
-1277 18 19 20 21 0
-18 1277 0
-19 1277 0
-20 1277 0
-21 1277 0
-1278 25 26 27 28 0
-25 1278 0
-26 1278 0
-27 1278 0
-28 1278 0
-1279 32 33 34 35 0
-32 1279 0
-33 1279 0
-34 1279 0
-35 1279 0
-1280 39 40 41 42 0
-39 1280 0
-40 1280 0
-41 1280 0
-42 1280 0
-1281 46 47 48 49 0
-46 1281 0
-47 1281 0
-48 1281 0
-49 1281 0
-1275 1282 0
-1283 0
-1284 0
-1285 0
-1276 1286 0
-1282 1286 0
-1276 -1282 1287 0
-1283 1287 0
-1276 -1283 1288 0
-1284 1288 0
-1276 -1284 1289 0
-1285 1289 0
-1276 -1285 0
-1277 1290 0
-1286 1290 0
-1277 -1286 1291 0
-1287 1291 0
-1277 -1287 1292 0
-1288 1292 0
-1277 -1288 1293 0
-1289 1293 0
-1277 -1289 0
-1278 1294 0
-1290 1294 0
-1278 -1290 1295 0
-1291 1295 0
-1278 -1291 1296 0
-1292 1296 0
-1278 -1292 1297 0
-1293 1297 0
-1278 -1293 0
-1279 1298 0
-1294 1298 0
-1279 -1294 1299 0
-1295 1299 0
-1279 -1295 1300 0
-1296 1300 0
-1279 -1296 1301 0
-1297 1301 0
-1279 -1297 0
-1280 1302 0
-1298 1302 0
-1280 -1298 1303 0
-1299 1303 0
-1280 -1299 1304 0
-1300 1304 0
-1280 -1300 1305 0
-1301 1305 0
-1280 -1301 0
-1281 -1305 0
-1310 5 0
-5 1310 0
-1311 12 0
-12 1311 0
-1312 19 0
-19 1312 0
-1313 26 0
-26 1313 0
-1314 33 0
-33 1314 0
-1315 40 0
-40 1315 0
-1316 47 0
-47 1316 0
-1310 1317 0
-1311 1318 0
-1317 1318 0
-1311 -1317 0
-1312 1319 0
-1318 1319 0
-1312 -1318 0
-1313 1320 0
-1319 1320 0
-1313 -1319 0
-1314 1321 0
-1320 1321 0
-1314 -1320 0
-1315 1322 0
-1321 1322 0
-1315 -1321 0
-1316 -1322 0
-1324 5 6 0
-5 1324 0
-6 1324 0
-1325 12 13 0
-12 1325 0
-13 1325 0
-1326 19 20 0
-19 1326 0
-20 1326 0
-1327 26 27 0
-26 1327 0
-27 1327 0
-1328 33 34 0
-33 1328 0
-34 1328 0
-1329 40 41 0
-40 1329 0
-41 1329 0
-1330 47 48 0
-47 1330 0
-48 1330 0
-1324 1331 0
-1332 0
-1325 1333 0
-1331 1333 0
-1325 -1331 1334 0
-1332 1334 0
-1325 -1332 0
-1326 1335 0
-1333 1335 0
-1326 -1333 1336 0
-1334 1336 0
-1326 -1334 0
-1327 1337 0
-1335 1337 0
-1327 -1335 1338 0
-1336 1338 0
-1327 -1336 0
-1328 1339 0
-1337 1339 0
-1328 -1337 1340 0
-1338 1340 0
-1328 -1338 0
-1329 1341 0
-1339 1341 0
-1329 -1339 1342 0
-1340 1342 0
-1329 -1340 0
-1330 -1342 0
-1345 5 6 7 0
-5 1345 0
-6 1345 0
-7 1345 0
-1346 12 13 14 0
-12 1346 0
-13 1346 0
-14 1346 0
-1347 19 20 21 0
-19 1347 0
-20 1347 0
-21 1347 0
-1348 26 27 28 0
-26 1348 0
-27 1348 0
-28 1348 0
-1349 33 34 35 0
-33 1349 0
-34 1349 0
-35 1349 0
-1350 40 41 42 0
-40 1350 0
-41 1350 0
-42 1350 0
-1351 47 48 49 0
-47 1351 0
-48 1351 0
-49 1351 0
-1345 1352 0
-1353 0
-1354 0
-1346 1355 0
-1352 1355 0
-1346 -1352 1356 0
-1353 1356 0
-1346 -1353 1357 0
-1354 1357 0
-1346 -1354 0
-1347 1358 0
-1355 1358 0
-1347 -1355 1359 0
-1356 1359 0
-1347 -1356 1360 0
-1357 1360 0
-1347 -1357 0
-1348 1361 0
-1358 1361 0
-1348 -1358 1362 0
-1359 1362 0
-1348 -1359 1363 0
-1360 1363 0
-1348 -1360 0
-1349 1364 0
-1361 1364 0
-1349 -1361 1365 0
-1362 1365 0
-1349 -1362 1366 0
-1363 1366 0
-1349 -1363 0
-1350 1367 0
-1364 1367 0
-1350 -1364 1368 0
-1365 1368 0
-1350 -1365 1369 0
-1366 1369 0
-1350 -1366 0
-1351 -1369 0
-1373 6 0
-6 1373 0
-1374 13 0
-13 1374 0
-1375 20 0
-20 1375 0
-1376 27 0
-27 1376 0
-1377 34 0
-34 1377 0
-1378 41 0
-41 1378 0
-1379 48 0
-48 1379 0
-1373 1380 0
-1374 1381 0
-1380 1381 0
-1374 -1380 0
-1375 1382 0
-1381 1382 0
-1375 -1381 0
-1376 1383 0
-1382 1383 0
-1376 -1382 0
-1377 1384 0
-1383 1384 0
-1377 -1383 0
-1378 1385 0
-1384 1385 0
-1378 -1384 0
-1379 -1385 0
-1387 6 7 0
-6 1387 0
-7 1387 0
-1388 13 14 0
-13 1388 0
-14 1388 0
-1389 20 21 0
-20 1389 0
-21 1389 0
-1390 27 28 0
-27 1390 0
-28 1390 0
-1391 34 35 0
-34 1391 0
-35 1391 0
-1392 41 42 0
-41 1392 0
-42 1392 0
-1393 48 49 0
-48 1393 0
-49 1393 0
-1387 1394 0
-1395 0
-1388 1396 0
-1394 1396 0
-1388 -1394 1397 0
-1395 1397 0
-1388 -1395 0
-1389 1398 0
-1396 1398 0
-1389 -1396 1399 0
-1397 1399 0
-1389 -1397 0
-1390 1400 0
-1398 1400 0
-1390 -1398 1401 0
-1399 1401 0
-1390 -1399 0
-1391 1402 0
-1400 1402 0
-1391 -1400 1403 0
-1401 1403 0
-1391 -1401 0
-1392 1404 0
-1402 1404 0
-1392 -1402 1405 0
-1403 1405 0
-1392 -1403 0
-1393 -1405 0
-1408 7 0
-7 1408 0
-1409 14 0
-14 1409 0
-1410 21 0
-21 1410 0
-1411 28 0
-28 1411 0
-1412 35 0
-35 1412 0
-1413 42 0
-42 1413 0
-1414 49 0
-49 1414 0
-1408 1415 0
-1409 1416 0
-1415 1416 0
-1409 -1415 0
-1410 1417 0
-1416 1417 0
-1410 -1416 0
-1411 1418 0
-1417 1418 0
-1411 -1417 0
-1412 1419 0
-1418 1419 0
-1412 -1418 0
-1413 1420 0
-1419 1420 0
-1413 -1419 0
-1414 -1420 0
-1422 50 0
-50 1422 0
-1423 57 0
-57 1423 0
-1424 64 0
-64 1424 0
-1425 71 0
-71 1425 0
-1426 78 0
-78 1426 0
-1427 85 0
-85 1427 0
-1428 92 0
-92 1428 0
-1422 1429 0
-1423 1430 0
-1429 1430 0
-1423 -1429 0
-1424 1431 0
-1430 1431 0
-1424 -1430 0
-1425 1432 0
-1431 1432 0
-1425 -1431 0
-1426 1433 0
-1432 1433 0
-1426 -1432 0
-1427 1434 0
-1433 1434 0
-1427 -1433 0
-1428 -1434 0
-1436 50 51 0
-50 1436 0
-51 1436 0
-1437 57 58 0
-57 1437 0
-58 1437 0
-1438 64 65 0
-64 1438 0
-65 1438 0
-1439 71 72 0
-71 1439 0
-72 1439 0
-1440 78 79 0
-78 1440 0
-79 1440 0
-1441 85 86 0
-85 1441 0
-86 1441 0
-1442 92 93 0
-92 1442 0
-93 1442 0
-1436 1443 0
-1444 0
-1437 1445 0
-1443 1445 0
-1437 -1443 1446 0
-1444 1446 0
-1437 -1444 0
-1438 1447 0
-1445 1447 0
-1438 -1445 1448 0
-1446 1448 0
-1438 -1446 0
-1439 1449 0
-1447 1449 0
-1439 -1447 1450 0
-1448 1450 0
-1439 -1448 0
-1440 1451 0
-1449 1451 0
-1440 -1449 1452 0
-1450 1452 0
-1440 -1450 0
-1441 1453 0
-1451 1453 0
-1441 -1451 1454 0
-1452 1454 0
-1441 -1452 0
-1442 -1454 0
-1457 50 51 52 0
-50 1457 0
-51 1457 0
-52 1457 0
-1458 57 58 59 0
-57 1458 0
-58 1458 0
-59 1458 0
-1459 64 65 66 0
-64 1459 0
-65 1459 0
-66 1459 0
-1460 71 72 73 0
-71 1460 0
-72 1460 0
-73 1460 0
-1461 78 79 80 0
-78 1461 0
-79 1461 0
-80 1461 0
-1462 85 86 87 0
-85 1462 0
-86 1462 0
-87 1462 0
-1463 92 93 94 0
-92 1463 0
-93 1463 0
-94 1463 0
-1457 1464 0
-1465 0
-1466 0
-1458 1467 0
-1464 1467 0
-1458 -1464 1468 0
-1465 1468 0
-1458 -1465 1469 0
-1466 1469 0
-1458 -1466 0
-1459 1470 0
-1467 1470 0
-1459 -1467 1471 0
-1468 1471 0
-1459 -1468 1472 0
-1469 1472 0
-1459 -1469 0
-1460 1473 0
-1470 1473 0
-1460 -1470 1474 0
-1471 1474 0
-1460 -1471 1475 0
-1472 1475 0
-1460 -1472 0
-1461 1476 0
-1473 1476 0
-1461 -1473 1477 0
-1474 1477 0
-1461 -1474 1478 0
-1475 1478 0
-1461 -1475 0
-1462 1479 0
-1476 1479 0
-1462 -1476 1480 0
-1477 1480 0
-1462 -1477 1481 0
-1478 1481 0
-1462 -1478 0
-1463 -1481 0
-1485 50 51 52 53 0
-50 1485 0
-51 1485 0
-52 1485 0
-53 1485 0
-1486 57 58 59 60 0
-57 1486 0
-58 1486 0
-59 1486 0
-60 1486 0
-1487 64 65 66 67 0
-64 1487 0
-65 1487 0
-66 1487 0
-67 1487 0
-1488 71 72 73 74 0
-71 1488 0
-72 1488 0
-73 1488 0
-74 1488 0
-1489 78 79 80 81 0
-78 1489 0
-79 1489 0
-80 1489 0
-81 1489 0
-1490 85 86 87 88 0
-85 1490 0
-86 1490 0
-87 1490 0
-88 1490 0
-1491 92 93 94 95 0
-92 1491 0
-93 1491 0
-94 1491 0
-95 1491 0
-1485 1492 0
-1493 0
-1494 0
-1495 0
-1486 1496 0
-1492 1496 0
-1486 -1492 1497 0
-1493 1497 0
-1486 -1493 1498 0
-1494 1498 0
-1486 -1494 1499 0
-1495 1499 0
-1486 -1495 0
-1487 1500 0
-1496 1500 0
-1487 -1496 1501 0
-1497 1501 0
-1487 -1497 1502 0
-1498 1502 0
-1487 -1498 1503 0
-1499 1503 0
-1487 -1499 0
-1488 1504 0
-1500 1504 0
-1488 -1500 1505 0
-1501 1505 0
-1488 -1501 1506 0
-1502 1506 0
-1488 -1502 1507 0
-1503 1507 0
-1488 -1503 0
-1489 1508 0
-1504 1508 0
-1489 -1504 1509 0
-1505 1509 0
-1489 -1505 1510 0
-1506 1510 0
-1489 -1506 1511 0
-1507 1511 0
-1489 -1507 0
-1490 1512 0
-1508 1512 0
-1490 -1508 1513 0
-1509 1513 0
-1490 -1509 1514 0
-1510 1514 0
-1490 -1510 1515 0
-1511 1515 0
-1490 -1511 0
-1491 -1515 0
-1520 50 51 52 53 54 0
-50 1520 0
-51 1520 0
-52 1520 0
-53 1520 0
-54 1520 0
-1521 57 58 59 60 61 0
-57 1521 0
-58 1521 0
-59 1521 0
-60 1521 0
-61 1521 0
-1522 64 65 66 67 68 0
-64 1522 0
-65 1522 0
-66 1522 0
-67 1522 0
-68 1522 0
-1523 71 72 73 74 75 0
-71 1523 0
-72 1523 0
-73 1523 0
-74 1523 0
-75 1523 0
-1524 78 79 80 81 82 0
-78 1524 0
-79 1524 0
-80 1524 0
-81 1524 0
-82 1524 0
-1525 85 86 87 88 89 0
-85 1525 0
-86 1525 0
-87 1525 0
-88 1525 0
-89 1525 0
-1526 92 93 94 95 96 0
-92 1526 0
-93 1526 0
-94 1526 0
-95 1526 0
-96 1526 0
-1520 1527 0
-1528 0
-1529 0
-1530 0
-1531 0
-1521 1532 0
-1527 1532 0
-1521 -1527 1533 0
-1528 1533 0
-1521 -1528 1534 0
-1529 1534 0
-1521 -1529 1535 0
-1530 1535 0
-1521 -1530 1536 0
-1531 1536 0
-1521 -1531 0
-1522 1537 0
-1532 1537 0
-1522 -1532 1538 0
-1533 1538 0
-1522 -1533 1539 0
-1534 1539 0
-1522 -1534 1540 0
-1535 1540 0
-1522 -1535 1541 0
-1536 1541 0
-1522 -1536 0
-1523 1542 0
-1537 1542 0
-1523 -1537 1543 0
-1538 1543 0
-1523 -1538 1544 0
-1539 1544 0
-1523 -1539 1545 0
-1540 1545 0
-1523 -1540 1546 0
-1541 1546 0
-1523 -1541 0
-1524 1547 0
-1542 1547 0
-1524 -1542 1548 0
-1543 1548 0
-1524 -1543 1549 0
-1544 1549 0
-1524 -1544 1550 0
-1545 1550 0
-1524 -1545 1551 0
-1546 1551 0
-1524 -1546 0
-1525 1552 0
-1547 1552 0
-1525 -1547 1553 0
-1548 1553 0
-1525 -1548 1554 0
-1549 1554 0
-1525 -1549 1555 0
-1550 1555 0
-1525 -1550 1556 0
-1551 1556 0
-1525 -1551 0
-1526 -1556 0
-1562 50 51 52 53 54 55 0
-50 1562 0
-51 1562 0
-52 1562 0
-53 1562 0
-54 1562 0
-55 1562 0
-1563 57 58 59 60 61 62 0
-57 1563 0
-58 1563 0
-59 1563 0
-60 1563 0
-61 1563 0
-62 1563 0
-1564 64 65 66 67 68 69 0
-64 1564 0
-65 1564 0
-66 1564 0
-67 1564 0
-68 1564 0
-69 1564 0
-1565 71 72 73 74 75 76 0
-71 1565 0
-72 1565 0
-73 1565 0
-74 1565 0
-75 1565 0
-76 1565 0
-1566 78 79 80 81 82 83 0
-78 1566 0
-79 1566 0
-80 1566 0
-81 1566 0
-82 1566 0
-83 1566 0
-1567 85 86 87 88 89 90 0
-85 1567 0
-86 1567 0
-87 1567 0
-88 1567 0
-89 1567 0
-90 1567 0
-1568 92 93 94 95 96 97 0
-92 1568 0
-93 1568 0
-94 1568 0
-95 1568 0
-96 1568 0
-97 1568 0
-1562 1569 0
-1570 0
-1571 0
-1572 0
-1573 0
-1574 0
-1563 1575 0
-1569 1575 0
-1563 -1569 1576 0
-1570 1576 0
-1563 -1570 1577 0
-1571 1577 0
-1563 -1571 1578 0
-1572 1578 0
-1563 -1572 1579 0
-1573 1579 0
-1563 -1573 1580 0
-1574 1580 0
-1563 -1574 0
-1564 1581 0
-1575 1581 0
-1564 -1575 1582 0
-1576 1582 0
-1564 -1576 1583 0
-1577 1583 0
-1564 -1577 1584 0
-1578 1584 0
-1564 -1578 1585 0
-1579 1585 0
-1564 -1579 1586 0
-1580 1586 0
-1564 -1580 0
-1565 1587 0
-1581 1587 0
-1565 -1581 1588 0
-1582 1588 0
-1565 -1582 1589 0
-1583 1589 0
-1565 -1583 1590 0
-1584 1590 0
-1565 -1584 1591 0
-1585 1591 0
-1565 -1585 1592 0
-1586 1592 0
-1565 -1586 0
-1566 1593 0
-1587 1593 0
-1566 -1587 1594 0
-1588 1594 0
-1566 -1588 1595 0
-1589 1595 0
-1566 -1589 1596 0
-1590 1596 0
-1566 -1590 1597 0
-1591 1597 0
-1566 -1591 1598 0
-1592 1598 0
-1566 -1592 0
-1567 1599 0
-1593 1599 0
-1567 -1593 1600 0
-1594 1600 0
-1567 -1594 1601 0
-1595 1601 0
-1567 -1595 1602 0
-1596 1602 0
-1567 -1596 1603 0
-1597 1603 0
-1567 -1597 1604 0
-1598 1604 0
-1567 -1598 0
-1568 -1604 0
-1611 50 51 52 53 54 55 56 0
-50 1611 0
-51 1611 0
-52 1611 0
-53 1611 0
-54 1611 0
-55 1611 0
-56 1611 0
-1612 57 58 59 60 61 62 63 0
-57 1612 0
-58 1612 0
-59 1612 0
-60 1612 0
-61 1612 0
-62 1612 0
-63 1612 0
-1613 64 65 66 67 68 69 70 0
-64 1613 0
-65 1613 0
-66 1613 0
-67 1613 0
-68 1613 0
-69 1613 0
-70 1613 0
-1614 71 72 73 74 75 76 77 0
-71 1614 0
-72 1614 0
-73 1614 0
-74 1614 0
-75 1614 0
-76 1614 0
-77 1614 0
-1615 78 79 80 81 82 83 84 0
-78 1615 0
-79 1615 0
-80 1615 0
-81 1615 0
-82 1615 0
-83 1615 0
-84 1615 0
-1616 85 86 87 88 89 90 91 0
-85 1616 0
-86 1616 0
-87 1616 0
-88 1616 0
-89 1616 0
-90 1616 0
-91 1616 0
-1617 92 93 94 95 96 97 98 0
-92 1617 0
-93 1617 0
-94 1617 0
-95 1617 0
-96 1617 0
-97 1617 0
-98 1617 0
-1618 51 0
-51 1618 0
-1619 58 0
-58 1619 0
-1620 65 0
-65 1620 0
-1621 72 0
-72 1621 0
-1622 79 0
-79 1622 0
-1623 86 0
-86 1623 0
-1624 93 0
-93 1624 0
-1618 1625 0
-1619 1626 0
-1625 1626 0
-1619 -1625 0
-1620 1627 0
-1626 1627 0
-1620 -1626 0
-1621 1628 0
-1627 1628 0
-1621 -1627 0
-1622 1629 0
-1628 1629 0
-1622 -1628 0
-1623 1630 0
-1629 1630 0
-1623 -1629 0
-1624 -1630 0
-1632 51 52 0
-51 1632 0
-52 1632 0
-1633 58 59 0
-58 1633 0
-59 1633 0
-1634 65 66 0
-65 1634 0
-66 1634 0
-1635 72 73 0
-72 1635 0
-73 1635 0
-1636 79 80 0
-79 1636 0
-80 1636 0
-1637 86 87 0
-86 1637 0
-87 1637 0
-1638 93 94 0
-93 1638 0
-94 1638 0
-1632 1639 0
-1640 0
-1633 1641 0
-1639 1641 0
-1633 -1639 1642 0
-1640 1642 0
-1633 -1640 0
-1634 1643 0
-1641 1643 0
-1634 -1641 1644 0
-1642 1644 0
-1634 -1642 0
-1635 1645 0
-1643 1645 0
-1635 -1643 1646 0
-1644 1646 0
-1635 -1644 0
-1636 1647 0
-1645 1647 0
-1636 -1645 1648 0
-1646 1648 0
-1636 -1646 0
-1637 1649 0
-1647 1649 0
-1637 -1647 1650 0
-1648 1650 0
-1637 -1648 0
-1638 -1650 0
-1653 51 52 53 0
-51 1653 0
-52 1653 0
-53 1653 0
-1654 58 59 60 0
-58 1654 0
-59 1654 0
-60 1654 0
-1655 65 66 67 0
-65 1655 0
-66 1655 0
-67 1655 0
-1656 72 73 74 0
-72 1656 0
-73 1656 0
-74 1656 0
-1657 79 80 81 0
-79 1657 0
-80 1657 0
-81 1657 0
-1658 86 87 88 0
-86 1658 0
-87 1658 0
-88 1658 0
-1659 93 94 95 0
-93 1659 0
-94 1659 0
-95 1659 0
-1653 1660 0
-1661 0
-1662 0
-1654 1663 0
-1660 1663 0
-1654 -1660 1664 0
-1661 1664 0
-1654 -1661 1665 0
-1662 1665 0
-1654 -1662 0
-1655 1666 0
-1663 1666 0
-1655 -1663 1667 0
-1664 1667 0
-1655 -1664 1668 0
-1665 1668 0
-1655 -1665 0
-1656 1669 0
-1666 1669 0
-1656 -1666 1670 0
-1667 1670 0
-1656 -1667 1671 0
-1668 1671 0
-1656 -1668 0
-1657 1672 0
-1669 1672 0
-1657 -1669 1673 0
-1670 1673 0
-1657 -1670 1674 0
-1671 1674 0
-1657 -1671 0
-1658 1675 0
-1672 1675 0
-1658 -1672 1676 0
-1673 1676 0
-1658 -1673 1677 0
-1674 1677 0
-1658 -1674 0
-1659 -1677 0
-1681 51 52 53 54 0
-51 1681 0
-52 1681 0
-53 1681 0
-54 1681 0
-1682 58 59 60 61 0
-58 1682 0
-59 1682 0
-60 1682 0
-61 1682 0
-1683 65 66 67 68 0
-65 1683 0
-66 1683 0
-67 1683 0
-68 1683 0
-1684 72 73 74 75 0
-72 1684 0
-73 1684 0
-74 1684 0
-75 1684 0
-1685 79 80 81 82 0
-79 1685 0
-80 1685 0
-81 1685 0
-82 1685 0
-1686 86 87 88 89 0
-86 1686 0
-87 1686 0
-88 1686 0
-89 1686 0
-1687 93 94 95 96 0
-93 1687 0
-94 1687 0
-95 1687 0
-96 1687 0
-1681 1688 0
-1689 0
-1690 0
-1691 0
-1682 1692 0
-1688 1692 0
-1682 -1688 1693 0
-1689 1693 0
-1682 -1689 1694 0
-1690 1694 0
-1682 -1690 1695 0
-1691 1695 0
-1682 -1691 0
-1683 1696 0
-1692 1696 0
-1683 -1692 1697 0
-1693 1697 0
-1683 -1693 1698 0
-1694 1698 0
-1683 -1694 1699 0
-1695 1699 0
-1683 -1695 0
-1684 1700 0
-1696 1700 0
-1684 -1696 1701 0
-1697 1701 0
-1684 -1697 1702 0
-1698 1702 0
-1684 -1698 1703 0
-1699 1703 0
-1684 -1699 0
-1685 1704 0
-1700 1704 0
-1685 -1700 1705 0
-1701 1705 0
-1685 -1701 1706 0
-1702 1706 0
-1685 -1702 1707 0
-1703 1707 0
-1685 -1703 0
-1686 1708 0
-1704 1708 0
-1686 -1704 1709 0
-1705 1709 0
-1686 -1705 1710 0
-1706 1710 0
-1686 -1706 1711 0
-1707 1711 0
-1686 -1707 0
-1687 -1711 0
-1716 51 52 53 54 55 0
-51 1716 0
-52 1716 0
-53 1716 0
-54 1716 0
-55 1716 0
-1717 58 59 60 61 62 0
-58 1717 0
-59 1717 0
-60 1717 0
-61 1717 0
-62 1717 0
-1718 65 66 67 68 69 0
-65 1718 0
-66 1718 0
-67 1718 0
-68 1718 0
-69 1718 0
-1719 72 73 74 75 76 0
-72 1719 0
-73 1719 0
-74 1719 0
-75 1719 0
-76 1719 0
-1720 79 80 81 82 83 0
-79 1720 0
-80 1720 0
-81 1720 0
-82 1720 0
-83 1720 0
-1721 86 87 88 89 90 0
-86 1721 0
-87 1721 0
-88 1721 0
-89 1721 0
-90 1721 0
-1722 93 94 95 96 97 0
-93 1722 0
-94 1722 0
-95 1722 0
-96 1722 0
-97 1722 0
-1716 1723 0
-1724 0
-1725 0
-1726 0
-1727 0
-1717 1728 0
-1723 1728 0
-1717 -1723 1729 0
-1724 1729 0
-1717 -1724 1730 0
-1725 1730 0
-1717 -1725 1731 0
-1726 1731 0
-1717 -1726 1732 0
-1727 1732 0
-1717 -1727 0
-1718 1733 0
-1728 1733 0
-1718 -1728 1734 0
-1729 1734 0
-1718 -1729 1735 0
-1730 1735 0
-1718 -1730 1736 0
-1731 1736 0
-1718 -1731 1737 0
-1732 1737 0
-1718 -1732 0
-1719 1738 0
-1733 1738 0
-1719 -1733 1739 0
-1734 1739 0
-1719 -1734 1740 0
-1735 1740 0
-1719 -1735 1741 0
-1736 1741 0
-1719 -1736 1742 0
-1737 1742 0
-1719 -1737 0
-1720 1743 0
-1738 1743 0
-1720 -1738 1744 0
-1739 1744 0
-1720 -1739 1745 0
-1740 1745 0
-1720 -1740 1746 0
-1741 1746 0
-1720 -1741 1747 0
-1742 1747 0
-1720 -1742 0
-1721 1748 0
-1743 1748 0
-1721 -1743 1749 0
-1744 1749 0
-1721 -1744 1750 0
-1745 1750 0
-1721 -1745 1751 0
-1746 1751 0
-1721 -1746 1752 0
-1747 1752 0
-1721 -1747 0
-1722 -1752 0
-1758 51 52 53 54 55 56 0
-51 1758 0
-52 1758 0
-53 1758 0
-54 1758 0
-55 1758 0
-56 1758 0
-1759 58 59 60 61 62 63 0
-58 1759 0
-59 1759 0
-60 1759 0
-61 1759 0
-62 1759 0
-63 1759 0
-1760 65 66 67 68 69 70 0
-65 1760 0
-66 1760 0
-67 1760 0
-68 1760 0
-69 1760 0
-70 1760 0
-1761 72 73 74 75 76 77 0
-72 1761 0
-73 1761 0
-74 1761 0
-75 1761 0
-76 1761 0
-77 1761 0
-1762 79 80 81 82 83 84 0
-79 1762 0
-80 1762 0
-81 1762 0
-82 1762 0
-83 1762 0
-84 1762 0
-1763 86 87 88 89 90 91 0
-86 1763 0
-87 1763 0
-88 1763 0
-89 1763 0
-90 1763 0
-91 1763 0
-1764 93 94 95 96 97 98 0
-93 1764 0
-94 1764 0
-95 1764 0
-96 1764 0
-97 1764 0
-98 1764 0
-1758 1765 0
-1766 0
-1767 0
-1768 0
-1769 0
-1770 0
-1759 1771 0
-1765 1771 0
-1759 -1765 1772 0
-1766 1772 0
-1759 -1766 1773 0
-1767 1773 0
-1759 -1767 1774 0
-1768 1774 0
-1759 -1768 1775 0
-1769 1775 0
-1759 -1769 1776 0
-1770 1776 0
-1759 -1770 0
-1760 1777 0
-1771 1777 0
-1760 -1771 1778 0
-1772 1778 0
-1760 -1772 1779 0
-1773 1779 0
-1760 -1773 1780 0
-1774 1780 0
-1760 -1774 1781 0
-1775 1781 0
-1760 -1775 1782 0
-1776 1782 0
-1760 -1776 0
-1761 1783 0
-1777 1783 0
-1761 -1777 1784 0
-1778 1784 0
-1761 -1778 1785 0
-1779 1785 0
-1761 -1779 1786 0
-1780 1786 0
-1761 -1780 1787 0
-1781 1787 0
-1761 -1781 1788 0
-1782 1788 0
-1761 -1782 0
-1762 1789 0
-1783 1789 0
-1762 -1783 1790 0
-1784 1790 0
-1762 -1784 1791 0
-1785 1791 0
-1762 -1785 1792 0
-1786 1792 0
-1762 -1786 1793 0
-1787 1793 0
-1762 -1787 1794 0
-1788 1794 0
-1762 -1788 0
-1763 1795 0
-1789 1795 0
-1763 -1789 1796 0
-1790 1796 0
-1763 -1790 1797 0
-1791 1797 0
-1763 -1791 1798 0
-1792 1798 0
-1763 -1792 1799 0
-1793 1799 0
-1763 -1793 1800 0
-1794 1800 0
-1763 -1794 0
-1764 -1800 0
-1807 52 0
-52 1807 0
-1808 59 0
-59 1808 0
-1809 66 0
-66 1809 0
-1810 73 0
-73 1810 0
-1811 80 0
-80 1811 0
-1812 87 0
-87 1812 0
-1813 94 0
-94 1813 0
-1807 1814 0
-1808 1815 0
-1814 1815 0
-1808 -1814 0
-1809 1816 0
-1815 1816 0
-1809 -1815 0
-1810 1817 0
-1816 1817 0
-1810 -1816 0
-1811 1818 0
-1817 1818 0
-1811 -1817 0
-1812 1819 0
-1818 1819 0
-1812 -1818 0
-1813 -1819 0
-1821 52 53 0
-52 1821 0
-53 1821 0
-1822 59 60 0
-59 1822 0
-60 1822 0
-1823 66 67 0
-66 1823 0
-67 1823 0
-1824 73 74 0
-73 1824 0
-74 1824 0
-1825 80 81 0
-80 1825 0
-81 1825 0
-1826 87 88 0
-87 1826 0
-88 1826 0
-1827 94 95 0
-94 1827 0
-95 1827 0
-1821 1828 0
-1829 0
-1822 1830 0
-1828 1830 0
-1822 -1828 1831 0
-1829 1831 0
-1822 -1829 0
-1823 1832 0
-1830 1832 0
-1823 -1830 1833 0
-1831 1833 0
-1823 -1831 0
-1824 1834 0
-1832 1834 0
-1824 -1832 1835 0
-1833 1835 0
-1824 -1833 0
-1825 1836 0
-1834 1836 0
-1825 -1834 1837 0
-1835 1837 0
-1825 -1835 0
-1826 1838 0
-1836 1838 0
-1826 -1836 1839 0
-1837 1839 0
-1826 -1837 0
-1827 -1839 0
-1842 52 53 54 0
-52 1842 0
-53 1842 0
-54 1842 0
-1843 59 60 61 0
-59 1843 0
-60 1843 0
-61 1843 0
-1844 66 67 68 0
-66 1844 0
-67 1844 0
-68 1844 0
-1845 73 74 75 0
-73 1845 0
-74 1845 0
-75 1845 0
-1846 80 81 82 0
-80 1846 0
-81 1846 0
-82 1846 0
-1847 87 88 89 0
-87 1847 0
-88 1847 0
-89 1847 0
-1848 94 95 96 0
-94 1848 0
-95 1848 0
-96 1848 0
-1842 1849 0
-1850 0
-1851 0
-1843 1852 0
-1849 1852 0
-1843 -1849 1853 0
-1850 1853 0
-1843 -1850 1854 0
-1851 1854 0
-1843 -1851 0
-1844 1855 0
-1852 1855 0
-1844 -1852 1856 0
-1853 1856 0
-1844 -1853 1857 0
-1854 1857 0
-1844 -1854 0
-1845 1858 0
-1855 1858 0
-1845 -1855 1859 0
-1856 1859 0
-1845 -1856 1860 0
-1857 1860 0
-1845 -1857 0
-1846 1861 0
-1858 1861 0
-1846 -1858 1862 0
-1859 1862 0
-1846 -1859 1863 0
-1860 1863 0
-1846 -1860 0
-1847 1864 0
-1861 1864 0
-1847 -1861 1865 0
-1862 1865 0
-1847 -1862 1866 0
-1863 1866 0
-1847 -1863 0
-1848 -1866 0
-1870 52 53 54 55 0
-52 1870 0
-53 1870 0
-54 1870 0
-55 1870 0
-1871 59 60 61 62 0
-59 1871 0
-60 1871 0
-61 1871 0
-62 1871 0
-1872 66 67 68 69 0
-66 1872 0
-67 1872 0
-68 1872 0
-69 1872 0
-1873 73 74 75 76 0
-73 1873 0
-74 1873 0
-75 1873 0
-76 1873 0
-1874 80 81 82 83 0
-80 1874 0
-81 1874 0
-82 1874 0
-83 1874 0
-1875 87 88 89 90 0
-87 1875 0
-88 1875 0
-89 1875 0
-90 1875 0
-1876 94 95 96 97 0
-94 1876 0
-95 1876 0
-96 1876 0
-97 1876 0
-1870 1877 0
-1878 0
-1879 0
-1880 0
-1871 1881 0
-1877 1881 0
-1871 -1877 1882 0
-1878 1882 0
-1871 -1878 1883 0
-1879 1883 0
-1871 -1879 1884 0
-1880 1884 0
-1871 -1880 0
-1872 1885 0
-1881 1885 0
-1872 -1881 1886 0
-1882 1886 0
-1872 -1882 1887 0
-1883 1887 0
-1872 -1883 1888 0
-1884 1888 0
-1872 -1884 0
-1873 1889 0
-1885 1889 0
-1873 -1885 1890 0
-1886 1890 0
-1873 -1886 1891 0
-1887 1891 0
-1873 -1887 1892 0
-1888 1892 0
-1873 -1888 0
-1874 1893 0
-1889 1893 0
-1874 -1889 1894 0
-1890 1894 0
-1874 -1890 1895 0
-1891 1895 0
-1874 -1891 1896 0
-1892 1896 0
-1874 -1892 0
-1875 1897 0
-1893 1897 0
-1875 -1893 1898 0
-1894 1898 0
-1875 -1894 1899 0
-1895 1899 0
-1875 -1895 1900 0
-1896 1900 0
-1875 -1896 0
-1876 -1900 0
-1905 52 53 54 55 56 0
-52 1905 0
-53 1905 0
-54 1905 0
-55 1905 0
-56 1905 0
-1906 59 60 61 62 63 0
-59 1906 0
-60 1906 0
-61 1906 0
-62 1906 0
-63 1906 0
-1907 66 67 68 69 70 0
-66 1907 0
-67 1907 0
-68 1907 0
-69 1907 0
-70 1907 0
-1908 73 74 75 76 77 0
-73 1908 0
-74 1908 0
-75 1908 0
-76 1908 0
-77 1908 0
-1909 80 81 82 83 84 0
-80 1909 0
-81 1909 0
-82 1909 0
-83 1909 0
-84 1909 0
-1910 87 88 89 90 91 0
-87 1910 0
-88 1910 0
-89 1910 0
-90 1910 0
-91 1910 0
-1911 94 95 96 97 98 0
-94 1911 0
-95 1911 0
-96 1911 0
-97 1911 0
-98 1911 0
-1905 1912 0
-1913 0
-1914 0
-1915 0
-1916 0
-1906 1917 0
-1912 1917 0
-1906 -1912 1918 0
-1913 1918 0
-1906 -1913 1919 0
-1914 1919 0
-1906 -1914 1920 0
-1915 1920 0
-1906 -1915 1921 0
-1916 1921 0
-1906 -1916 0
-1907 1922 0
-1917 1922 0
-1907 -1917 1923 0
-1918 1923 0
-1907 -1918 1924 0
-1919 1924 0
-1907 -1919 1925 0
-1920 1925 0
-1907 -1920 1926 0
-1921 1926 0
-1907 -1921 0
-1908 1927 0
-1922 1927 0
-1908 -1922 1928 0
-1923 1928 0
-1908 -1923 1929 0
-1924 1929 0
-1908 -1924 1930 0
-1925 1930 0
-1908 -1925 1931 0
-1926 1931 0
-1908 -1926 0
-1909 1932 0
-1927 1932 0
-1909 -1927 1933 0
-1928 1933 0
-1909 -1928 1934 0
-1929 1934 0
-1909 -1929 1935 0
-1930 1935 0
-1909 -1930 1936 0
-1931 1936 0
-1909 -1931 0
-1910 1937 0
-1932 1937 0
-1910 -1932 1938 0
-1933 1938 0
-1910 -1933 1939 0
-1934 1939 0
-1910 -1934 1940 0
-1935 1940 0
-1910 -1935 1941 0
-1936 1941 0
-1910 -1936 0
-1911 -1941 0
-1947 53 0
-53 1947 0
-1948 60 0
-60 1948 0
-1949 67 0
-67 1949 0
-1950 74 0
-74 1950 0
-1951 81 0
-81 1951 0
-1952 88 0
-88 1952 0
-1953 95 0
-95 1953 0
-1947 1954 0
-1948 1955 0
-1954 1955 0
-1948 -1954 0
-1949 1956 0
-1955 1956 0
-1949 -1955 0
-1950 1957 0
-1956 1957 0
-1950 -1956 0
-1951 1958 0
-1957 1958 0
-1951 -1957 0
-1952 1959 0
-1958 1959 0
-1952 -1958 0
-1953 -1959 0
-1961 53 54 0
-53 1961 0
-54 1961 0
-1962 60 61 0
-60 1962 0
-61 1962 0
-1963 67 68 0
-67 1963 0
-68 1963 0
-1964 74 75 0
-74 1964 0
-75 1964 0
-1965 81 82 0
-81 1965 0
-82 1965 0
-1966 88 89 0
-88 1966 0
-89 1966 0
-1967 95 96 0
-95 1967 0
-96 1967 0
-1961 1968 0
-1969 0
-1962 1970 0
-1968 1970 0
-1962 -1968 1971 0
-1969 1971 0
-1962 -1969 0
-1963 1972 0
-1970 1972 0
-1963 -1970 1973 0
-1971 1973 0
-1963 -1971 0
-1964 1974 0
-1972 1974 0
-1964 -1972 1975 0
-1973 1975 0
-1964 -1973 0
-1965 1976 0
-1974 1976 0
-1965 -1974 1977 0
-1975 1977 0
-1965 -1975 0
-1966 1978 0
-1976 1978 0
-1966 -1976 1979 0
-1977 1979 0
-1966 -1977 0
-1967 -1979 0
-1982 53 54 55 0
-53 1982 0
-54 1982 0
-55 1982 0
-1983 60 61 62 0
-60 1983 0
-61 1983 0
-62 1983 0
-1984 67 68 69 0
-67 1984 0
-68 1984 0
-69 1984 0
-1985 74 75 76 0
-74 1985 0
-75 1985 0
-76 1985 0
-1986 81 82 83 0
-81 1986 0
-82 1986 0
-83 1986 0
-1987 88 89 90 0
-88 1987 0
-89 1987 0
-90 1987 0
-1988 95 96 97 0
-95 1988 0
-96 1988 0
-97 1988 0
-1982 1989 0
-1990 0
-1991 0
-1983 1992 0
-1989 1992 0
-1983 -1989 1993 0
-1990 1993 0
-1983 -1990 1994 0
-1991 1994 0
-1983 -1991 0
-1984 1995 0
-1992 1995 0
-1984 -1992 1996 0
-1993 1996 0
-1984 -1993 1997 0
-1994 1997 0
-1984 -1994 0
-1985 1998 0
-1995 1998 0
-1985 -1995 1999 0
-1996 1999 0
-1985 -1996 2000 0
-1997 2000 0
-1985 -1997 0
-1986 2001 0
-1998 2001 0
-1986 -1998 2002 0
-1999 2002 0
-1986 -1999 2003 0
-2000 2003 0
-1986 -2000 0
-1987 2004 0
-2001 2004 0
-1987 -2001 2005 0
-2002 2005 0
-1987 -2002 2006 0
-2003 2006 0
-1987 -2003 0
-1988 -2006 0
-2010 53 54 55 56 0
-53 2010 0
-54 2010 0
-55 2010 0
-56 2010 0
-2011 60 61 62 63 0
-60 2011 0
-61 2011 0
-62 2011 0
-63 2011 0
-2012 67 68 69 70 0
-67 2012 0
-68 2012 0
-69 2012 0
-70 2012 0
-2013 74 75 76 77 0
-74 2013 0
-75 2013 0
-76 2013 0
-77 2013 0
-2014 81 82 83 84 0
-81 2014 0
-82 2014 0
-83 2014 0
-84 2014 0
-2015 88 89 90 91 0
-88 2015 0
-89 2015 0
-90 2015 0
-91 2015 0
-2016 95 96 97 98 0
-95 2016 0
-96 2016 0
-97 2016 0
-98 2016 0
-2010 2017 0
-2018 0
-2019 0
-2020 0
-2011 2021 0
-2017 2021 0
-2011 -2017 2022 0
-2018 2022 0
-2011 -2018 2023 0
-2019 2023 0
-2011 -2019 2024 0
-2020 2024 0
-2011 -2020 0
-2012 2025 0
-2021 2025 0
-2012 -2021 2026 0
-2022 2026 0
-2012 -2022 2027 0
-2023 2027 0
-2012 -2023 2028 0
-2024 2028 0
-2012 -2024 0
-2013 2029 0
-2025 2029 0
-2013 -2025 2030 0
-2026 2030 0
-2013 -2026 2031 0
-2027 2031 0
-2013 -2027 2032 0
-2028 2032 0
-2013 -2028 0
-2014 2033 0
-2029 2033 0
-2014 -2029 2034 0
-2030 2034 0
-2014 -2030 2035 0
-2031 2035 0
-2014 -2031 2036 0
-2032 2036 0
-2014 -2032 0
-2015 2037 0
-2033 2037 0
-2015 -2033 2038 0
-2034 2038 0
-2015 -2034 2039 0
-2035 2039 0
-2015 -2035 2040 0
-2036 2040 0
-2015 -2036 0
-2016 -2040 0
-2045 54 0
-54 2045 0
-2046 61 0
-61 2046 0
-2047 68 0
-68 2047 0
-2048 75 0
-75 2048 0
-2049 82 0
-82 2049 0
-2050 89 0
-89 2050 0
-2051 96 0
-96 2051 0
-2045 2052 0
-2046 2053 0
-2052 2053 0
-2046 -2052 0
-2047 2054 0
-2053 2054 0
-2047 -2053 0
-2048 2055 0
-2054 2055 0
-2048 -2054 0
-2049 2056 0
-2055 2056 0
-2049 -2055 0
-2050 2057 0
-2056 2057 0
-2050 -2056 0
-2051 -2057 0
-2059 54 55 0
-54 2059 0
-55 2059 0
-2060 61 62 0
-61 2060 0
-62 2060 0
-2061 68 69 0
-68 2061 0
-69 2061 0
-2062 75 76 0
-75 2062 0
-76 2062 0
-2063 82 83 0
-82 2063 0
-83 2063 0
-2064 89 90 0
-89 2064 0
-90 2064 0
-2065 96 97 0
-96 2065 0
-97 2065 0
-2059 2066 0
-2067 0
-2060 2068 0
-2066 2068 0
-2060 -2066 2069 0
-2067 2069 0
-2060 -2067 0
-2061 2070 0
-2068 2070 0
-2061 -2068 2071 0
-2069 2071 0
-2061 -2069 0
-2062 2072 0
-2070 2072 0
-2062 -2070 2073 0
-2071 2073 0
-2062 -2071 0
-2063 2074 0
-2072 2074 0
-2063 -2072 2075 0
-2073 2075 0
-2063 -2073 0
-2064 2076 0
-2074 2076 0
-2064 -2074 2077 0
-2075 2077 0
-2064 -2075 0
-2065 -2077 0
-2080 54 55 56 0
-54 2080 0
-55 2080 0
-56 2080 0
-2081 61 62 63 0
-61 2081 0
-62 2081 0
-63 2081 0
-2082 68 69 70 0
-68 2082 0
-69 2082 0
-70 2082 0
-2083 75 76 77 0
-75 2083 0
-76 2083 0
-77 2083 0
-2084 82 83 84 0
-82 2084 0
-83 2084 0
-84 2084 0
-2085 89 90 91 0
-89 2085 0
-90 2085 0
-91 2085 0
-2086 96 97 98 0
-96 2086 0
-97 2086 0
-98 2086 0
-2080 2087 0
-2088 0
-2089 0
-2081 2090 0
-2087 2090 0
-2081 -2087 2091 0
-2088 2091 0
-2081 -2088 2092 0
-2089 2092 0
-2081 -2089 0
-2082 2093 0
-2090 2093 0
-2082 -2090 2094 0
-2091 2094 0
-2082 -2091 2095 0
-2092 2095 0
-2082 -2092 0
-2083 2096 0
-2093 2096 0
-2083 -2093 2097 0
-2094 2097 0
-2083 -2094 2098 0
-2095 2098 0
-2083 -2095 0
-2084 2099 0
-2096 2099 0
-2084 -2096 2100 0
-2097 2100 0
-2084 -2097 2101 0
-2098 2101 0
-2084 -2098 0
-2085 2102 0
-2099 2102 0
-2085 -2099 2103 0
-2100 2103 0
-2085 -2100 2104 0
-2101 2104 0
-2085 -2101 0
-2086 -2104 0
-2108 55 0
-55 2108 0
-2109 62 0
-62 2109 0
-2110 69 0
-69 2110 0
-2111 76 0
-76 2111 0
-2112 83 0
-83 2112 0
-2113 90 0
-90 2113 0
-2114 97 0
-97 2114 0
-2108 2115 0
-2109 2116 0
-2115 2116 0
-2109 -2115 0
-2110 2117 0
-2116 2117 0
-2110 -2116 0
-2111 2118 0
-2117 2118 0
-2111 -2117 0
-2112 2119 0
-2118 2119 0
-2112 -2118 0
-2113 2120 0
-2119 2120 0
-2113 -2119 0
-2114 -2120 0
-2122 55 56 0
-55 2122 0
-56 2122 0
-2123 62 63 0
-62 2123 0
-63 2123 0
-2124 69 70 0
-69 2124 0
-70 2124 0
-2125 76 77 0
-76 2125 0
-77 2125 0
-2126 83 84 0
-83 2126 0
-84 2126 0
-2127 90 91 0
-90 2127 0
-91 2127 0
-2128 97 98 0
-97 2128 0
-98 2128 0
-2122 2129 0
-2130 0
-2123 2131 0
-2129 2131 0
-2123 -2129 2132 0
-2130 2132 0
-2123 -2130 0
-2124 2133 0
-2131 2133 0
-2124 -2131 2134 0
-2132 2134 0
-2124 -2132 0
-2125 2135 0
-2133 2135 0
-2125 -2133 2136 0
-2134 2136 0
-2125 -2134 0
-2126 2137 0
-2135 2137 0
-2126 -2135 2138 0
-2136 2138 0
-2126 -2136 0
-2127 2139 0
-2137 2139 0
-2127 -2137 2140 0
-2138 2140 0
-2127 -2138 0
-2128 -2140 0
-2143 56 0
-56 2143 0
-2144 63 0
-63 2144 0
-2145 70 0
-70 2145 0
-2146 77 0
-77 2146 0
-2147 84 0
-84 2147 0
-2148 91 0
-91 2148 0
-2149 98 0
-98 2149 0
-2143 2150 0
-2144 2151 0
-2150 2151 0
-2144 -2150 0
-2145 2152 0
-2151 2152 0
-2145 -2151 0
-2146 2153 0
-2152 2153 0
-2146 -2152 0
-2147 2154 0
-2153 2154 0
-2147 -2153 0
-2148 2155 0
-2154 2155 0
-2148 -2154 0
-2149 -2155 0
-2157 99 0
-99 2157 0
-2158 106 0
-106 2158 0
-2159 113 0
-113 2159 0
-2160 120 0
-120 2160 0
-2161 127 0
-127 2161 0
-2162 134 0
-134 2162 0
-2163 141 0
-141 2163 0
-2157 2164 0
-2158 2165 0
-2164 2165 0
-2158 -2164 0
-2159 2166 0
-2165 2166 0
-2159 -2165 0
-2160 2167 0
-2166 2167 0
-2160 -2166 0
-2161 2168 0
-2167 2168 0
-2161 -2167 0
-2162 2169 0
-2168 2169 0
-2162 -2168 0
-2163 -2169 0
-2171 99 100 0
-99 2171 0
-100 2171 0
-2172 106 107 0
-106 2172 0
-107 2172 0
-2173 113 114 0
-113 2173 0
-114 2173 0
-2174 120 121 0
-120 2174 0
-121 2174 0
-2175 127 128 0
-127 2175 0
-128 2175 0
-2176 134 135 0
-134 2176 0
-135 2176 0
-2177 141 142 0
-141 2177 0
-142 2177 0
-2171 2178 0
-2179 0
-2172 2180 0
-2178 2180 0
-2172 -2178 2181 0
-2179 2181 0
-2172 -2179 0
-2173 2182 0
-2180 2182 0
-2173 -2180 2183 0
-2181 2183 0
-2173 -2181 0
-2174 2184 0
-2182 2184 0
-2174 -2182 2185 0
-2183 2185 0
-2174 -2183 0
-2175 2186 0
-2184 2186 0
-2175 -2184 2187 0
-2185 2187 0
-2175 -2185 0
-2176 2188 0
-2186 2188 0
-2176 -2186 2189 0
-2187 2189 0
-2176 -2187 0
-2177 -2189 0
-2192 99 100 101 0
-99 2192 0
-100 2192 0
-101 2192 0
-2193 106 107 108 0
-106 2193 0
-107 2193 0
-108 2193 0
-2194 113 114 115 0
-113 2194 0
-114 2194 0
-115 2194 0
-2195 120 121 122 0
-120 2195 0
-121 2195 0
-122 2195 0
-2196 127 128 129 0
-127 2196 0
-128 2196 0
-129 2196 0
-2197 134 135 136 0
-134 2197 0
-135 2197 0
-136 2197 0
-2198 141 142 143 0
-141 2198 0
-142 2198 0
-143 2198 0
-2192 2199 0
-2200 0
-2201 0
-2193 2202 0
-2199 2202 0
-2193 -2199 2203 0
-2200 2203 0
-2193 -2200 2204 0
-2201 2204 0
-2193 -2201 0
-2194 2205 0
-2202 2205 0
-2194 -2202 2206 0
-2203 2206 0
-2194 -2203 2207 0
-2204 2207 0
-2194 -2204 0
-2195 2208 0
-2205 2208 0
-2195 -2205 2209 0
-2206 2209 0
-2195 -2206 2210 0
-2207 2210 0
-2195 -2207 0
-2196 2211 0
-2208 2211 0
-2196 -2208 2212 0
-2209 2212 0
-2196 -2209 2213 0
-2210 2213 0
-2196 -2210 0
-2197 2214 0
-2211 2214 0
-2197 -2211 2215 0
-2212 2215 0
-2197 -2212 2216 0
-2213 2216 0
-2197 -2213 0
-2198 -2216 0
-2220 99 100 101 102 0
-99 2220 0
-100 2220 0
-101 2220 0
-102 2220 0
-2221 106 107 108 109 0
-106 2221 0
-107 2221 0
-108 2221 0
-109 2221 0
-2222 113 114 115 116 0
-113 2222 0
-114 2222 0
-115 2222 0
-116 2222 0
-2223 120 121 122 123 0
-120 2223 0
-121 2223 0
-122 2223 0
-123 2223 0
-2224 127 128 129 130 0
-127 2224 0
-128 2224 0
-129 2224 0
-130 2224 0
-2225 134 135 136 137 0
-134 2225 0
-135 2225 0
-136 2225 0
-137 2225 0
-2226 141 142 143 144 0
-141 2226 0
-142 2226 0
-143 2226 0
-144 2226 0
-2220 2227 0
-2228 0
-2229 0
-2230 0
-2221 2231 0
-2227 2231 0
-2221 -2227 2232 0
-2228 2232 0
-2221 -2228 2233 0
-2229 2233 0
-2221 -2229 2234 0
-2230 2234 0
-2221 -2230 0
-2222 2235 0
-2231 2235 0
-2222 -2231 2236 0
-2232 2236 0
-2222 -2232 2237 0
-2233 2237 0
-2222 -2233 2238 0
-2234 2238 0
-2222 -2234 0
-2223 2239 0
-2235 2239 0
-2223 -2235 2240 0
-2236 2240 0
-2223 -2236 2241 0
-2237 2241 0
-2223 -2237 2242 0
-2238 2242 0
-2223 -2238 0
-2224 2243 0
-2239 2243 0
-2224 -2239 2244 0
-2240 2244 0
-2224 -2240 2245 0
-2241 2245 0
-2224 -2241 2246 0
-2242 2246 0
-2224 -2242 0
-2225 2247 0
-2243 2247 0
-2225 -2243 2248 0
-2244 2248 0
-2225 -2244 2249 0
-2245 2249 0
-2225 -2245 2250 0
-2246 2250 0
-2225 -2246 0
-2226 -2250 0
-2255 99 100 101 102 103 0
-99 2255 0
-100 2255 0
-101 2255 0
-102 2255 0
-103 2255 0
-2256 106 107 108 109 110 0
-106 2256 0
-107 2256 0
-108 2256 0
-109 2256 0
-110 2256 0
-2257 113 114 115 116 117 0
-113 2257 0
-114 2257 0
-115 2257 0
-116 2257 0
-117 2257 0
-2258 120 121 122 123 124 0
-120 2258 0
-121 2258 0
-122 2258 0
-123 2258 0
-124 2258 0
-2259 127 128 129 130 131 0
-127 2259 0
-128 2259 0
-129 2259 0
-130 2259 0
-131 2259 0
-2260 134 135 136 137 138 0
-134 2260 0
-135 2260 0
-136 2260 0
-137 2260 0
-138 2260 0
-2261 141 142 143 144 145 0
-141 2261 0
-142 2261 0
-143 2261 0
-144 2261 0
-145 2261 0
-2255 2262 0
-2263 0
-2264 0
-2265 0
-2266 0
-2256 2267 0
-2262 2267 0
-2256 -2262 2268 0
-2263 2268 0
-2256 -2263 2269 0
-2264 2269 0
-2256 -2264 2270 0
-2265 2270 0
-2256 -2265 2271 0
-2266 2271 0
-2256 -2266 0
-2257 2272 0
-2267 2272 0
-2257 -2267 2273 0
-2268 2273 0
-2257 -2268 2274 0
-2269 2274 0
-2257 -2269 2275 0
-2270 2275 0
-2257 -2270 2276 0
-2271 2276 0
-2257 -2271 0
-2258 2277 0
-2272 2277 0
-2258 -2272 2278 0
-2273 2278 0
-2258 -2273 2279 0
-2274 2279 0
-2258 -2274 2280 0
-2275 2280 0
-2258 -2275 2281 0
-2276 2281 0
-2258 -2276 0
-2259 2282 0
-2277 2282 0
-2259 -2277 2283 0
-2278 2283 0
-2259 -2278 2284 0
-2279 2284 0
-2259 -2279 2285 0
-2280 2285 0
-2259 -2280 2286 0
-2281 2286 0
-2259 -2281 0
-2260 2287 0
-2282 2287 0
-2260 -2282 2288 0
-2283 2288 0
-2260 -2283 2289 0
-2284 2289 0
-2260 -2284 2290 0
-2285 2290 0
-2260 -2285 2291 0
-2286 2291 0
-2260 -2286 0
-2261 -2291 0
-2297 99 100 101 102 103 104 0
-99 2297 0
-100 2297 0
-101 2297 0
-102 2297 0
-103 2297 0
-104 2297 0
-2298 106 107 108 109 110 111 0
-106 2298 0
-107 2298 0
-108 2298 0
-109 2298 0
-110 2298 0
-111 2298 0
-2299 113 114 115 116 117 118 0
-113 2299 0
-114 2299 0
-115 2299 0
-116 2299 0
-117 2299 0
-118 2299 0
-2300 120 121 122 123 124 125 0
-120 2300 0
-121 2300 0
-122 2300 0
-123 2300 0
-124 2300 0
-125 2300 0
-2301 127 128 129 130 131 132 0
-127 2301 0
-128 2301 0
-129 2301 0
-130 2301 0
-131 2301 0
-132 2301 0
-2302 134 135 136 137 138 139 0
-134 2302 0
-135 2302 0
-136 2302 0
-137 2302 0
-138 2302 0
-139 2302 0
-2303 141 142 143 144 145 146 0
-141 2303 0
-142 2303 0
-143 2303 0
-144 2303 0
-145 2303 0
-146 2303 0
-2297 2304 0
-2305 0
-2306 0
-2307 0
-2308 0
-2309 0
-2298 2310 0
-2304 2310 0
-2298 -2304 2311 0
-2305 2311 0
-2298 -2305 2312 0
-2306 2312 0
-2298 -2306 2313 0
-2307 2313 0
-2298 -2307 2314 0
-2308 2314 0
-2298 -2308 2315 0
-2309 2315 0
-2298 -2309 0
-2299 2316 0
-2310 2316 0
-2299 -2310 2317 0
-2311 2317 0
-2299 -2311 2318 0
-2312 2318 0
-2299 -2312 2319 0
-2313 2319 0
-2299 -2313 2320 0
-2314 2320 0
-2299 -2314 2321 0
-2315 2321 0
-2299 -2315 0
-2300 2322 0
-2316 2322 0
-2300 -2316 2323 0
-2317 2323 0
-2300 -2317 2324 0
-2318 2324 0
-2300 -2318 2325 0
-2319 2325 0
-2300 -2319 2326 0
-2320 2326 0
-2300 -2320 2327 0
-2321 2327 0
-2300 -2321 0
-2301 2328 0
-2322 2328 0
-2301 -2322 2329 0
-2323 2329 0
-2301 -2323 2330 0
-2324 2330 0
-2301 -2324 2331 0
-2325 2331 0
-2301 -2325 2332 0
-2326 2332 0
-2301 -2326 2333 0
-2327 2333 0
-2301 -2327 0
-2302 2334 0
-2328 2334 0
-2302 -2328 2335 0
-2329 2335 0
-2302 -2329 2336 0
-2330 2336 0
-2302 -2330 2337 0
-2331 2337 0
-2302 -2331 2338 0
-2332 2338 0
-2302 -2332 2339 0
-2333 2339 0
-2302 -2333 0
-2303 -2339 0
-2346 99 100 101 102 103 104 105 0
-99 2346 0
-100 2346 0
-101 2346 0
-102 2346 0
-103 2346 0
-104 2346 0
-105 2346 0
-2347 106 107 108 109 110 111 112 0
-106 2347 0
-107 2347 0
-108 2347 0
-109 2347 0
-110 2347 0
-111 2347 0
-112 2347 0
-2348 113 114 115 116 117 118 119 0
-113 2348 0
-114 2348 0
-115 2348 0
-116 2348 0
-117 2348 0
-118 2348 0
-119 2348 0
-2349 120 121 122 123 124 125 126 0
-120 2349 0
-121 2349 0
-122 2349 0
-123 2349 0
-124 2349 0
-125 2349 0
-126 2349 0
-2350 127 128 129 130 131 132 133 0
-127 2350 0
-128 2350 0
-129 2350 0
-130 2350 0
-131 2350 0
-132 2350 0
-133 2350 0
-2351 134 135 136 137 138 139 140 0
-134 2351 0
-135 2351 0
-136 2351 0
-137 2351 0
-138 2351 0
-139 2351 0
-140 2351 0
-2352 141 142 143 144 145 146 147 0
-141 2352 0
-142 2352 0
-143 2352 0
-144 2352 0
-145 2352 0
-146 2352 0
-147 2352 0
-2353 100 0
-100 2353 0
-2354 107 0
-107 2354 0
-2355 114 0
-114 2355 0
-2356 121 0
-121 2356 0
-2357 128 0
-128 2357 0
-2358 135 0
-135 2358 0
-2359 142 0
-142 2359 0
-2353 2360 0
-2354 2361 0
-2360 2361 0
-2354 -2360 0
-2355 2362 0
-2361 2362 0
-2355 -2361 0
-2356 2363 0
-2362 2363 0
-2356 -2362 0
-2357 2364 0
-2363 2364 0
-2357 -2363 0
-2358 2365 0
-2364 2365 0
-2358 -2364 0
-2359 -2365 0
-2367 100 101 0
-100 2367 0
-101 2367 0
-2368 107 108 0
-107 2368 0
-108 2368 0
-2369 114 115 0
-114 2369 0
-115 2369 0
-2370 121 122 0
-121 2370 0
-122 2370 0
-2371 128 129 0
-128 2371 0
-129 2371 0
-2372 135 136 0
-135 2372 0
-136 2372 0
-2373 142 143 0
-142 2373 0
-143 2373 0
-2367 2374 0
-2375 0
-2368 2376 0
-2374 2376 0
-2368 -2374 2377 0
-2375 2377 0
-2368 -2375 0
-2369 2378 0
-2376 2378 0
-2369 -2376 2379 0
-2377 2379 0
-2369 -2377 0
-2370 2380 0
-2378 2380 0
-2370 -2378 2381 0
-2379 2381 0
-2370 -2379 0
-2371 2382 0
-2380 2382 0
-2371 -2380 2383 0
-2381 2383 0
-2371 -2381 0
-2372 2384 0
-2382 2384 0
-2372 -2382 2385 0
-2383 2385 0
-2372 -2383 0
-2373 -2385 0
-2388 100 101 102 0
-100 2388 0
-101 2388 0
-102 2388 0
-2389 107 108 109 0
-107 2389 0
-108 2389 0
-109 2389 0
-2390 114 115 116 0
-114 2390 0
-115 2390 0
-116 2390 0
-2391 121 122 123 0
-121 2391 0
-122 2391 0
-123 2391 0
-2392 128 129 130 0
-128 2392 0
-129 2392 0
-130 2392 0
-2393 135 136 137 0
-135 2393 0
-136 2393 0
-137 2393 0
-2394 142 143 144 0
-142 2394 0
-143 2394 0
-144 2394 0
-2388 2395 0
-2396 0
-2397 0
-2389 2398 0
-2395 2398 0
-2389 -2395 2399 0
-2396 2399 0
-2389 -2396 2400 0
-2397 2400 0
-2389 -2397 0
-2390 2401 0
-2398 2401 0
-2390 -2398 2402 0
-2399 2402 0
-2390 -2399 2403 0
-2400 2403 0
-2390 -2400 0
-2391 2404 0
-2401 2404 0
-2391 -2401 2405 0
-2402 2405 0
-2391 -2402 2406 0
-2403 2406 0
-2391 -2403 0
-2392 2407 0
-2404 2407 0
-2392 -2404 2408 0
-2405 2408 0
-2392 -2405 2409 0
-2406 2409 0
-2392 -2406 0
-2393 2410 0
-2407 2410 0
-2393 -2407 2411 0
-2408 2411 0
-2393 -2408 2412 0
-2409 2412 0
-2393 -2409 0
-2394 -2412 0
-2416 100 101 102 103 0
-100 2416 0
-101 2416 0
-102 2416 0
-103 2416 0
-2417 107 108 109 110 0
-107 2417 0
-108 2417 0
-109 2417 0
-110 2417 0
-2418 114 115 116 117 0
-114 2418 0
-115 2418 0
-116 2418 0
-117 2418 0
-2419 121 122 123 124 0
-121 2419 0
-122 2419 0
-123 2419 0
-124 2419 0
-2420 128 129 130 131 0
-128 2420 0
-129 2420 0
-130 2420 0
-131 2420 0
-2421 135 136 137 138 0
-135 2421 0
-136 2421 0
-137 2421 0
-138 2421 0
-2422 142 143 144 145 0
-142 2422 0
-143 2422 0
-144 2422 0
-145 2422 0
-2416 2423 0
-2424 0
-2425 0
-2426 0
-2417 2427 0
-2423 2427 0
-2417 -2423 2428 0
-2424 2428 0
-2417 -2424 2429 0
-2425 2429 0
-2417 -2425 2430 0
-2426 2430 0
-2417 -2426 0
-2418 2431 0
-2427 2431 0
-2418 -2427 2432 0
-2428 2432 0
-2418 -2428 2433 0
-2429 2433 0
-2418 -2429 2434 0
-2430 2434 0
-2418 -2430 0
-2419 2435 0
-2431 2435 0
-2419 -2431 2436 0
-2432 2436 0
-2419 -2432 2437 0
-2433 2437 0
-2419 -2433 2438 0
-2434 2438 0
-2419 -2434 0
-2420 2439 0
-2435 2439 0
-2420 -2435 2440 0
-2436 2440 0
-2420 -2436 2441 0
-2437 2441 0
-2420 -2437 2442 0
-2438 2442 0
-2420 -2438 0
-2421 2443 0
-2439 2443 0
-2421 -2439 2444 0
-2440 2444 0
-2421 -2440 2445 0
-2441 2445 0
-2421 -2441 2446 0
-2442 2446 0
-2421 -2442 0
-2422 -2446 0
-2451 100 101 102 103 104 0
-100 2451 0
-101 2451 0
-102 2451 0
-103 2451 0
-104 2451 0
-2452 107 108 109 110 111 0
-107 2452 0
-108 2452 0
-109 2452 0
-110 2452 0
-111 2452 0
-2453 114 115 116 117 118 0
-114 2453 0
-115 2453 0
-116 2453 0
-117 2453 0
-118 2453 0
-2454 121 122 123 124 125 0
-121 2454 0
-122 2454 0
-123 2454 0
-124 2454 0
-125 2454 0
-2455 128 129 130 131 132 0
-128 2455 0
-129 2455 0
-130 2455 0
-131 2455 0
-132 2455 0
-2456 135 136 137 138 139 0
-135 2456 0
-136 2456 0
-137 2456 0
-138 2456 0
-139 2456 0
-2457 142 143 144 145 146 0
-142 2457 0
-143 2457 0
-144 2457 0
-145 2457 0
-146 2457 0
-2451 2458 0
-2459 0
-2460 0
-2461 0
-2462 0
-2452 2463 0
-2458 2463 0
-2452 -2458 2464 0
-2459 2464 0
-2452 -2459 2465 0
-2460 2465 0
-2452 -2460 2466 0
-2461 2466 0
-2452 -2461 2467 0
-2462 2467 0
-2452 -2462 0
-2453 2468 0
-2463 2468 0
-2453 -2463 2469 0
-2464 2469 0
-2453 -2464 2470 0
-2465 2470 0
-2453 -2465 2471 0
-2466 2471 0
-2453 -2466 2472 0
-2467 2472 0
-2453 -2467 0
-2454 2473 0
-2468 2473 0
-2454 -2468 2474 0
-2469 2474 0
-2454 -2469 2475 0
-2470 2475 0
-2454 -2470 2476 0
-2471 2476 0
-2454 -2471 2477 0
-2472 2477 0
-2454 -2472 0
-2455 2478 0
-2473 2478 0
-2455 -2473 2479 0
-2474 2479 0
-2455 -2474 2480 0
-2475 2480 0
-2455 -2475 2481 0
-2476 2481 0
-2455 -2476 2482 0
-2477 2482 0
-2455 -2477 0
-2456 2483 0
-2478 2483 0
-2456 -2478 2484 0
-2479 2484 0
-2456 -2479 2485 0
-2480 2485 0
-2456 -2480 2486 0
-2481 2486 0
-2456 -2481 2487 0
-2482 2487 0
-2456 -2482 0
-2457 -2487 0
-2493 100 101 102 103 104 105 0
-100 2493 0
-101 2493 0
-102 2493 0
-103 2493 0
-104 2493 0
-105 2493 0
-2494 107 108 109 110 111 112 0
-107 2494 0
-108 2494 0
-109 2494 0
-110 2494 0
-111 2494 0
-112 2494 0
-2495 114 115 116 117 118 119 0
-114 2495 0
-115 2495 0
-116 2495 0
-117 2495 0
-118 2495 0
-119 2495 0
-2496 121 122 123 124 125 126 0
-121 2496 0
-122 2496 0
-123 2496 0
-124 2496 0
-125 2496 0
-126 2496 0
-2497 128 129 130 131 132 133 0
-128 2497 0
-129 2497 0
-130 2497 0
-131 2497 0
-132 2497 0
-133 2497 0
-2498 135 136 137 138 139 140 0
-135 2498 0
-136 2498 0
-137 2498 0
-138 2498 0
-139 2498 0
-140 2498 0
-2499 142 143 144 145 146 147 0
-142 2499 0
-143 2499 0
-144 2499 0
-145 2499 0
-146 2499 0
-147 2499 0
-2493 2500 0
-2501 0
-2502 0
-2503 0
-2504 0
-2505 0
-2494 2506 0
-2500 2506 0
-2494 -2500 2507 0
-2501 2507 0
-2494 -2501 2508 0
-2502 2508 0
-2494 -2502 2509 0
-2503 2509 0
-2494 -2503 2510 0
-2504 2510 0
-2494 -2504 2511 0
-2505 2511 0
-2494 -2505 0
-2495 2512 0
-2506 2512 0
-2495 -2506 2513 0
-2507 2513 0
-2495 -2507 2514 0
-2508 2514 0
-2495 -2508 2515 0
-2509 2515 0
-2495 -2509 2516 0
-2510 2516 0
-2495 -2510 2517 0
-2511 2517 0
-2495 -2511 0
-2496 2518 0
-2512 2518 0
-2496 -2512 2519 0
-2513 2519 0
-2496 -2513 2520 0
-2514 2520 0
-2496 -2514 2521 0
-2515 2521 0
-2496 -2515 2522 0
-2516 2522 0
-2496 -2516 2523 0
-2517 2523 0
-2496 -2517 0
-2497 2524 0
-2518 2524 0
-2497 -2518 2525 0
-2519 2525 0
-2497 -2519 2526 0
-2520 2526 0
-2497 -2520 2527 0
-2521 2527 0
-2497 -2521 2528 0
-2522 2528 0
-2497 -2522 2529 0
-2523 2529 0
-2497 -2523 0
-2498 2530 0
-2524 2530 0
-2498 -2524 2531 0
-2525 2531 0
-2498 -2525 2532 0
-2526 2532 0
-2498 -2526 2533 0
-2527 2533 0
-2498 -2527 2534 0
-2528 2534 0
-2498 -2528 2535 0
-2529 2535 0
-2498 -2529 0
-2499 -2535 0
-2542 101 0
-101 2542 0
-2543 108 0
-108 2543 0
-2544 115 0
-115 2544 0
-2545 122 0
-122 2545 0
-2546 129 0
-129 2546 0
-2547 136 0
-136 2547 0
-2548 143 0
-143 2548 0
-2542 2549 0
-2543 2550 0
-2549 2550 0
-2543 -2549 0
-2544 2551 0
-2550 2551 0
-2544 -2550 0
-2545 2552 0
-2551 2552 0
-2545 -2551 0
-2546 2553 0
-2552 2553 0
-2546 -2552 0
-2547 2554 0
-2553 2554 0
-2547 -2553 0
-2548 -2554 0
-2556 101 102 0
-101 2556 0
-102 2556 0
-2557 108 109 0
-108 2557 0
-109 2557 0
-2558 115 116 0
-115 2558 0
-116 2558 0
-2559 122 123 0
-122 2559 0
-123 2559 0
-2560 129 130 0
-129 2560 0
-130 2560 0
-2561 136 137 0
-136 2561 0
-137 2561 0
-2562 143 144 0
-143 2562 0
-144 2562 0
-2556 2563 0
-2564 0
-2557 2565 0
-2563 2565 0
-2557 -2563 2566 0
-2564 2566 0
-2557 -2564 0
-2558 2567 0
-2565 2567 0
-2558 -2565 2568 0
-2566 2568 0
-2558 -2566 0
-2559 2569 0
-2567 2569 0
-2559 -2567 2570 0
-2568 2570 0
-2559 -2568 0
-2560 2571 0
-2569 2571 0
-2560 -2569 2572 0
-2570 2572 0
-2560 -2570 0
-2561 2573 0
-2571 2573 0
-2561 -2571 2574 0
-2572 2574 0
-2561 -2572 0
-2562 -2574 0
-2577 101 102 103 0
-101 2577 0
-102 2577 0
-103 2577 0
-2578 108 109 110 0
-108 2578 0
-109 2578 0
-110 2578 0
-2579 115 116 117 0
-115 2579 0
-116 2579 0
-117 2579 0
-2580 122 123 124 0
-122 2580 0
-123 2580 0
-124 2580 0
-2581 129 130 131 0
-129 2581 0
-130 2581 0
-131 2581 0
-2582 136 137 138 0
-136 2582 0
-137 2582 0
-138 2582 0
-2583 143 144 145 0
-143 2583 0
-144 2583 0
-145 2583 0
-2577 2584 0
-2585 0
-2586 0
-2578 2587 0
-2584 2587 0
-2578 -2584 2588 0
-2585 2588 0
-2578 -2585 2589 0
-2586 2589 0
-2578 -2586 0
-2579 2590 0
-2587 2590 0
-2579 -2587 2591 0
-2588 2591 0
-2579 -2588 2592 0
-2589 2592 0
-2579 -2589 0
-2580 2593 0
-2590 2593 0
-2580 -2590 2594 0
-2591 2594 0
-2580 -2591 2595 0
-2592 2595 0
-2580 -2592 0
-2581 2596 0
-2593 2596 0
-2581 -2593 2597 0
-2594 2597 0
-2581 -2594 2598 0
-2595 2598 0
-2581 -2595 0
-2582 2599 0
-2596 2599 0
-2582 -2596 2600 0
-2597 2600 0
-2582 -2597 2601 0
-2598 2601 0
-2582 -2598 0
-2583 -2601 0
-2605 101 102 103 104 0
-101 2605 0
-102 2605 0
-103 2605 0
-104 2605 0
-2606 108 109 110 111 0
-108 2606 0
-109 2606 0
-110 2606 0
-111 2606 0
-2607 115 116 117 118 0
-115 2607 0
-116 2607 0
-117 2607 0
-118 2607 0
-2608 122 123 124 125 0
-122 2608 0
-123 2608 0
-124 2608 0
-125 2608 0
-2609 129 130 131 132 0
-129 2609 0
-130 2609 0
-131 2609 0
-132 2609 0
-2610 136 137 138 139 0
-136 2610 0
-137 2610 0
-138 2610 0
-139 2610 0
-2611 143 144 145 146 0
-143 2611 0
-144 2611 0
-145 2611 0
-146 2611 0
-2605 2612 0
-2613 0
-2614 0
-2615 0
-2606 2616 0
-2612 2616 0
-2606 -2612 2617 0
-2613 2617 0
-2606 -2613 2618 0
-2614 2618 0
-2606 -2614 2619 0
-2615 2619 0
-2606 -2615 0
-2607 2620 0
-2616 2620 0
-2607 -2616 2621 0
-2617 2621 0
-2607 -2617 2622 0
-2618 2622 0
-2607 -2618 2623 0
-2619 2623 0
-2607 -2619 0
-2608 2624 0
-2620 2624 0
-2608 -2620 2625 0
-2621 2625 0
-2608 -2621 2626 0
-2622 2626 0
-2608 -2622 2627 0
-2623 2627 0
-2608 -2623 0
-2609 2628 0
-2624 2628 0
-2609 -2624 2629 0
-2625 2629 0
-2609 -2625 2630 0
-2626 2630 0
-2609 -2626 2631 0
-2627 2631 0
-2609 -2627 0
-2610 2632 0
-2628 2632 0
-2610 -2628 2633 0
-2629 2633 0
-2610 -2629 2634 0
-2630 2634 0
-2610 -2630 2635 0
-2631 2635 0
-2610 -2631 0
-2611 -2635 0
-2640 101 102 103 104 105 0
-101 2640 0
-102 2640 0
-103 2640 0
-104 2640 0
-105 2640 0
-2641 108 109 110 111 112 0
-108 2641 0
-109 2641 0
-110 2641 0
-111 2641 0
-112 2641 0
-2642 115 116 117 118 119 0
-115 2642 0
-116 2642 0
-117 2642 0
-118 2642 0
-119 2642 0
-2643 122 123 124 125 126 0
-122 2643 0
-123 2643 0
-124 2643 0
-125 2643 0
-126 2643 0
-2644 129 130 131 132 133 0
-129 2644 0
-130 2644 0
-131 2644 0
-132 2644 0
-133 2644 0
-2645 136 137 138 139 140 0
-136 2645 0
-137 2645 0
-138 2645 0
-139 2645 0
-140 2645 0
-2646 143 144 145 146 147 0
-143 2646 0
-144 2646 0
-145 2646 0
-146 2646 0
-147 2646 0
-2640 2647 0
-2648 0
-2649 0
-2650 0
-2651 0
-2641 2652 0
-2647 2652 0
-2641 -2647 2653 0
-2648 2653 0
-2641 -2648 2654 0
-2649 2654 0
-2641 -2649 2655 0
-2650 2655 0
-2641 -2650 2656 0
-2651 2656 0
-2641 -2651 0
-2642 2657 0
-2652 2657 0
-2642 -2652 2658 0
-2653 2658 0
-2642 -2653 2659 0
-2654 2659 0
-2642 -2654 2660 0
-2655 2660 0
-2642 -2655 2661 0
-2656 2661 0
-2642 -2656 0
-2643 2662 0
-2657 2662 0
-2643 -2657 2663 0
-2658 2663 0
-2643 -2658 2664 0
-2659 2664 0
-2643 -2659 2665 0
-2660 2665 0
-2643 -2660 2666 0
-2661 2666 0
-2643 -2661 0
-2644 2667 0
-2662 2667 0
-2644 -2662 2668 0
-2663 2668 0
-2644 -2663 2669 0
-2664 2669 0
-2644 -2664 2670 0
-2665 2670 0
-2644 -2665 2671 0
-2666 2671 0
-2644 -2666 0
-2645 2672 0
-2667 2672 0
-2645 -2667 2673 0
-2668 2673 0
-2645 -2668 2674 0
-2669 2674 0
-2645 -2669 2675 0
-2670 2675 0
-2645 -2670 2676 0
-2671 2676 0
-2645 -2671 0
-2646 -2676 0
-2682 102 0
-102 2682 0
-2683 109 0
-109 2683 0
-2684 116 0
-116 2684 0
-2685 123 0
-123 2685 0
-2686 130 0
-130 2686 0
-2687 137 0
-137 2687 0
-2688 144 0
-144 2688 0
-2682 2689 0
-2683 2690 0
-2689 2690 0
-2683 -2689 0
-2684 2691 0
-2690 2691 0
-2684 -2690 0
-2685 2692 0
-2691 2692 0
-2685 -2691 0
-2686 2693 0
-2692 2693 0
-2686 -2692 0
-2687 2694 0
-2693 2694 0
-2687 -2693 0
-2688 -2694 0
-2696 102 103 0
-102 2696 0
-103 2696 0
-2697 109 110 0
-109 2697 0
-110 2697 0
-2698 116 117 0
-116 2698 0
-117 2698 0
-2699 123 124 0
-123 2699 0
-124 2699 0
-2700 130 131 0
-130 2700 0
-131 2700 0
-2701 137 138 0
-137 2701 0
-138 2701 0
-2702 144 145 0
-144 2702 0
-145 2702 0
-2696 2703 0
-2704 0
-2697 2705 0
-2703 2705 0
-2697 -2703 2706 0
-2704 2706 0
-2697 -2704 0
-2698 2707 0
-2705 2707 0
-2698 -2705 2708 0
-2706 2708 0
-2698 -2706 0
-2699 2709 0
-2707 2709 0
-2699 -2707 2710 0
-2708 2710 0
-2699 -2708 0
-2700 2711 0
-2709 2711 0
-2700 -2709 2712 0
-2710 2712 0
-2700 -2710 0
-2701 2713 0
-2711 2713 0
-2701 -2711 2714 0
-2712 2714 0
-2701 -2712 0
-2702 -2714 0
-2717 102 103 104 0
-102 2717 0
-103 2717 0
-104 2717 0
-2718 109 110 111 0
-109 2718 0
-110 2718 0
-111 2718 0
-2719 116 117 118 0
-116 2719 0
-117 2719 0
-118 2719 0
-2720 123 124 125 0
-123 2720 0
-124 2720 0
-125 2720 0
-2721 130 131 132 0
-130 2721 0
-131 2721 0
-132 2721 0
-2722 137 138 139 0
-137 2722 0
-138 2722 0
-139 2722 0
-2723 144 145 146 0
-144 2723 0
-145 2723 0
-146 2723 0
-2717 2724 0
-2725 0
-2726 0
-2718 2727 0
-2724 2727 0
-2718 -2724 2728 0
-2725 2728 0
-2718 -2725 2729 0
-2726 2729 0
-2718 -2726 0
-2719 2730 0
-2727 2730 0
-2719 -2727 2731 0
-2728 2731 0
-2719 -2728 2732 0
-2729 2732 0
-2719 -2729 0
-2720 2733 0
-2730 2733 0
-2720 -2730 2734 0
-2731 2734 0
-2720 -2731 2735 0
-2732 2735 0
-2720 -2732 0
-2721 2736 0
-2733 2736 0
-2721 -2733 2737 0
-2734 2737 0
-2721 -2734 2738 0
-2735 2738 0
-2721 -2735 0
-2722 2739 0
-2736 2739 0
-2722 -2736 2740 0
-2737 2740 0
-2722 -2737 2741 0
-2738 2741 0
-2722 -2738 0
-2723 -2741 0
-2745 102 103 104 105 0
-102 2745 0
-103 2745 0
-104 2745 0
-105 2745 0
-2746 109 110 111 112 0
-109 2746 0
-110 2746 0
-111 2746 0
-112 2746 0
-2747 116 117 118 119 0
-116 2747 0
-117 2747 0
-118 2747 0
-119 2747 0
-2748 123 124 125 126 0
-123 2748 0
-124 2748 0
-125 2748 0
-126 2748 0
-2749 130 131 132 133 0
-130 2749 0
-131 2749 0
-132 2749 0
-133 2749 0
-2750 137 138 139 140 0
-137 2750 0
-138 2750 0
-139 2750 0
-140 2750 0
-2751 144 145 146 147 0
-144 2751 0
-145 2751 0
-146 2751 0
-147 2751 0
-2745 2752 0
-2753 0
-2754 0
-2755 0
-2746 2756 0
-2752 2756 0
-2746 -2752 2757 0
-2753 2757 0
-2746 -2753 2758 0
-2754 2758 0
-2746 -2754 2759 0
-2755 2759 0
-2746 -2755 0
-2747 2760 0
-2756 2760 0
-2747 -2756 2761 0
-2757 2761 0
-2747 -2757 2762 0
-2758 2762 0
-2747 -2758 2763 0
-2759 2763 0
-2747 -2759 0
-2748 2764 0
-2760 2764 0
-2748 -2760 2765 0
-2761 2765 0
-2748 -2761 2766 0
-2762 2766 0
-2748 -2762 2767 0
-2763 2767 0
-2748 -2763 0
-2749 2768 0
-2764 2768 0
-2749 -2764 2769 0
-2765 2769 0
-2749 -2765 2770 0
-2766 2770 0
-2749 -2766 2771 0
-2767 2771 0
-2749 -2767 0
-2750 2772 0
-2768 2772 0
-2750 -2768 2773 0
-2769 2773 0
-2750 -2769 2774 0
-2770 2774 0
-2750 -2770 2775 0
-2771 2775 0
-2750 -2771 0
-2751 -2775 0
-2780 103 0
-103 2780 0
-2781 110 0
-110 2781 0
-2782 117 0
-117 2782 0
-2783 124 0
-124 2783 0
-2784 131 0
-131 2784 0
-2785 138 0
-138 2785 0
-2786 145 0
-145 2786 0
-2780 2787 0
-2781 2788 0
-2787 2788 0
-2781 -2787 0
-2782 2789 0
-2788 2789 0
-2782 -2788 0
-2783 2790 0
-2789 2790 0
-2783 -2789 0
-2784 2791 0
-2790 2791 0
-2784 -2790 0
-2785 2792 0
-2791 2792 0
-2785 -2791 0
-2786 -2792 0
-2794 103 104 0
-103 2794 0
-104 2794 0
-2795 110 111 0
-110 2795 0
-111 2795 0
-2796 117 118 0
-117 2796 0
-118 2796 0
-2797 124 125 0
-124 2797 0
-125 2797 0
-2798 131 132 0
-131 2798 0
-132 2798 0
-2799 138 139 0
-138 2799 0
-139 2799 0
-2800 145 146 0
-145 2800 0
-146 2800 0
-2794 2801 0
-2802 0
-2795 2803 0
-2801 2803 0
-2795 -2801 2804 0
-2802 2804 0
-2795 -2802 0
-2796 2805 0
-2803 2805 0
-2796 -2803 2806 0
-2804 2806 0
-2796 -2804 0
-2797 2807 0
-2805 2807 0
-2797 -2805 2808 0
-2806 2808 0
-2797 -2806 0
-2798 2809 0
-2807 2809 0
-2798 -2807 2810 0
-2808 2810 0
-2798 -2808 0
-2799 2811 0
-2809 2811 0
-2799 -2809 2812 0
-2810 2812 0
-2799 -2810 0
-2800 -2812 0
-2815 103 104 105 0
-103 2815 0
-104 2815 0
-105 2815 0
-2816 110 111 112 0
-110 2816 0
-111 2816 0
-112 2816 0
-2817 117 118 119 0
-117 2817 0
-118 2817 0
-119 2817 0
-2818 124 125 126 0
-124 2818 0
-125 2818 0
-126 2818 0
-2819 131 132 133 0
-131 2819 0
-132 2819 0
-133 2819 0
-2820 138 139 140 0
-138 2820 0
-139 2820 0
-140 2820 0
-2821 145 146 147 0
-145 2821 0
-146 2821 0
-147 2821 0
-2815 2822 0
-2823 0
-2824 0
-2816 2825 0
-2822 2825 0
-2816 -2822 2826 0
-2823 2826 0
-2816 -2823 2827 0
-2824 2827 0
-2816 -2824 0
-2817 2828 0
-2825 2828 0
-2817 -2825 2829 0
-2826 2829 0
-2817 -2826 2830 0
-2827 2830 0
-2817 -2827 0
-2818 2831 0
-2828 2831 0
-2818 -2828 2832 0
-2829 2832 0
-2818 -2829 2833 0
-2830 2833 0
-2818 -2830 0
-2819 2834 0
-2831 2834 0
-2819 -2831 2835 0
-2832 2835 0
-2819 -2832 2836 0
-2833 2836 0
-2819 -2833 0
-2820 2837 0
-2834 2837 0
-2820 -2834 2838 0
-2835 2838 0
-2820 -2835 2839 0
-2836 2839 0
-2820 -2836 0
-2821 -2839 0
-2843 104 0
-104 2843 0
-2844 111 0
-111 2844 0
-2845 118 0
-118 2845 0
-2846 125 0
-125 2846 0
-2847 132 0
-132 2847 0
-2848 139 0
-139 2848 0
-2849 146 0
-146 2849 0
-2843 2850 0
-2844 2851 0
-2850 2851 0
-2844 -2850 0
-2845 2852 0
-2851 2852 0
-2845 -2851 0
-2846 2853 0
-2852 2853 0
-2846 -2852 0
-2847 2854 0
-2853 2854 0
-2847 -2853 0
-2848 2855 0
-2854 2855 0
-2848 -2854 0
-2849 -2855 0
-2857 104 105 0
-104 2857 0
-105 2857 0
-2858 111 112 0
-111 2858 0
-112 2858 0
-2859 118 119 0
-118 2859 0
-119 2859 0
-2860 125 126 0
-125 2860 0
-126 2860 0
-2861 132 133 0
-132 2861 0
-133 2861 0
-2862 139 140 0
-139 2862 0
-140 2862 0
-2863 146 147 0
-146 2863 0
-147 2863 0
-2857 2864 0
-2865 0
-2858 2866 0
-2864 2866 0
-2858 -2864 2867 0
-2865 2867 0
-2858 -2865 0
-2859 2868 0
-2866 2868 0
-2859 -2866 2869 0
-2867 2869 0
-2859 -2867 0
-2860 2870 0
-2868 2870 0
-2860 -2868 2871 0
-2869 2871 0
-2860 -2869 0
-2861 2872 0
-2870 2872 0
-2861 -2870 2873 0
-2871 2873 0
-2861 -2871 0
-2862 2874 0
-2872 2874 0
-2862 -2872 2875 0
-2873 2875 0
-2862 -2873 0
-2863 -2875 0
-2878 105 0
-105 2878 0
-2879 112 0
-112 2879 0
-2880 119 0
-119 2880 0
-2881 126 0
-126 2881 0
-2882 133 0
-133 2882 0
-2883 140 0
-140 2883 0
-2884 147 0
-147 2884 0
-2878 2885 0
-2879 2886 0
-2885 2886 0
-2879 -2885 0
-2880 2887 0
-2886 2887 0
-2880 -2886 0
-2881 2888 0
-2887 2888 0
-2881 -2887 0
-2882 2889 0
-2888 2889 0
-2882 -2888 0
-2883 2890 0
-2889 2890 0
-2883 -2889 0
-2884 -2890 0
-2892 148 0
-148 2892 0
-2893 155 0
-155 2893 0
-2894 162 0
-162 2894 0
-2895 169 0
-169 2895 0
-2896 176 0
-176 2896 0
-2897 183 0
-183 2897 0
-2898 190 0
-190 2898 0
-2892 2899 0
-2893 2900 0
-2899 2900 0
-2893 -2899 0
-2894 2901 0
-2900 2901 0
-2894 -2900 0
-2895 2902 0
-2901 2902 0
-2895 -2901 0
-2896 2903 0
-2902 2903 0
-2896 -2902 0
-2897 2904 0
-2903 2904 0
-2897 -2903 0
-2898 -2904 0
-2906 148 149 0
-148 2906 0
-149 2906 0
-2907 155 156 0
-155 2907 0
-156 2907 0
-2908 162 163 0
-162 2908 0
-163 2908 0
-2909 169 170 0
-169 2909 0
-170 2909 0
-2910 176 177 0
-176 2910 0
-177 2910 0
-2911 183 184 0
-183 2911 0
-184 2911 0
-2912 190 191 0
-190 2912 0
-191 2912 0
-2906 2913 0
-2914 0
-2907 2915 0
-2913 2915 0
-2907 -2913 2916 0
-2914 2916 0
-2907 -2914 0
-2908 2917 0
-2915 2917 0
-2908 -2915 2918 0
-2916 2918 0
-2908 -2916 0
-2909 2919 0
-2917 2919 0
-2909 -2917 2920 0
-2918 2920 0
-2909 -2918 0
-2910 2921 0
-2919 2921 0
-2910 -2919 2922 0
-2920 2922 0
-2910 -2920 0
-2911 2923 0
-2921 2923 0
-2911 -2921 2924 0
-2922 2924 0
-2911 -2922 0
-2912 -2924 0
-2927 148 149 150 0
-148 2927 0
-149 2927 0
-150 2927 0
-2928 155 156 157 0
-155 2928 0
-156 2928 0
-157 2928 0
-2929 162 163 164 0
-162 2929 0
-163 2929 0
-164 2929 0
-2930 169 170 171 0
-169 2930 0
-170 2930 0
-171 2930 0
-2931 176 177 178 0
-176 2931 0
-177 2931 0
-178 2931 0
-2932 183 184 185 0
-183 2932 0
-184 2932 0
-185 2932 0
-2933 190 191 192 0
-190 2933 0
-191 2933 0
-192 2933 0
-2927 2934 0
-2935 0
-2936 0
-2928 2937 0
-2934 2937 0
-2928 -2934 2938 0
-2935 2938 0
-2928 -2935 2939 0
-2936 2939 0
-2928 -2936 0
-2929 2940 0
-2937 2940 0
-2929 -2937 2941 0
-2938 2941 0
-2929 -2938 2942 0
-2939 2942 0
-2929 -2939 0
-2930 2943 0
-2940 2943 0
-2930 -2940 2944 0
-2941 2944 0
-2930 -2941 2945 0
-2942 2945 0
-2930 -2942 0
-2931 2946 0
-2943 2946 0
-2931 -2943 2947 0
-2944 2947 0
-2931 -2944 2948 0
-2945 2948 0
-2931 -2945 0
-2932 2949 0
-2946 2949 0
-2932 -2946 2950 0
-2947 2950 0
-2932 -2947 2951 0
-2948 2951 0
-2932 -2948 0
-2933 -2951 0
-2955 148 149 150 151 0
-148 2955 0
-149 2955 0
-150 2955 0
-151 2955 0
-2956 155 156 157 158 0
-155 2956 0
-156 2956 0
-157 2956 0
-158 2956 0
-2957 162 163 164 165 0
-162 2957 0
-163 2957 0
-164 2957 0
-165 2957 0
-2958 169 170 171 172 0
-169 2958 0
-170 2958 0
-171 2958 0
-172 2958 0
-2959 176 177 178 179 0
-176 2959 0
-177 2959 0
-178 2959 0
-179 2959 0
-2960 183 184 185 186 0
-183 2960 0
-184 2960 0
-185 2960 0
-186 2960 0
-2961 190 191 192 193 0
-190 2961 0
-191 2961 0
-192 2961 0
-193 2961 0
-2955 2962 0
-2963 0
-2964 0
-2965 0
-2956 2966 0
-2962 2966 0
-2956 -2962 2967 0
-2963 2967 0
-2956 -2963 2968 0
-2964 2968 0
-2956 -2964 2969 0
-2965 2969 0
-2956 -2965 0
-2957 2970 0
-2966 2970 0
-2957 -2966 2971 0
-2967 2971 0
-2957 -2967 2972 0
-2968 2972 0
-2957 -2968 2973 0
-2969 2973 0
-2957 -2969 0
-2958 2974 0
-2970 2974 0
-2958 -2970 2975 0
-2971 2975 0
-2958 -2971 2976 0
-2972 2976 0
-2958 -2972 2977 0
-2973 2977 0
-2958 -2973 0
-2959 2978 0
-2974 2978 0
-2959 -2974 2979 0
-2975 2979 0
-2959 -2975 2980 0
-2976 2980 0
-2959 -2976 2981 0
-2977 2981 0
-2959 -2977 0
-2960 2982 0
-2978 2982 0
-2960 -2978 2983 0
-2979 2983 0
-2960 -2979 2984 0
-2980 2984 0
-2960 -2980 2985 0
-2981 2985 0
-2960 -2981 0
-2961 -2985 0
-2990 148 149 150 151 152 0
-148 2990 0
-149 2990 0
-150 2990 0
-151 2990 0
-152 2990 0
-2991 155 156 157 158 159 0
-155 2991 0
-156 2991 0
-157 2991 0
-158 2991 0
-159 2991 0
-2992 162 163 164 165 166 0
-162 2992 0
-163 2992 0
-164 2992 0
-165 2992 0
-166 2992 0
-2993 169 170 171 172 173 0
-169 2993 0
-170 2993 0
-171 2993 0
-172 2993 0
-173 2993 0
-2994 176 177 178 179 180 0
-176 2994 0
-177 2994 0
-178 2994 0
-179 2994 0
-180 2994 0
-2995 183 184 185 186 187 0
-183 2995 0
-184 2995 0
-185 2995 0
-186 2995 0
-187 2995 0
-2996 190 191 192 193 194 0
-190 2996 0
-191 2996 0
-192 2996 0
-193 2996 0
-194 2996 0
-2990 2997 0
-2998 0
-2999 0
-3000 0
-3001 0
-2991 3002 0
-2997 3002 0
-2991 -2997 3003 0
-2998 3003 0
-2991 -2998 3004 0
-2999 3004 0
-2991 -2999 3005 0
-3000 3005 0
-2991 -3000 3006 0
-3001 3006 0
-2991 -3001 0
-2992 3007 0
-3002 3007 0
-2992 -3002 3008 0
-3003 3008 0
-2992 -3003 3009 0
-3004 3009 0
-2992 -3004 3010 0
-3005 3010 0
-2992 -3005 3011 0
-3006 3011 0
-2992 -3006 0
-2993 3012 0
-3007 3012 0
-2993 -3007 3013 0
-3008 3013 0
-2993 -3008 3014 0
-3009 3014 0
-2993 -3009 3015 0
-3010 3015 0
-2993 -3010 3016 0
-3011 3016 0
-2993 -3011 0
-2994 3017 0
-3012 3017 0
-2994 -3012 3018 0
-3013 3018 0
-2994 -3013 3019 0
-3014 3019 0
-2994 -3014 3020 0
-3015 3020 0
-2994 -3015 3021 0
-3016 3021 0
-2994 -3016 0
-2995 3022 0
-3017 3022 0
-2995 -3017 3023 0
-3018 3023 0
-2995 -3018 3024 0
-3019 3024 0
-2995 -3019 3025 0
-3020 3025 0
-2995 -3020 3026 0
-3021 3026 0
-2995 -3021 0
-2996 -3026 0
-3032 148 149 150 151 152 153 0
-148 3032 0
-149 3032 0
-150 3032 0
-151 3032 0
-152 3032 0
-153 3032 0
-3033 155 156 157 158 159 160 0
-155 3033 0
-156 3033 0
-157 3033 0
-158 3033 0
-159 3033 0
-160 3033 0
-3034 162 163 164 165 166 167 0
-162 3034 0
-163 3034 0
-164 3034 0
-165 3034 0
-166 3034 0
-167 3034 0
-3035 169 170 171 172 173 174 0
-169 3035 0
-170 3035 0
-171 3035 0
-172 3035 0
-173 3035 0
-174 3035 0
-3036 176 177 178 179 180 181 0
-176 3036 0
-177 3036 0
-178 3036 0
-179 3036 0
-180 3036 0
-181 3036 0
-3037 183 184 185 186 187 188 0
-183 3037 0
-184 3037 0
-185 3037 0
-186 3037 0
-187 3037 0
-188 3037 0
-3038 190 191 192 193 194 195 0
-190 3038 0
-191 3038 0
-192 3038 0
-193 3038 0
-194 3038 0
-195 3038 0
-3032 3039 0
-3040 0
-3041 0
-3042 0
-3043 0
-3044 0
-3033 3045 0
-3039 3045 0
-3033 -3039 3046 0
-3040 3046 0
-3033 -3040 3047 0
-3041 3047 0
-3033 -3041 3048 0
-3042 3048 0
-3033 -3042 3049 0
-3043 3049 0
-3033 -3043 3050 0
-3044 3050 0
-3033 -3044 0
-3034 3051 0
-3045 3051 0
-3034 -3045 3052 0
-3046 3052 0
-3034 -3046 3053 0
-3047 3053 0
-3034 -3047 3054 0
-3048 3054 0
-3034 -3048 3055 0
-3049 3055 0
-3034 -3049 3056 0
-3050 3056 0
-3034 -3050 0
-3035 3057 0
-3051 3057 0
-3035 -3051 3058 0
-3052 3058 0
-3035 -3052 3059 0
-3053 3059 0
-3035 -3053 3060 0
-3054 3060 0
-3035 -3054 3061 0
-3055 3061 0
-3035 -3055 3062 0
-3056 3062 0
-3035 -3056 0
-3036 3063 0
-3057 3063 0
-3036 -3057 3064 0
-3058 3064 0
-3036 -3058 3065 0
-3059 3065 0
-3036 -3059 3066 0
-3060 3066 0
-3036 -3060 3067 0
-3061 3067 0
-3036 -3061 3068 0
-3062 3068 0
-3036 -3062 0
-3037 3069 0
-3063 3069 0
-3037 -3063 3070 0
-3064 3070 0
-3037 -3064 3071 0
-3065 3071 0
-3037 -3065 3072 0
-3066 3072 0
-3037 -3066 3073 0
-3067 3073 0
-3037 -3067 3074 0
-3068 3074 0
-3037 -3068 0
-3038 -3074 0
-3081 148 149 150 151 152 153 154 0
-148 3081 0
-149 3081 0
-150 3081 0
-151 3081 0
-152 3081 0
-153 3081 0
-154 3081 0
-3082 155 156 157 158 159 160 161 0
-155 3082 0
-156 3082 0
-157 3082 0
-158 3082 0
-159 3082 0
-160 3082 0
-161 3082 0
-3083 162 163 164 165 166 167 168 0
-162 3083 0
-163 3083 0
-164 3083 0
-165 3083 0
-166 3083 0
-167 3083 0
-168 3083 0
-3084 169 170 171 172 173 174 175 0
-169 3084 0
-170 3084 0
-171 3084 0
-172 3084 0
-173 3084 0
-174 3084 0
-175 3084 0
-3085 176 177 178 179 180 181 182 0
-176 3085 0
-177 3085 0
-178 3085 0
-179 3085 0
-180 3085 0
-181 3085 0
-182 3085 0
-3086 183 184 185 186 187 188 189 0
-183 3086 0
-184 3086 0
-185 3086 0
-186 3086 0
-187 3086 0
-188 3086 0
-189 3086 0
-3087 190 191 192 193 194 195 196 0
-190 3087 0
-191 3087 0
-192 3087 0
-193 3087 0
-194 3087 0
-195 3087 0
-196 3087 0
-3088 149 0
-149 3088 0
-3089 156 0
-156 3089 0
-3090 163 0
-163 3090 0
-3091 170 0
-170 3091 0
-3092 177 0
-177 3092 0
-3093 184 0
-184 3093 0
-3094 191 0
-191 3094 0
-3088 3095 0
-3089 3096 0
-3095 3096 0
-3089 -3095 0
-3090 3097 0
-3096 3097 0
-3090 -3096 0
-3091 3098 0
-3097 3098 0
-3091 -3097 0
-3092 3099 0
-3098 3099 0
-3092 -3098 0
-3093 3100 0
-3099 3100 0
-3093 -3099 0
-3094 -3100 0
-3102 149 150 0
-149 3102 0
-150 3102 0
-3103 156 157 0
-156 3103 0
-157 3103 0
-3104 163 164 0
-163 3104 0
-164 3104 0
-3105 170 171 0
-170 3105 0
-171 3105 0
-3106 177 178 0
-177 3106 0
-178 3106 0
-3107 184 185 0
-184 3107 0
-185 3107 0
-3108 191 192 0
-191 3108 0
-192 3108 0
-3102 3109 0
-3110 0
-3103 3111 0
-3109 3111 0
-3103 -3109 3112 0
-3110 3112 0
-3103 -3110 0
-3104 3113 0
-3111 3113 0
-3104 -3111 3114 0
-3112 3114 0
-3104 -3112 0
-3105 3115 0
-3113 3115 0
-3105 -3113 3116 0
-3114 3116 0
-3105 -3114 0
-3106 3117 0
-3115 3117 0
-3106 -3115 3118 0
-3116 3118 0
-3106 -3116 0
-3107 3119 0
-3117 3119 0
-3107 -3117 3120 0
-3118 3120 0
-3107 -3118 0
-3108 -3120 0
-3123 149 150 151 0
-149 3123 0
-150 3123 0
-151 3123 0
-3124 156 157 158 0
-156 3124 0
-157 3124 0
-158 3124 0
-3125 163 164 165 0
-163 3125 0
-164 3125 0
-165 3125 0
-3126 170 171 172 0
-170 3126 0
-171 3126 0
-172 3126 0
-3127 177 178 179 0
-177 3127 0
-178 3127 0
-179 3127 0
-3128 184 185 186 0
-184 3128 0
-185 3128 0
-186 3128 0
-3129 191 192 193 0
-191 3129 0
-192 3129 0
-193 3129 0
-3123 3130 0
-3131 0
-3132 0
-3124 3133 0
-3130 3133 0
-3124 -3130 3134 0
-3131 3134 0
-3124 -3131 3135 0
-3132 3135 0
-3124 -3132 0
-3125 3136 0
-3133 3136 0
-3125 -3133 3137 0
-3134 3137 0
-3125 -3134 3138 0
-3135 3138 0
-3125 -3135 0
-3126 3139 0
-3136 3139 0
-3126 -3136 3140 0
-3137 3140 0
-3126 -3137 3141 0
-3138 3141 0
-3126 -3138 0
-3127 3142 0
-3139 3142 0
-3127 -3139 3143 0
-3140 3143 0
-3127 -3140 3144 0
-3141 3144 0
-3127 -3141 0
-3128 3145 0
-3142 3145 0
-3128 -3142 3146 0
-3143 3146 0
-3128 -3143 3147 0
-3144 3147 0
-3128 -3144 0
-3129 -3147 0
-3151 149 150 151 152 0
-149 3151 0
-150 3151 0
-151 3151 0
-152 3151 0
-3152 156 157 158 159 0
-156 3152 0
-157 3152 0
-158 3152 0
-159 3152 0
-3153 163 164 165 166 0
-163 3153 0
-164 3153 0
-165 3153 0
-166 3153 0
-3154 170 171 172 173 0
-170 3154 0
-171 3154 0
-172 3154 0
-173 3154 0
-3155 177 178 179 180 0
-177 3155 0
-178 3155 0
-179 3155 0
-180 3155 0
-3156 184 185 186 187 0
-184 3156 0
-185 3156 0
-186 3156 0
-187 3156 0
-3157 191 192 193 194 0
-191 3157 0
-192 3157 0
-193 3157 0
-194 3157 0
-3151 3158 0
-3159 0
-3160 0
-3161 0
-3152 3162 0
-3158 3162 0
-3152 -3158 3163 0
-3159 3163 0
-3152 -3159 3164 0
-3160 3164 0
-3152 -3160 3165 0
-3161 3165 0
-3152 -3161 0
-3153 3166 0
-3162 3166 0
-3153 -3162 3167 0
-3163 3167 0
-3153 -3163 3168 0
-3164 3168 0
-3153 -3164 3169 0
-3165 3169 0
-3153 -3165 0
-3154 3170 0
-3166 3170 0
-3154 -3166 3171 0
-3167 3171 0
-3154 -3167 3172 0
-3168 3172 0
-3154 -3168 3173 0
-3169 3173 0
-3154 -3169 0
-3155 3174 0
-3170 3174 0
-3155 -3170 3175 0
-3171 3175 0
-3155 -3171 3176 0
-3172 3176 0
-3155 -3172 3177 0
-3173 3177 0
-3155 -3173 0
-3156 3178 0
-3174 3178 0
-3156 -3174 3179 0
-3175 3179 0
-3156 -3175 3180 0
-3176 3180 0
-3156 -3176 3181 0
-3177 3181 0
-3156 -3177 0
-3157 -3181 0
-3186 149 150 151 152 153 0
-149 3186 0
-150 3186 0
-151 3186 0
-152 3186 0
-153 3186 0
-3187 156 157 158 159 160 0
-156 3187 0
-157 3187 0
-158 3187 0
-159 3187 0
-160 3187 0
-3188 163 164 165 166 167 0
-163 3188 0
-164 3188 0
-165 3188 0
-166 3188 0
-167 3188 0
-3189 170 171 172 173 174 0
-170 3189 0
-171 3189 0
-172 3189 0
-173 3189 0
-174 3189 0
-3190 177 178 179 180 181 0
-177 3190 0
-178 3190 0
-179 3190 0
-180 3190 0
-181 3190 0
-3191 184 185 186 187 188 0
-184 3191 0
-185 3191 0
-186 3191 0
-187 3191 0
-188 3191 0
-3192 191 192 193 194 195 0
-191 3192 0
-192 3192 0
-193 3192 0
-194 3192 0
-195 3192 0
-3186 3193 0
-3194 0
-3195 0
-3196 0
-3197 0
-3187 3198 0
-3193 3198 0
-3187 -3193 3199 0
-3194 3199 0
-3187 -3194 3200 0
-3195 3200 0
-3187 -3195 3201 0
-3196 3201 0
-3187 -3196 3202 0
-3197 3202 0
-3187 -3197 0
-3188 3203 0
-3198 3203 0
-3188 -3198 3204 0
-3199 3204 0
-3188 -3199 3205 0
-3200 3205 0
-3188 -3200 3206 0
-3201 3206 0
-3188 -3201 3207 0
-3202 3207 0
-3188 -3202 0
-3189 3208 0
-3203 3208 0
-3189 -3203 3209 0
-3204 3209 0
-3189 -3204 3210 0
-3205 3210 0
-3189 -3205 3211 0
-3206 3211 0
-3189 -3206 3212 0
-3207 3212 0
-3189 -3207 0
-3190 3213 0
-3208 3213 0
-3190 -3208 3214 0
-3209 3214 0
-3190 -3209 3215 0
-3210 3215 0
-3190 -3210 3216 0
-3211 3216 0
-3190 -3211 3217 0
-3212 3217 0
-3190 -3212 0
-3191 3218 0
-3213 3218 0
-3191 -3213 3219 0
-3214 3219 0
-3191 -3214 3220 0
-3215 3220 0
-3191 -3215 3221 0
-3216 3221 0
-3191 -3216 3222 0
-3217 3222 0
-3191 -3217 0
-3192 -3222 0
-3228 149 150 151 152 153 154 0
-149 3228 0
-150 3228 0
-151 3228 0
-152 3228 0
-153 3228 0
-154 3228 0
-3229 156 157 158 159 160 161 0
-156 3229 0
-157 3229 0
-158 3229 0
-159 3229 0
-160 3229 0
-161 3229 0
-3230 163 164 165 166 167 168 0
-163 3230 0
-164 3230 0
-165 3230 0
-166 3230 0
-167 3230 0
-168 3230 0
-3231 170 171 172 173 174 175 0
-170 3231 0
-171 3231 0
-172 3231 0
-173 3231 0
-174 3231 0
-175 3231 0
-3232 177 178 179 180 181 182 0
-177 3232 0
-178 3232 0
-179 3232 0
-180 3232 0
-181 3232 0
-182 3232 0
-3233 184 185 186 187 188 189 0
-184 3233 0
-185 3233 0
-186 3233 0
-187 3233 0
-188 3233 0
-189 3233 0
-3234 191 192 193 194 195 196 0
-191 3234 0
-192 3234 0
-193 3234 0
-194 3234 0
-195 3234 0
-196 3234 0
-3228 3235 0
-3236 0
-3237 0
-3238 0
-3239 0
-3240 0
-3229 3241 0
-3235 3241 0
-3229 -3235 3242 0
-3236 3242 0
-3229 -3236 3243 0
-3237 3243 0
-3229 -3237 3244 0
-3238 3244 0
-3229 -3238 3245 0
-3239 3245 0
-3229 -3239 3246 0
-3240 3246 0
-3229 -3240 0
-3230 3247 0
-3241 3247 0
-3230 -3241 3248 0
-3242 3248 0
-3230 -3242 3249 0
-3243 3249 0
-3230 -3243 3250 0
-3244 3250 0
-3230 -3244 3251 0
-3245 3251 0
-3230 -3245 3252 0
-3246 3252 0
-3230 -3246 0
-3231 3253 0
-3247 3253 0
-3231 -3247 3254 0
-3248 3254 0
-3231 -3248 3255 0
-3249 3255 0
-3231 -3249 3256 0
-3250 3256 0
-3231 -3250 3257 0
-3251 3257 0
-3231 -3251 3258 0
-3252 3258 0
-3231 -3252 0
-3232 3259 0
-3253 3259 0
-3232 -3253 3260 0
-3254 3260 0
-3232 -3254 3261 0
-3255 3261 0
-3232 -3255 3262 0
-3256 3262 0
-3232 -3256 3263 0
-3257 3263 0
-3232 -3257 3264 0
-3258 3264 0
-3232 -3258 0
-3233 3265 0
-3259 3265 0
-3233 -3259 3266 0
-3260 3266 0
-3233 -3260 3267 0
-3261 3267 0
-3233 -3261 3268 0
-3262 3268 0
-3233 -3262 3269 0
-3263 3269 0
-3233 -3263 3270 0
-3264 3270 0
-3233 -3264 0
-3234 -3270 0
-3277 150 0
-150 3277 0
-3278 157 0
-157 3278 0
-3279 164 0
-164 3279 0
-3280 171 0
-171 3280 0
-3281 178 0
-178 3281 0
-3282 185 0
-185 3282 0
-3283 192 0
-192 3283 0
-3277 3284 0
-3278 3285 0
-3284 3285 0
-3278 -3284 0
-3279 3286 0
-3285 3286 0
-3279 -3285 0
-3280 3287 0
-3286 3287 0
-3280 -3286 0
-3281 3288 0
-3287 3288 0
-3281 -3287 0
-3282 3289 0
-3288 3289 0
-3282 -3288 0
-3283 -3289 0
-3291 150 151 0
-150 3291 0
-151 3291 0
-3292 157 158 0
-157 3292 0
-158 3292 0
-3293 164 165 0
-164 3293 0
-165 3293 0
-3294 171 172 0
-171 3294 0
-172 3294 0
-3295 178 179 0
-178 3295 0
-179 3295 0
-3296 185 186 0
-185 3296 0
-186 3296 0
-3297 192 193 0
-192 3297 0
-193 3297 0
-3291 3298 0
-3299 0
-3292 3300 0
-3298 3300 0
-3292 -3298 3301 0
-3299 3301 0
-3292 -3299 0
-3293 3302 0
-3300 3302 0
-3293 -3300 3303 0
-3301 3303 0
-3293 -3301 0
-3294 3304 0
-3302 3304 0
-3294 -3302 3305 0
-3303 3305 0
-3294 -3303 0
-3295 3306 0
-3304 3306 0
-3295 -3304 3307 0
-3305 3307 0
-3295 -3305 0
-3296 3308 0
-3306 3308 0
-3296 -3306 3309 0
-3307 3309 0
-3296 -3307 0
-3297 -3309 0
-3312 150 151 152 0
-150 3312 0
-151 3312 0
-152 3312 0
-3313 157 158 159 0
-157 3313 0
-158 3313 0
-159 3313 0
-3314 164 165 166 0
-164 3314 0
-165 3314 0
-166 3314 0
-3315 171 172 173 0
-171 3315 0
-172 3315 0
-173 3315 0
-3316 178 179 180 0
-178 3316 0
-179 3316 0
-180 3316 0
-3317 185 186 187 0
-185 3317 0
-186 3317 0
-187 3317 0
-3318 192 193 194 0
-192 3318 0
-193 3318 0
-194 3318 0
-3312 3319 0
-3320 0
-3321 0
-3313 3322 0
-3319 3322 0
-3313 -3319 3323 0
-3320 3323 0
-3313 -3320 3324 0
-3321 3324 0
-3313 -3321 0
-3314 3325 0
-3322 3325 0
-3314 -3322 3326 0
-3323 3326 0
-3314 -3323 3327 0
-3324 3327 0
-3314 -3324 0
-3315 3328 0
-3325 3328 0
-3315 -3325 3329 0
-3326 3329 0
-3315 -3326 3330 0
-3327 3330 0
-3315 -3327 0
-3316 3331 0
-3328 3331 0
-3316 -3328 3332 0
-3329 3332 0
-3316 -3329 3333 0
-3330 3333 0
-3316 -3330 0
-3317 3334 0
-3331 3334 0
-3317 -3331 3335 0
-3332 3335 0
-3317 -3332 3336 0
-3333 3336 0
-3317 -3333 0
-3318 -3336 0
-3340 150 151 152 153 0
-150 3340 0
-151 3340 0
-152 3340 0
-153 3340 0
-3341 157 158 159 160 0
-157 3341 0
-158 3341 0
-159 3341 0
-160 3341 0
-3342 164 165 166 167 0
-164 3342 0
-165 3342 0
-166 3342 0
-167 3342 0
-3343 171 172 173 174 0
-171 3343 0
-172 3343 0
-173 3343 0
-174 3343 0
-3344 178 179 180 181 0
-178 3344 0
-179 3344 0
-180 3344 0
-181 3344 0
-3345 185 186 187 188 0
-185 3345 0
-186 3345 0
-187 3345 0
-188 3345 0
-3346 192 193 194 195 0
-192 3346 0
-193 3346 0
-194 3346 0
-195 3346 0
-3340 3347 0
-3348 0
-3349 0
-3350 0
-3341 3351 0
-3347 3351 0
-3341 -3347 3352 0
-3348 3352 0
-3341 -3348 3353 0
-3349 3353 0
-3341 -3349 3354 0
-3350 3354 0
-3341 -3350 0
-3342 3355 0
-3351 3355 0
-3342 -3351 3356 0
-3352 3356 0
-3342 -3352 3357 0
-3353 3357 0
-3342 -3353 3358 0
-3354 3358 0
-3342 -3354 0
-3343 3359 0
-3355 3359 0
-3343 -3355 3360 0
-3356 3360 0
-3343 -3356 3361 0
-3357 3361 0
-3343 -3357 3362 0
-3358 3362 0
-3343 -3358 0
-3344 3363 0
-3359 3363 0
-3344 -3359 3364 0
-3360 3364 0
-3344 -3360 3365 0
-3361 3365 0
-3344 -3361 3366 0
-3362 3366 0
-3344 -3362 0
-3345 3367 0
-3363 3367 0
-3345 -3363 3368 0
-3364 3368 0
-3345 -3364 3369 0
-3365 3369 0
-3345 -3365 3370 0
-3366 3370 0
-3345 -3366 0
-3346 -3370 0
-3375 150 151 152 153 154 0
-150 3375 0
-151 3375 0
-152 3375 0
-153 3375 0
-154 3375 0
-3376 157 158 159 160 161 0
-157 3376 0
-158 3376 0
-159 3376 0
-160 3376 0
-161 3376 0
-3377 164 165 166 167 168 0
-164 3377 0
-165 3377 0
-166 3377 0
-167 3377 0
-168 3377 0
-3378 171 172 173 174 175 0
-171 3378 0
-172 3378 0
-173 3378 0
-174 3378 0
-175 3378 0
-3379 178 179 180 181 182 0
-178 3379 0
-179 3379 0
-180 3379 0
-181 3379 0
-182 3379 0
-3380 185 186 187 188 189 0
-185 3380 0
-186 3380 0
-187 3380 0
-188 3380 0
-189 3380 0
-3381 192 193 194 195 196 0
-192 3381 0
-193 3381 0
-194 3381 0
-195 3381 0
-196 3381 0
-3375 3382 0
-3383 0
-3384 0
-3385 0
-3386 0
-3376 3387 0
-3382 3387 0
-3376 -3382 3388 0
-3383 3388 0
-3376 -3383 3389 0
-3384 3389 0
-3376 -3384 3390 0
-3385 3390 0
-3376 -3385 3391 0
-3386 3391 0
-3376 -3386 0
-3377 3392 0
-3387 3392 0
-3377 -3387 3393 0
-3388 3393 0
-3377 -3388 3394 0
-3389 3394 0
-3377 -3389 3395 0
-3390 3395 0
-3377 -3390 3396 0
-3391 3396 0
-3377 -3391 0
-3378 3397 0
-3392 3397 0
-3378 -3392 3398 0
-3393 3398 0
-3378 -3393 3399 0
-3394 3399 0
-3378 -3394 3400 0
-3395 3400 0
-3378 -3395 3401 0
-3396 3401 0
-3378 -3396 0
-3379 3402 0
-3397 3402 0
-3379 -3397 3403 0
-3398 3403 0
-3379 -3398 3404 0
-3399 3404 0
-3379 -3399 3405 0
-3400 3405 0
-3379 -3400 3406 0
-3401 3406 0
-3379 -3401 0
-3380 3407 0
-3402 3407 0
-3380 -3402 3408 0
-3403 3408 0
-3380 -3403 3409 0
-3404 3409 0
-3380 -3404 3410 0
-3405 3410 0
-3380 -3405 3411 0
-3406 3411 0
-3380 -3406 0
-3381 -3411 0
-3417 151 0
-151 3417 0
-3418 158 0
-158 3418 0
-3419 165 0
-165 3419 0
-3420 172 0
-172 3420 0
-3421 179 0
-179 3421 0
-3422 186 0
-186 3422 0
-3423 193 0
-193 3423 0
-3417 3424 0
-3418 3425 0
-3424 3425 0
-3418 -3424 0
-3419 3426 0
-3425 3426 0
-3419 -3425 0
-3420 3427 0
-3426 3427 0
-3420 -3426 0
-3421 3428 0
-3427 3428 0
-3421 -3427 0
-3422 3429 0
-3428 3429 0
-3422 -3428 0
-3423 -3429 0
-3431 151 152 0
-151 3431 0
-152 3431 0
-3432 158 159 0
-158 3432 0
-159 3432 0
-3433 165 166 0
-165 3433 0
-166 3433 0
-3434 172 173 0
-172 3434 0
-173 3434 0
-3435 179 180 0
-179 3435 0
-180 3435 0
-3436 186 187 0
-186 3436 0
-187 3436 0
-3437 193 194 0
-193 3437 0
-194 3437 0
-3431 3438 0
-3439 0
-3432 3440 0
-3438 3440 0
-3432 -3438 3441 0
-3439 3441 0
-3432 -3439 0
-3433 3442 0
-3440 3442 0
-3433 -3440 3443 0
-3441 3443 0
-3433 -3441 0
-3434 3444 0
-3442 3444 0
-3434 -3442 3445 0
-3443 3445 0
-3434 -3443 0
-3435 3446 0
-3444 3446 0
-3435 -3444 3447 0
-3445 3447 0
-3435 -3445 0
-3436 3448 0
-3446 3448 0
-3436 -3446 3449 0
-3447 3449 0
-3436 -3447 0
-3437 -3449 0
-3452 151 152 153 0
-151 3452 0
-152 3452 0
-153 3452 0
-3453 158 159 160 0
-158 3453 0
-159 3453 0
-160 3453 0
-3454 165 166 167 0
-165 3454 0
-166 3454 0
-167 3454 0
-3455 172 173 174 0
-172 3455 0
-173 3455 0
-174 3455 0
-3456 179 180 181 0
-179 3456 0
-180 3456 0
-181 3456 0
-3457 186 187 188 0
-186 3457 0
-187 3457 0
-188 3457 0
-3458 193 194 195 0
-193 3458 0
-194 3458 0
-195 3458 0
-3452 3459 0
-3460 0
-3461 0
-3453 3462 0
-3459 3462 0
-3453 -3459 3463 0
-3460 3463 0
-3453 -3460 3464 0
-3461 3464 0
-3453 -3461 0
-3454 3465 0
-3462 3465 0
-3454 -3462 3466 0
-3463 3466 0
-3454 -3463 3467 0
-3464 3467 0
-3454 -3464 0
-3455 3468 0
-3465 3468 0
-3455 -3465 3469 0
-3466 3469 0
-3455 -3466 3470 0
-3467 3470 0
-3455 -3467 0
-3456 3471 0
-3468 3471 0
-3456 -3468 3472 0
-3469 3472 0
-3456 -3469 3473 0
-3470 3473 0
-3456 -3470 0
-3457 3474 0
-3471 3474 0
-3457 -3471 3475 0
-3472 3475 0
-3457 -3472 3476 0
-3473 3476 0
-3457 -3473 0
-3458 -3476 0
-3480 151 152 153 154 0
-151 3480 0
-152 3480 0
-153 3480 0
-154 3480 0
-3481 158 159 160 161 0
-158 3481 0
-159 3481 0
-160 3481 0
-161 3481 0
-3482 165 166 167 168 0
-165 3482 0
-166 3482 0
-167 3482 0
-168 3482 0
-3483 172 173 174 175 0
-172 3483 0
-173 3483 0
-174 3483 0
-175 3483 0
-3484 179 180 181 182 0
-179 3484 0
-180 3484 0
-181 3484 0
-182 3484 0
-3485 186 187 188 189 0
-186 3485 0
-187 3485 0
-188 3485 0
-189 3485 0
-3486 193 194 195 196 0
-193 3486 0
-194 3486 0
-195 3486 0
-196 3486 0
-3480 3487 0
-3488 0
-3489 0
-3490 0
-3481 3491 0
-3487 3491 0
-3481 -3487 3492 0
-3488 3492 0
-3481 -3488 3493 0
-3489 3493 0
-3481 -3489 3494 0
-3490 3494 0
-3481 -3490 0
-3482 3495 0
-3491 3495 0
-3482 -3491 3496 0
-3492 3496 0
-3482 -3492 3497 0
-3493 3497 0
-3482 -3493 3498 0
-3494 3498 0
-3482 -3494 0
-3483 3499 0
-3495 3499 0
-3483 -3495 3500 0
-3496 3500 0
-3483 -3496 3501 0
-3497 3501 0
-3483 -3497 3502 0
-3498 3502 0
-3483 -3498 0
-3484 3503 0
-3499 3503 0
-3484 -3499 3504 0
-3500 3504 0
-3484 -3500 3505 0
-3501 3505 0
-3484 -3501 3506 0
-3502 3506 0
-3484 -3502 0
-3485 3507 0
-3503 3507 0
-3485 -3503 3508 0
-3504 3508 0
-3485 -3504 3509 0
-3505 3509 0
-3485 -3505 3510 0
-3506 3510 0
-3485 -3506 0
-3486 -3510 0
-3515 152 0
-152 3515 0
-3516 159 0
-159 3516 0
-3517 166 0
-166 3517 0
-3518 173 0
-173 3518 0
-3519 180 0
-180 3519 0
-3520 187 0
-187 3520 0
-3521 194 0
-194 3521 0
-3515 3522 0
-3516 3523 0
-3522 3523 0
-3516 -3522 0
-3517 3524 0
-3523 3524 0
-3517 -3523 0
-3518 3525 0
-3524 3525 0
-3518 -3524 0
-3519 3526 0
-3525 3526 0
-3519 -3525 0
-3520 3527 0
-3526 3527 0
-3520 -3526 0
-3521 -3527 0
-3529 152 153 0
-152 3529 0
-153 3529 0
-3530 159 160 0
-159 3530 0
-160 3530 0
-3531 166 167 0
-166 3531 0
-167 3531 0
-3532 173 174 0
-173 3532 0
-174 3532 0
-3533 180 181 0
-180 3533 0
-181 3533 0
-3534 187 188 0
-187 3534 0
-188 3534 0
-3535 194 195 0
-194 3535 0
-195 3535 0
-3529 3536 0
-3537 0
-3530 3538 0
-3536 3538 0
-3530 -3536 3539 0
-3537 3539 0
-3530 -3537 0
-3531 3540 0
-3538 3540 0
-3531 -3538 3541 0
-3539 3541 0
-3531 -3539 0
-3532 3542 0
-3540 3542 0
-3532 -3540 3543 0
-3541 3543 0
-3532 -3541 0
-3533 3544 0
-3542 3544 0
-3533 -3542 3545 0
-3543 3545 0
-3533 -3543 0
-3534 3546 0
-3544 3546 0
-3534 -3544 3547 0
-3545 3547 0
-3534 -3545 0
-3535 -3547 0
-3550 152 153 154 0
-152 3550 0
-153 3550 0
-154 3550 0
-3551 159 160 161 0
-159 3551 0
-160 3551 0
-161 3551 0
-3552 166 167 168 0
-166 3552 0
-167 3552 0
-168 3552 0
-3553 173 174 175 0
-173 3553 0
-174 3553 0
-175 3553 0
-3554 180 181 182 0
-180 3554 0
-181 3554 0
-182 3554 0
-3555 187 188 189 0
-187 3555 0
-188 3555 0
-189 3555 0
-3556 194 195 196 0
-194 3556 0
-195 3556 0
-196 3556 0
-3550 3557 0
-3558 0
-3559 0
-3551 3560 0
-3557 3560 0
-3551 -3557 3561 0
-3558 3561 0
-3551 -3558 3562 0
-3559 3562 0
-3551 -3559 0
-3552 3563 0
-3560 3563 0
-3552 -3560 3564 0
-3561 3564 0
-3552 -3561 3565 0
-3562 3565 0
-3552 -3562 0
-3553 3566 0
-3563 3566 0
-3553 -3563 3567 0
-3564 3567 0
-3553 -3564 3568 0
-3565 3568 0
-3553 -3565 0
-3554 3569 0
-3566 3569 0
-3554 -3566 3570 0
-3567 3570 0
-3554 -3567 3571 0
-3568 3571 0
-3554 -3568 0
-3555 3572 0
-3569 3572 0
-3555 -3569 3573 0
-3570 3573 0
-3555 -3570 3574 0
-3571 3574 0
-3555 -3571 0
-3556 -3574 0
-3578 153 0
-153 3578 0
-3579 160 0
-160 3579 0
-3580 167 0
-167 3580 0
-3581 174 0
-174 3581 0
-3582 181 0
-181 3582 0
-3583 188 0
-188 3583 0
-3584 195 0
-195 3584 0
-3578 3585 0
-3579 3586 0
-3585 3586 0
-3579 -3585 0
-3580 3587 0
-3586 3587 0
-3580 -3586 0
-3581 3588 0
-3587 3588 0
-3581 -3587 0
-3582 3589 0
-3588 3589 0
-3582 -3588 0
-3583 3590 0
-3589 3590 0
-3583 -3589 0
-3584 -3590 0
-3592 153 154 0
-153 3592 0
-154 3592 0
-3593 160 161 0
-160 3593 0
-161 3593 0
-3594 167 168 0
-167 3594 0
-168 3594 0
-3595 174 175 0
-174 3595 0
-175 3595 0
-3596 181 182 0
-181 3596 0
-182 3596 0
-3597 188 189 0
-188 3597 0
-189 3597 0
-3598 195 196 0
-195 3598 0
-196 3598 0
-3592 3599 0
-3600 0
-3593 3601 0
-3599 3601 0
-3593 -3599 3602 0
-3600 3602 0
-3593 -3600 0
-3594 3603 0
-3601 3603 0
-3594 -3601 3604 0
-3602 3604 0
-3594 -3602 0
-3595 3605 0
-3603 3605 0
-3595 -3603 3606 0
-3604 3606 0
-3595 -3604 0
-3596 3607 0
-3605 3607 0
-3596 -3605 3608 0
-3606 3608 0
-3596 -3606 0
-3597 3609 0
-3607 3609 0
-3597 -3607 3610 0
-3608 3610 0
-3597 -3608 0
-3598 -3610 0
-3613 154 0
-154 3613 0
-3614 161 0
-161 3614 0
-3615 168 0
-168 3615 0
-3616 175 0
-175 3616 0
-3617 182 0
-182 3617 0
-3618 189 0
-189 3618 0
-3619 196 0
-196 3619 0
-3613 3620 0
-3614 3621 0
-3620 3621 0
-3614 -3620 0
-3615 3622 0
-3621 3622 0
-3615 -3621 0
-3616 3623 0
-3622 3623 0
-3616 -3622 0
-3617 3624 0
-3623 3624 0
-3617 -3623 0
-3618 3625 0
-3624 3625 0
-3618 -3624 0
-3619 -3625 0
-3627 197 0
-197 3627 0
-3628 204 0
-204 3628 0
-3629 211 0
-211 3629 0
-3630 218 0
-218 3630 0
-3631 225 0
-225 3631 0
-3632 232 0
-232 3632 0
-3633 239 0
-239 3633 0
-3627 3634 0
-3628 3635 0
-3634 3635 0
-3628 -3634 0
-3629 3636 0
-3635 3636 0
-3629 -3635 0
-3630 3637 0
-3636 3637 0
-3630 -3636 0
-3631 3638 0
-3637 3638 0
-3631 -3637 0
-3632 3639 0
-3638 3639 0
-3632 -3638 0
-3633 -3639 0
-3641 197 198 0
-197 3641 0
-198 3641 0
-3642 204 205 0
-204 3642 0
-205 3642 0
-3643 211 212 0
-211 3643 0
-212 3643 0
-3644 218 219 0
-218 3644 0
-219 3644 0
-3645 225 226 0
-225 3645 0
-226 3645 0
-3646 232 233 0
-232 3646 0
-233 3646 0
-3647 239 240 0
-239 3647 0
-240 3647 0
-3641 3648 0
-3649 0
-3642 3650 0
-3648 3650 0
-3642 -3648 3651 0
-3649 3651 0
-3642 -3649 0
-3643 3652 0
-3650 3652 0
-3643 -3650 3653 0
-3651 3653 0
-3643 -3651 0
-3644 3654 0
-3652 3654 0
-3644 -3652 3655 0
-3653 3655 0
-3644 -3653 0
-3645 3656 0
-3654 3656 0
-3645 -3654 3657 0
-3655 3657 0
-3645 -3655 0
-3646 3658 0
-3656 3658 0
-3646 -3656 3659 0
-3657 3659 0
-3646 -3657 0
-3647 -3659 0
-3662 197 198 199 0
-197 3662 0
-198 3662 0
-199 3662 0
-3663 204 205 206 0
-204 3663 0
-205 3663 0
-206 3663 0
-3664 211 212 213 0
-211 3664 0
-212 3664 0
-213 3664 0
-3665 218 219 220 0
-218 3665 0
-219 3665 0
-220 3665 0
-3666 225 226 227 0
-225 3666 0
-226 3666 0
-227 3666 0
-3667 232 233 234 0
-232 3667 0
-233 3667 0
-234 3667 0
-3668 239 240 241 0
-239 3668 0
-240 3668 0
-241 3668 0
-3662 3669 0
-3670 0
-3671 0
-3663 3672 0
-3669 3672 0
-3663 -3669 3673 0
-3670 3673 0
-3663 -3670 3674 0
-3671 3674 0
-3663 -3671 0
-3664 3675 0
-3672 3675 0
-3664 -3672 3676 0
-3673 3676 0
-3664 -3673 3677 0
-3674 3677 0
-3664 -3674 0
-3665 3678 0
-3675 3678 0
-3665 -3675 3679 0
-3676 3679 0
-3665 -3676 3680 0
-3677 3680 0
-3665 -3677 0
-3666 3681 0
-3678 3681 0
-3666 -3678 3682 0
-3679 3682 0
-3666 -3679 3683 0
-3680 3683 0
-3666 -3680 0
-3667 3684 0
-3681 3684 0
-3667 -3681 3685 0
-3682 3685 0
-3667 -3682 3686 0
-3683 3686 0
-3667 -3683 0
-3668 -3686 0
-3690 197 198 199 200 0
-197 3690 0
-198 3690 0
-199 3690 0
-200 3690 0
-3691 204 205 206 207 0
-204 3691 0
-205 3691 0
-206 3691 0
-207 3691 0
-3692 211 212 213 214 0
-211 3692 0
-212 3692 0
-213 3692 0
-214 3692 0
-3693 218 219 220 221 0
-218 3693 0
-219 3693 0
-220 3693 0
-221 3693 0
-3694 225 226 227 228 0
-225 3694 0
-226 3694 0
-227 3694 0
-228 3694 0
-3695 232 233 234 235 0
-232 3695 0
-233 3695 0
-234 3695 0
-235 3695 0
-3696 239 240 241 242 0
-239 3696 0
-240 3696 0
-241 3696 0
-242 3696 0
-3690 3697 0
-3698 0
-3699 0
-3700 0
-3691 3701 0
-3697 3701 0
-3691 -3697 3702 0
-3698 3702 0
-3691 -3698 3703 0
-3699 3703 0
-3691 -3699 3704 0
-3700 3704 0
-3691 -3700 0
-3692 3705 0
-3701 3705 0
-3692 -3701 3706 0
-3702 3706 0
-3692 -3702 3707 0
-3703 3707 0
-3692 -3703 3708 0
-3704 3708 0
-3692 -3704 0
-3693 3709 0
-3705 3709 0
-3693 -3705 3710 0
-3706 3710 0
-3693 -3706 3711 0
-3707 3711 0
-3693 -3707 3712 0
-3708 3712 0
-3693 -3708 0
-3694 3713 0
-3709 3713 0
-3694 -3709 3714 0
-3710 3714 0
-3694 -3710 3715 0
-3711 3715 0
-3694 -3711 3716 0
-3712 3716 0
-3694 -3712 0
-3695 3717 0
-3713 3717 0
-3695 -3713 3718 0
-3714 3718 0
-3695 -3714 3719 0
-3715 3719 0
-3695 -3715 3720 0
-3716 3720 0
-3695 -3716 0
-3696 -3720 0
-3725 197 198 199 200 201 0
-197 3725 0
-198 3725 0
-199 3725 0
-200 3725 0
-201 3725 0
-3726 204 205 206 207 208 0
-204 3726 0
-205 3726 0
-206 3726 0
-207 3726 0
-208 3726 0
-3727 211 212 213 214 215 0
-211 3727 0
-212 3727 0
-213 3727 0
-214 3727 0
-215 3727 0
-3728 218 219 220 221 222 0
-218 3728 0
-219 3728 0
-220 3728 0
-221 3728 0
-222 3728 0
-3729 225 226 227 228 229 0
-225 3729 0
-226 3729 0
-227 3729 0
-228 3729 0
-229 3729 0
-3730 232 233 234 235 236 0
-232 3730 0
-233 3730 0
-234 3730 0
-235 3730 0
-236 3730 0
-3731 239 240 241 242 243 0
-239 3731 0
-240 3731 0
-241 3731 0
-242 3731 0
-243 3731 0
-3725 3732 0
-3733 0
-3734 0
-3735 0
-3736 0
-3726 3737 0
-3732 3737 0
-3726 -3732 3738 0
-3733 3738 0
-3726 -3733 3739 0
-3734 3739 0
-3726 -3734 3740 0
-3735 3740 0
-3726 -3735 3741 0
-3736 3741 0
-3726 -3736 0
-3727 3742 0
-3737 3742 0
-3727 -3737 3743 0
-3738 3743 0
-3727 -3738 3744 0
-3739 3744 0
-3727 -3739 3745 0
-3740 3745 0
-3727 -3740 3746 0
-3741 3746 0
-3727 -3741 0
-3728 3747 0
-3742 3747 0
-3728 -3742 3748 0
-3743 3748 0
-3728 -3743 3749 0
-3744 3749 0
-3728 -3744 3750 0
-3745 3750 0
-3728 -3745 3751 0
-3746 3751 0
-3728 -3746 0
-3729 3752 0
-3747 3752 0
-3729 -3747 3753 0
-3748 3753 0
-3729 -3748 3754 0
-3749 3754 0
-3729 -3749 3755 0
-3750 3755 0
-3729 -3750 3756 0
-3751 3756 0
-3729 -3751 0
-3730 3757 0
-3752 3757 0
-3730 -3752 3758 0
-3753 3758 0
-3730 -3753 3759 0
-3754 3759 0
-3730 -3754 3760 0
-3755 3760 0
-3730 -3755 3761 0
-3756 3761 0
-3730 -3756 0
-3731 -3761 0
-3767 197 198 199 200 201 202 0
-197 3767 0
-198 3767 0
-199 3767 0
-200 3767 0
-201 3767 0
-202 3767 0
-3768 204 205 206 207 208 209 0
-204 3768 0
-205 3768 0
-206 3768 0
-207 3768 0
-208 3768 0
-209 3768 0
-3769 211 212 213 214 215 216 0
-211 3769 0
-212 3769 0
-213 3769 0
-214 3769 0
-215 3769 0
-216 3769 0
-3770 218 219 220 221 222 223 0
-218 3770 0
-219 3770 0
-220 3770 0
-221 3770 0
-222 3770 0
-223 3770 0
-3771 225 226 227 228 229 230 0
-225 3771 0
-226 3771 0
-227 3771 0
-228 3771 0
-229 3771 0
-230 3771 0
-3772 232 233 234 235 236 237 0
-232 3772 0
-233 3772 0
-234 3772 0
-235 3772 0
-236 3772 0
-237 3772 0
-3773 239 240 241 242 243 244 0
-239 3773 0
-240 3773 0
-241 3773 0
-242 3773 0
-243 3773 0
-244 3773 0
-3767 3774 0
-3775 0
-3776 0
-3777 0
-3778 0
-3779 0
-3768 3780 0
-3774 3780 0
-3768 -3774 3781 0
-3775 3781 0
-3768 -3775 3782 0
-3776 3782 0
-3768 -3776 3783 0
-3777 3783 0
-3768 -3777 3784 0
-3778 3784 0
-3768 -3778 3785 0
-3779 3785 0
-3768 -3779 0
-3769 3786 0
-3780 3786 0
-3769 -3780 3787 0
-3781 3787 0
-3769 -3781 3788 0
-3782 3788 0
-3769 -3782 3789 0
-3783 3789 0
-3769 -3783 3790 0
-3784 3790 0
-3769 -3784 3791 0
-3785 3791 0
-3769 -3785 0
-3770 3792 0
-3786 3792 0
-3770 -3786 3793 0
-3787 3793 0
-3770 -3787 3794 0
-3788 3794 0
-3770 -3788 3795 0
-3789 3795 0
-3770 -3789 3796 0
-3790 3796 0
-3770 -3790 3797 0
-3791 3797 0
-3770 -3791 0
-3771 3798 0
-3792 3798 0
-3771 -3792 3799 0
-3793 3799 0
-3771 -3793 3800 0
-3794 3800 0
-3771 -3794 3801 0
-3795 3801 0
-3771 -3795 3802 0
-3796 3802 0
-3771 -3796 3803 0
-3797 3803 0
-3771 -3797 0
-3772 3804 0
-3798 3804 0
-3772 -3798 3805 0
-3799 3805 0
-3772 -3799 3806 0
-3800 3806 0
-3772 -3800 3807 0
-3801 3807 0
-3772 -3801 3808 0
-3802 3808 0
-3772 -3802 3809 0
-3803 3809 0
-3772 -3803 0
-3773 -3809 0
-3816 197 198 199 200 201 202 203 0
-197 3816 0
-198 3816 0
-199 3816 0
-200 3816 0
-201 3816 0
-202 3816 0
-203 3816 0
-3817 204 205 206 207 208 209 210 0
-204 3817 0
-205 3817 0
-206 3817 0
-207 3817 0
-208 3817 0
-209 3817 0
-210 3817 0
-3818 211 212 213 214 215 216 217 0
-211 3818 0
-212 3818 0
-213 3818 0
-214 3818 0
-215 3818 0
-216 3818 0
-217 3818 0
-3819 218 219 220 221 222 223 224 0
-218 3819 0
-219 3819 0
-220 3819 0
-221 3819 0
-222 3819 0
-223 3819 0
-224 3819 0
-3820 225 226 227 228 229 230 231 0
-225 3820 0
-226 3820 0
-227 3820 0
-228 3820 0
-229 3820 0
-230 3820 0
-231 3820 0
-3821 232 233 234 235 236 237 238 0
-232 3821 0
-233 3821 0
-234 3821 0
-235 3821 0
-236 3821 0
-237 3821 0
-238 3821 0
-3822 239 240 241 242 243 244 245 0
-239 3822 0
-240 3822 0
-241 3822 0
-242 3822 0
-243 3822 0
-244 3822 0
-245 3822 0
-3823 198 0
-198 3823 0
-3824 205 0
-205 3824 0
-3825 212 0
-212 3825 0
-3826 219 0
-219 3826 0
-3827 226 0
-226 3827 0
-3828 233 0
-233 3828 0
-3829 240 0
-240 3829 0
-3823 3830 0
-3824 3831 0
-3830 3831 0
-3824 -3830 0
-3825 3832 0
-3831 3832 0
-3825 -3831 0
-3826 3833 0
-3832 3833 0
-3826 -3832 0
-3827 3834 0
-3833 3834 0
-3827 -3833 0
-3828 3835 0
-3834 3835 0
-3828 -3834 0
-3829 -3835 0
-3837 198 199 0
-198 3837 0
-199 3837 0
-3838 205 206 0
-205 3838 0
-206 3838 0
-3839 212 213 0
-212 3839 0
-213 3839 0
-3840 219 220 0
-219 3840 0
-220 3840 0
-3841 226 227 0
-226 3841 0
-227 3841 0
-3842 233 234 0
-233 3842 0
-234 3842 0
-3843 240 241 0
-240 3843 0
-241 3843 0
-3837 3844 0
-3845 0
-3838 3846 0
-3844 3846 0
-3838 -3844 3847 0
-3845 3847 0
-3838 -3845 0
-3839 3848 0
-3846 3848 0
-3839 -3846 3849 0
-3847 3849 0
-3839 -3847 0
-3840 3850 0
-3848 3850 0
-3840 -3848 3851 0
-3849 3851 0
-3840 -3849 0
-3841 3852 0
-3850 3852 0
-3841 -3850 3853 0
-3851 3853 0
-3841 -3851 0
-3842 3854 0
-3852 3854 0
-3842 -3852 3855 0
-3853 3855 0
-3842 -3853 0
-3843 -3855 0
-3858 198 199 200 0
-198 3858 0
-199 3858 0
-200 3858 0
-3859 205 206 207 0
-205 3859 0
-206 3859 0
-207 3859 0
-3860 212 213 214 0
-212 3860 0
-213 3860 0
-214 3860 0
-3861 219 220 221 0
-219 3861 0
-220 3861 0
-221 3861 0
-3862 226 227 228 0
-226 3862 0
-227 3862 0
-228 3862 0
-3863 233 234 235 0
-233 3863 0
-234 3863 0
-235 3863 0
-3864 240 241 242 0
-240 3864 0
-241 3864 0
-242 3864 0
-3858 3865 0
-3866 0
-3867 0
-3859 3868 0
-3865 3868 0
-3859 -3865 3869 0
-3866 3869 0
-3859 -3866 3870 0
-3867 3870 0
-3859 -3867 0
-3860 3871 0
-3868 3871 0
-3860 -3868 3872 0
-3869 3872 0
-3860 -3869 3873 0
-3870 3873 0
-3860 -3870 0
-3861 3874 0
-3871 3874 0
-3861 -3871 3875 0
-3872 3875 0
-3861 -3872 3876 0
-3873 3876 0
-3861 -3873 0
-3862 3877 0
-3874 3877 0
-3862 -3874 3878 0
-3875 3878 0
-3862 -3875 3879 0
-3876 3879 0
-3862 -3876 0
-3863 3880 0
-3877 3880 0
-3863 -3877 3881 0
-3878 3881 0
-3863 -3878 3882 0
-3879 3882 0
-3863 -3879 0
-3864 -3882 0
-3886 198 199 200 201 0
-198 3886 0
-199 3886 0
-200 3886 0
-201 3886 0
-3887 205 206 207 208 0
-205 3887 0
-206 3887 0
-207 3887 0
-208 3887 0
-3888 212 213 214 215 0
-212 3888 0
-213 3888 0
-214 3888 0
-215 3888 0
-3889 219 220 221 222 0
-219 3889 0
-220 3889 0
-221 3889 0
-222 3889 0
-3890 226 227 228 229 0
-226 3890 0
-227 3890 0
-228 3890 0
-229 3890 0
-3891 233 234 235 236 0
-233 3891 0
-234 3891 0
-235 3891 0
-236 3891 0
-3892 240 241 242 243 0
-240 3892 0
-241 3892 0
-242 3892 0
-243 3892 0
-3886 3893 0
-3894 0
-3895 0
-3896 0
-3887 3897 0
-3893 3897 0
-3887 -3893 3898 0
-3894 3898 0
-3887 -3894 3899 0
-3895 3899 0
-3887 -3895 3900 0
-3896 3900 0
-3887 -3896 0
-3888 3901 0
-3897 3901 0
-3888 -3897 3902 0
-3898 3902 0
-3888 -3898 3903 0
-3899 3903 0
-3888 -3899 3904 0
-3900 3904 0
-3888 -3900 0
-3889 3905 0
-3901 3905 0
-3889 -3901 3906 0
-3902 3906 0
-3889 -3902 3907 0
-3903 3907 0
-3889 -3903 3908 0
-3904 3908 0
-3889 -3904 0
-3890 3909 0
-3905 3909 0
-3890 -3905 3910 0
-3906 3910 0
-3890 -3906 3911 0
-3907 3911 0
-3890 -3907 3912 0
-3908 3912 0
-3890 -3908 0
-3891 3913 0
-3909 3913 0
-3891 -3909 3914 0
-3910 3914 0
-3891 -3910 3915 0
-3911 3915 0
-3891 -3911 3916 0
-3912 3916 0
-3891 -3912 0
-3892 -3916 0
-3921 198 199 200 201 202 0
-198 3921 0
-199 3921 0
-200 3921 0
-201 3921 0
-202 3921 0
-3922 205 206 207 208 209 0
-205 3922 0
-206 3922 0
-207 3922 0
-208 3922 0
-209 3922 0
-3923 212 213 214 215 216 0
-212 3923 0
-213 3923 0
-214 3923 0
-215 3923 0
-216 3923 0
-3924 219 220 221 222 223 0
-219 3924 0
-220 3924 0
-221 3924 0
-222 3924 0
-223 3924 0
-3925 226 227 228 229 230 0
-226 3925 0
-227 3925 0
-228 3925 0
-229 3925 0
-230 3925 0
-3926 233 234 235 236 237 0
-233 3926 0
-234 3926 0
-235 3926 0
-236 3926 0
-237 3926 0
-3927 240 241 242 243 244 0
-240 3927 0
-241 3927 0
-242 3927 0
-243 3927 0
-244 3927 0
-3921 3928 0
-3929 0
-3930 0
-3931 0
-3932 0
-3922 3933 0
-3928 3933 0
-3922 -3928 3934 0
-3929 3934 0
-3922 -3929 3935 0
-3930 3935 0
-3922 -3930 3936 0
-3931 3936 0
-3922 -3931 3937 0
-3932 3937 0
-3922 -3932 0
-3923 3938 0
-3933 3938 0
-3923 -3933 3939 0
-3934 3939 0
-3923 -3934 3940 0
-3935 3940 0
-3923 -3935 3941 0
-3936 3941 0
-3923 -3936 3942 0
-3937 3942 0
-3923 -3937 0
-3924 3943 0
-3938 3943 0
-3924 -3938 3944 0
-3939 3944 0
-3924 -3939 3945 0
-3940 3945 0
-3924 -3940 3946 0
-3941 3946 0
-3924 -3941 3947 0
-3942 3947 0
-3924 -3942 0
-3925 3948 0
-3943 3948 0
-3925 -3943 3949 0
-3944 3949 0
-3925 -3944 3950 0
-3945 3950 0
-3925 -3945 3951 0
-3946 3951 0
-3925 -3946 3952 0
-3947 3952 0
-3925 -3947 0
-3926 3953 0
-3948 3953 0
-3926 -3948 3954 0
-3949 3954 0
-3926 -3949 3955 0
-3950 3955 0
-3926 -3950 3956 0
-3951 3956 0
-3926 -3951 3957 0
-3952 3957 0
-3926 -3952 0
-3927 -3957 0
-3963 198 199 200 201 202 203 0
-198 3963 0
-199 3963 0
-200 3963 0
-201 3963 0
-202 3963 0
-203 3963 0
-3964 205 206 207 208 209 210 0
-205 3964 0
-206 3964 0
-207 3964 0
-208 3964 0
-209 3964 0
-210 3964 0
-3965 212 213 214 215 216 217 0
-212 3965 0
-213 3965 0
-214 3965 0
-215 3965 0
-216 3965 0
-217 3965 0
-3966 219 220 221 222 223 224 0
-219 3966 0
-220 3966 0
-221 3966 0
-222 3966 0
-223 3966 0
-224 3966 0
-3967 226 227 228 229 230 231 0
-226 3967 0
-227 3967 0
-228 3967 0
-229 3967 0
-230 3967 0
-231 3967 0
-3968 233 234 235 236 237 238 0
-233 3968 0
-234 3968 0
-235 3968 0
-236 3968 0
-237 3968 0
-238 3968 0
-3969 240 241 242 243 244 245 0
-240 3969 0
-241 3969 0
-242 3969 0
-243 3969 0
-244 3969 0
-245 3969 0
-3963 3970 0
-3971 0
-3972 0
-3973 0
-3974 0
-3975 0
-3964 3976 0
-3970 3976 0
-3964 -3970 3977 0
-3971 3977 0
-3964 -3971 3978 0
-3972 3978 0
-3964 -3972 3979 0
-3973 3979 0
-3964 -3973 3980 0
-3974 3980 0
-3964 -3974 3981 0
-3975 3981 0
-3964 -3975 0
-3965 3982 0
-3976 3982 0
-3965 -3976 3983 0
-3977 3983 0
-3965 -3977 3984 0
-3978 3984 0
-3965 -3978 3985 0
-3979 3985 0
-3965 -3979 3986 0
-3980 3986 0
-3965 -3980 3987 0
-3981 3987 0
-3965 -3981 0
-3966 3988 0
-3982 3988 0
-3966 -3982 3989 0
-3983 3989 0
-3966 -3983 3990 0
-3984 3990 0
-3966 -3984 3991 0
-3985 3991 0
-3966 -3985 3992 0
-3986 3992 0
-3966 -3986 3993 0
-3987 3993 0
-3966 -3987 0
-3967 3994 0
-3988 3994 0
-3967 -3988 3995 0
-3989 3995 0
-3967 -3989 3996 0
-3990 3996 0
-3967 -3990 3997 0
-3991 3997 0
-3967 -3991 3998 0
-3992 3998 0
-3967 -3992 3999 0
-3993 3999 0
-3967 -3993 0
-3968 4000 0
-3994 4000 0
-3968 -3994 4001 0
-3995 4001 0
-3968 -3995 4002 0
-3996 4002 0
-3968 -3996 4003 0
-3997 4003 0
-3968 -3997 4004 0
-3998 4004 0
-3968 -3998 4005 0
-3999 4005 0
-3968 -3999 0
-3969 -4005 0
-4012 199 0
-199 4012 0
-4013 206 0
-206 4013 0
-4014 213 0
-213 4014 0
-4015 220 0
-220 4015 0
-4016 227 0
-227 4016 0
-4017 234 0
-234 4017 0
-4018 241 0
-241 4018 0
-4012 4019 0
-4013 4020 0
-4019 4020 0
-4013 -4019 0
-4014 4021 0
-4020 4021 0
-4014 -4020 0
-4015 4022 0
-4021 4022 0
-4015 -4021 0
-4016 4023 0
-4022 4023 0
-4016 -4022 0
-4017 4024 0
-4023 4024 0
-4017 -4023 0
-4018 -4024 0
-4026 199 200 0
-199 4026 0
-200 4026 0
-4027 206 207 0
-206 4027 0
-207 4027 0
-4028 213 214 0
-213 4028 0
-214 4028 0
-4029 220 221 0
-220 4029 0
-221 4029 0
-4030 227 228 0
-227 4030 0
-228 4030 0
-4031 234 235 0
-234 4031 0
-235 4031 0
-4032 241 242 0
-241 4032 0
-242 4032 0
-4026 4033 0
-4034 0
-4027 4035 0
-4033 4035 0
-4027 -4033 4036 0
-4034 4036 0
-4027 -4034 0
-4028 4037 0
-4035 4037 0
-4028 -4035 4038 0
-4036 4038 0
-4028 -4036 0
-4029 4039 0
-4037 4039 0
-4029 -4037 4040 0
-4038 4040 0
-4029 -4038 0
-4030 4041 0
-4039 4041 0
-4030 -4039 4042 0
-4040 4042 0
-4030 -4040 0
-4031 4043 0
-4041 4043 0
-4031 -4041 4044 0
-4042 4044 0
-4031 -4042 0
-4032 -4044 0
-4047 199 200 201 0
-199 4047 0
-200 4047 0
-201 4047 0
-4048 206 207 208 0
-206 4048 0
-207 4048 0
-208 4048 0
-4049 213 214 215 0
-213 4049 0
-214 4049 0
-215 4049 0
-4050 220 221 222 0
-220 4050 0
-221 4050 0
-222 4050 0
-4051 227 228 229 0
-227 4051 0
-228 4051 0
-229 4051 0
-4052 234 235 236 0
-234 4052 0
-235 4052 0
-236 4052 0
-4053 241 242 243 0
-241 4053 0
-242 4053 0
-243 4053 0
-4047 4054 0
-4055 0
-4056 0
-4048 4057 0
-4054 4057 0
-4048 -4054 4058 0
-4055 4058 0
-4048 -4055 4059 0
-4056 4059 0
-4048 -4056 0
-4049 4060 0
-4057 4060 0
-4049 -4057 4061 0
-4058 4061 0
-4049 -4058 4062 0
-4059 4062 0
-4049 -4059 0
-4050 4063 0
-4060 4063 0
-4050 -4060 4064 0
-4061 4064 0
-4050 -4061 4065 0
-4062 4065 0
-4050 -4062 0
-4051 4066 0
-4063 4066 0
-4051 -4063 4067 0
-4064 4067 0
-4051 -4064 4068 0
-4065 4068 0
-4051 -4065 0
-4052 4069 0
-4066 4069 0
-4052 -4066 4070 0
-4067 4070 0
-4052 -4067 4071 0
-4068 4071 0
-4052 -4068 0
-4053 -4071 0
-4075 199 200 201 202 0
-199 4075 0
-200 4075 0
-201 4075 0
-202 4075 0
-4076 206 207 208 209 0
-206 4076 0
-207 4076 0
-208 4076 0
-209 4076 0
-4077 213 214 215 216 0
-213 4077 0
-214 4077 0
-215 4077 0
-216 4077 0
-4078 220 221 222 223 0
-220 4078 0
-221 4078 0
-222 4078 0
-223 4078 0
-4079 227 228 229 230 0
-227 4079 0
-228 4079 0
-229 4079 0
-230 4079 0
-4080 234 235 236 237 0
-234 4080 0
-235 4080 0
-236 4080 0
-237 4080 0
-4081 241 242 243 244 0
-241 4081 0
-242 4081 0
-243 4081 0
-244 4081 0
-4075 4082 0
-4083 0
-4084 0
-4085 0
-4076 4086 0
-4082 4086 0
-4076 -4082 4087 0
-4083 4087 0
-4076 -4083 4088 0
-4084 4088 0
-4076 -4084 4089 0
-4085 4089 0
-4076 -4085 0
-4077 4090 0
-4086 4090 0
-4077 -4086 4091 0
-4087 4091 0
-4077 -4087 4092 0
-4088 4092 0
-4077 -4088 4093 0
-4089 4093 0
-4077 -4089 0
-4078 4094 0
-4090 4094 0
-4078 -4090 4095 0
-4091 4095 0
-4078 -4091 4096 0
-4092 4096 0
-4078 -4092 4097 0
-4093 4097 0
-4078 -4093 0
-4079 4098 0
-4094 4098 0
-4079 -4094 4099 0
-4095 4099 0
-4079 -4095 4100 0
-4096 4100 0
-4079 -4096 4101 0
-4097 4101 0
-4079 -4097 0
-4080 4102 0
-4098 4102 0
-4080 -4098 4103 0
-4099 4103 0
-4080 -4099 4104 0
-4100 4104 0
-4080 -4100 4105 0
-4101 4105 0
-4080 -4101 0
-4081 -4105 0
-4110 199 200 201 202 203 0
-199 4110 0
-200 4110 0
-201 4110 0
-202 4110 0
-203 4110 0
-4111 206 207 208 209 210 0
-206 4111 0
-207 4111 0
-208 4111 0
-209 4111 0
-210 4111 0
-4112 213 214 215 216 217 0
-213 4112 0
-214 4112 0
-215 4112 0
-216 4112 0
-217 4112 0
-4113 220 221 222 223 224 0
-220 4113 0
-221 4113 0
-222 4113 0
-223 4113 0
-224 4113 0
-4114 227 228 229 230 231 0
-227 4114 0
-228 4114 0
-229 4114 0
-230 4114 0
-231 4114 0
-4115 234 235 236 237 238 0
-234 4115 0
-235 4115 0
-236 4115 0
-237 4115 0
-238 4115 0
-4116 241 242 243 244 245 0
-241 4116 0
-242 4116 0
-243 4116 0
-244 4116 0
-245 4116 0
-4110 4117 0
-4118 0
-4119 0
-4120 0
-4121 0
-4111 4122 0
-4117 4122 0
-4111 -4117 4123 0
-4118 4123 0
-4111 -4118 4124 0
-4119 4124 0
-4111 -4119 4125 0
-4120 4125 0
-4111 -4120 4126 0
-4121 4126 0
-4111 -4121 0
-4112 4127 0
-4122 4127 0
-4112 -4122 4128 0
-4123 4128 0
-4112 -4123 4129 0
-4124 4129 0
-4112 -4124 4130 0
-4125 4130 0
-4112 -4125 4131 0
-4126 4131 0
-4112 -4126 0
-4113 4132 0
-4127 4132 0
-4113 -4127 4133 0
-4128 4133 0
-4113 -4128 4134 0
-4129 4134 0
-4113 -4129 4135 0
-4130 4135 0
-4113 -4130 4136 0
-4131 4136 0
-4113 -4131 0
-4114 4137 0
-4132 4137 0
-4114 -4132 4138 0
-4133 4138 0
-4114 -4133 4139 0
-4134 4139 0
-4114 -4134 4140 0
-4135 4140 0
-4114 -4135 4141 0
-4136 4141 0
-4114 -4136 0
-4115 4142 0
-4137 4142 0
-4115 -4137 4143 0
-4138 4143 0
-4115 -4138 4144 0
-4139 4144 0
-4115 -4139 4145 0
-4140 4145 0
-4115 -4140 4146 0
-4141 4146 0
-4115 -4141 0
-4116 -4146 0
-4152 200 0
-200 4152 0
-4153 207 0
-207 4153 0
-4154 214 0
-214 4154 0
-4155 221 0
-221 4155 0
-4156 228 0
-228 4156 0
-4157 235 0
-235 4157 0
-4158 242 0
-242 4158 0
-4152 4159 0
-4153 4160 0
-4159 4160 0
-4153 -4159 0
-4154 4161 0
-4160 4161 0
-4154 -4160 0
-4155 4162 0
-4161 4162 0
-4155 -4161 0
-4156 4163 0
-4162 4163 0
-4156 -4162 0
-4157 4164 0
-4163 4164 0
-4157 -4163 0
-4158 -4164 0
-4166 200 201 0
-200 4166 0
-201 4166 0
-4167 207 208 0
-207 4167 0
-208 4167 0
-4168 214 215 0
-214 4168 0
-215 4168 0
-4169 221 222 0
-221 4169 0
-222 4169 0
-4170 228 229 0
-228 4170 0
-229 4170 0
-4171 235 236 0
-235 4171 0
-236 4171 0
-4172 242 243 0
-242 4172 0
-243 4172 0
-4166 4173 0
-4174 0
-4167 4175 0
-4173 4175 0
-4167 -4173 4176 0
-4174 4176 0
-4167 -4174 0
-4168 4177 0
-4175 4177 0
-4168 -4175 4178 0
-4176 4178 0
-4168 -4176 0
-4169 4179 0
-4177 4179 0
-4169 -4177 4180 0
-4178 4180 0
-4169 -4178 0
-4170 4181 0
-4179 4181 0
-4170 -4179 4182 0
-4180 4182 0
-4170 -4180 0
-4171 4183 0
-4181 4183 0
-4171 -4181 4184 0
-4182 4184 0
-4171 -4182 0
-4172 -4184 0
-4187 200 201 202 0
-200 4187 0
-201 4187 0
-202 4187 0
-4188 207 208 209 0
-207 4188 0
-208 4188 0
-209 4188 0
-4189 214 215 216 0
-214 4189 0
-215 4189 0
-216 4189 0
-4190 221 222 223 0
-221 4190 0
-222 4190 0
-223 4190 0
-4191 228 229 230 0
-228 4191 0
-229 4191 0
-230 4191 0
-4192 235 236 237 0
-235 4192 0
-236 4192 0
-237 4192 0
-4193 242 243 244 0
-242 4193 0
-243 4193 0
-244 4193 0
-4187 4194 0
-4195 0
-4196 0
-4188 4197 0
-4194 4197 0
-4188 -4194 4198 0
-4195 4198 0
-4188 -4195 4199 0
-4196 4199 0
-4188 -4196 0
-4189 4200 0
-4197 4200 0
-4189 -4197 4201 0
-4198 4201 0
-4189 -4198 4202 0
-4199 4202 0
-4189 -4199 0
-4190 4203 0
-4200 4203 0
-4190 -4200 4204 0
-4201 4204 0
-4190 -4201 4205 0
-4202 4205 0
-4190 -4202 0
-4191 4206 0
-4203 4206 0
-4191 -4203 4207 0
-4204 4207 0
-4191 -4204 4208 0
-4205 4208 0
-4191 -4205 0
-4192 4209 0
-4206 4209 0
-4192 -4206 4210 0
-4207 4210 0
-4192 -4207 4211 0
-4208 4211 0
-4192 -4208 0
-4193 -4211 0
-4215 200 201 202 203 0
-200 4215 0
-201 4215 0
-202 4215 0
-203 4215 0
-4216 207 208 209 210 0
-207 4216 0
-208 4216 0
-209 4216 0
-210 4216 0
-4217 214 215 216 217 0
-214 4217 0
-215 4217 0
-216 4217 0
-217 4217 0
-4218 221 222 223 224 0
-221 4218 0
-222 4218 0
-223 4218 0
-224 4218 0
-4219 228 229 230 231 0
-228 4219 0
-229 4219 0
-230 4219 0
-231 4219 0
-4220 235 236 237 238 0
-235 4220 0
-236 4220 0
-237 4220 0
-238 4220 0
-4221 242 243 244 245 0
-242 4221 0
-243 4221 0
-244 4221 0
-245 4221 0
-4215 4222 0
-4223 0
-4224 0
-4225 0
-4216 4226 0
-4222 4226 0
-4216 -4222 4227 0
-4223 4227 0
-4216 -4223 4228 0
-4224 4228 0
-4216 -4224 4229 0
-4225 4229 0
-4216 -4225 0
-4217 4230 0
-4226 4230 0
-4217 -4226 4231 0
-4227 4231 0
-4217 -4227 4232 0
-4228 4232 0
-4217 -4228 4233 0
-4229 4233 0
-4217 -4229 0
-4218 4234 0
-4230 4234 0
-4218 -4230 4235 0
-4231 4235 0
-4218 -4231 4236 0
-4232 4236 0
-4218 -4232 4237 0
-4233 4237 0
-4218 -4233 0
-4219 4238 0
-4234 4238 0
-4219 -4234 4239 0
-4235 4239 0
-4219 -4235 4240 0
-4236 4240 0
-4219 -4236 4241 0
-4237 4241 0
-4219 -4237 0
-4220 4242 0
-4238 4242 0
-4220 -4238 4243 0
-4239 4243 0
-4220 -4239 4244 0
-4240 4244 0
-4220 -4240 4245 0
-4241 4245 0
-4220 -4241 0
-4221 -4245 0
-4250 201 0
-201 4250 0
-4251 208 0
-208 4251 0
-4252 215 0
-215 4252 0
-4253 222 0
-222 4253 0
-4254 229 0
-229 4254 0
-4255 236 0
-236 4255 0
-4256 243 0
-243 4256 0
-4250 4257 0
-4251 4258 0
-4257 4258 0
-4251 -4257 0
-4252 4259 0
-4258 4259 0
-4252 -4258 0
-4253 4260 0
-4259 4260 0
-4253 -4259 0
-4254 4261 0
-4260 4261 0
-4254 -4260 0
-4255 4262 0
-4261 4262 0
-4255 -4261 0
-4256 -4262 0
-4264 201 202 0
-201 4264 0
-202 4264 0
-4265 208 209 0
-208 4265 0
-209 4265 0
-4266 215 216 0
-215 4266 0
-216 4266 0
-4267 222 223 0
-222 4267 0
-223 4267 0
-4268 229 230 0
-229 4268 0
-230 4268 0
-4269 236 237 0
-236 4269 0
-237 4269 0
-4270 243 244 0
-243 4270 0
-244 4270 0
-4264 4271 0
-4272 0
-4265 4273 0
-4271 4273 0
-4265 -4271 4274 0
-4272 4274 0
-4265 -4272 0
-4266 4275 0
-4273 4275 0
-4266 -4273 4276 0
-4274 4276 0
-4266 -4274 0
-4267 4277 0
-4275 4277 0
-4267 -4275 4278 0
-4276 4278 0
-4267 -4276 0
-4268 4279 0
-4277 4279 0
-4268 -4277 4280 0
-4278 4280 0
-4268 -4278 0
-4269 4281 0
-4279 4281 0
-4269 -4279 4282 0
-4280 4282 0
-4269 -4280 0
-4270 -4282 0
-4285 201 202 203 0
-201 4285 0
-202 4285 0
-203 4285 0
-4286 208 209 210 0
-208 4286 0
-209 4286 0
-210 4286 0
-4287 215 216 217 0
-215 4287 0
-216 4287 0
-217 4287 0
-4288 222 223 224 0
-222 4288 0
-223 4288 0
-224 4288 0
-4289 229 230 231 0
-229 4289 0
-230 4289 0
-231 4289 0
-4290 236 237 238 0
-236 4290 0
-237 4290 0
-238 4290 0
-4291 243 244 245 0
-243 4291 0
-244 4291 0
-245 4291 0
-4285 4292 0
-4293 0
-4294 0
-4286 4295 0
-4292 4295 0
-4286 -4292 4296 0
-4293 4296 0
-4286 -4293 4297 0
-4294 4297 0
-4286 -4294 0
-4287 4298 0
-4295 4298 0
-4287 -4295 4299 0
-4296 4299 0
-4287 -4296 4300 0
-4297 4300 0
-4287 -4297 0
-4288 4301 0
-4298 4301 0
-4288 -4298 4302 0
-4299 4302 0
-4288 -4299 4303 0
-4300 4303 0
-4288 -4300 0
-4289 4304 0
-4301 4304 0
-4289 -4301 4305 0
-4302 4305 0
-4289 -4302 4306 0
-4303 4306 0
-4289 -4303 0
-4290 4307 0
-4304 4307 0
-4290 -4304 4308 0
-4305 4308 0
-4290 -4305 4309 0
-4306 4309 0
-4290 -4306 0
-4291 -4309 0
-4313 202 0
-202 4313 0
-4314 209 0
-209 4314 0
-4315 216 0
-216 4315 0
-4316 223 0
-223 4316 0
-4317 230 0
-230 4317 0
-4318 237 0
-237 4318 0
-4319 244 0
-244 4319 0
-4313 4320 0
-4314 4321 0
-4320 4321 0
-4314 -4320 0
-4315 4322 0
-4321 4322 0
-4315 -4321 0
-4316 4323 0
-4322 4323 0
-4316 -4322 0
-4317 4324 0
-4323 4324 0
-4317 -4323 0
-4318 4325 0
-4324 4325 0
-4318 -4324 0
-4319 -4325 0
-4327 202 203 0
-202 4327 0
-203 4327 0
-4328 209 210 0
-209 4328 0
-210 4328 0
-4329 216 217 0
-216 4329 0
-217 4329 0
-4330 223 224 0
-223 4330 0
-224 4330 0
-4331 230 231 0
-230 4331 0
-231 4331 0
-4332 237 238 0
-237 4332 0
-238 4332 0
-4333 244 245 0
-244 4333 0
-245 4333 0
-4327 4334 0
-4335 0
-4328 4336 0
-4334 4336 0
-4328 -4334 4337 0
-4335 4337 0
-4328 -4335 0
-4329 4338 0
-4336 4338 0
-4329 -4336 4339 0
-4337 4339 0
-4329 -4337 0
-4330 4340 0
-4338 4340 0
-4330 -4338 4341 0
-4339 4341 0
-4330 -4339 0
-4331 4342 0
-4340 4342 0
-4331 -4340 4343 0
-4341 4343 0
-4331 -4341 0
-4332 4344 0
-4342 4344 0
-4332 -4342 4345 0
-4343 4345 0
-4332 -4343 0
-4333 -4345 0
-4348 203 0
-203 4348 0
-4349 210 0
-210 4349 0
-4350 217 0
-217 4350 0
-4351 224 0
-224 4351 0
-4352 231 0
-231 4352 0
-4353 238 0
-238 4353 0
-4354 245 0
-245 4354 0
-4348 4355 0
-4349 4356 0
-4355 4356 0
-4349 -4355 0
-4350 4357 0
-4356 4357 0
-4350 -4356 0
-4351 4358 0
-4357 4358 0
-4351 -4357 0
-4352 4359 0
-4358 4359 0
-4352 -4358 0
-4353 4360 0
-4359 4360 0
-4353 -4359 0
-4354 -4360 0
-4362 246 0
-246 4362 0
-4363 253 0
-253 4363 0
-4364 260 0
-260 4364 0
-4365 267 0
-267 4365 0
-4366 274 0
-274 4366 0
-4367 281 0
-281 4367 0
-4368 288 0
-288 4368 0
-4362 4369 0
-4363 4370 0
-4369 4370 0
-4363 -4369 0
-4364 4371 0
-4370 4371 0
-4364 -4370 0
-4365 4372 0
-4371 4372 0
-4365 -4371 0
-4366 4373 0
-4372 4373 0
-4366 -4372 0
-4367 4374 0
-4373 4374 0
-4367 -4373 0
-4368 -4374 0
-4376 246 247 0
-246 4376 0
-247 4376 0
-4377 253 254 0
-253 4377 0
-254 4377 0
-4378 260 261 0
-260 4378 0
-261 4378 0
-4379 267 268 0
-267 4379 0
-268 4379 0
-4380 274 275 0
-274 4380 0
-275 4380 0
-4381 281 282 0
-281 4381 0
-282 4381 0
-4382 288 289 0
-288 4382 0
-289 4382 0
-4376 4383 0
-4384 0
-4377 4385 0
-4383 4385 0
-4377 -4383 4386 0
-4384 4386 0
-4377 -4384 0
-4378 4387 0
-4385 4387 0
-4378 -4385 4388 0
-4386 4388 0
-4378 -4386 0
-4379 4389 0
-4387 4389 0
-4379 -4387 4390 0
-4388 4390 0
-4379 -4388 0
-4380 4391 0
-4389 4391 0
-4380 -4389 4392 0
-4390 4392 0
-4380 -4390 0
-4381 4393 0
-4391 4393 0
-4381 -4391 4394 0
-4392 4394 0
-4381 -4392 0
-4382 -4394 0
-4397 246 247 248 0
-246 4397 0
-247 4397 0
-248 4397 0
-4398 253 254 255 0
-253 4398 0
-254 4398 0
-255 4398 0
-4399 260 261 262 0
-260 4399 0
-261 4399 0
-262 4399 0
-4400 267 268 269 0
-267 4400 0
-268 4400 0
-269 4400 0
-4401 274 275 276 0
-274 4401 0
-275 4401 0
-276 4401 0
-4402 281 282 283 0
-281 4402 0
-282 4402 0
-283 4402 0
-4403 288 289 290 0
-288 4403 0
-289 4403 0
-290 4403 0
-4397 4404 0
-4405 0
-4406 0
-4398 4407 0
-4404 4407 0
-4398 -4404 4408 0
-4405 4408 0
-4398 -4405 4409 0
-4406 4409 0
-4398 -4406 0
-4399 4410 0
-4407 4410 0
-4399 -4407 4411 0
-4408 4411 0
-4399 -4408 4412 0
-4409 4412 0
-4399 -4409 0
-4400 4413 0
-4410 4413 0
-4400 -4410 4414 0
-4411 4414 0
-4400 -4411 4415 0
-4412 4415 0
-4400 -4412 0
-4401 4416 0
-4413 4416 0
-4401 -4413 4417 0
-4414 4417 0
-4401 -4414 4418 0
-4415 4418 0
-4401 -4415 0
-4402 4419 0
-4416 4419 0
-4402 -4416 4420 0
-4417 4420 0
-4402 -4417 4421 0
-4418 4421 0
-4402 -4418 0
-4403 -4421 0
-4425 246 247 248 249 0
-246 4425 0
-247 4425 0
-248 4425 0
-249 4425 0
-4426 253 254 255 256 0
-253 4426 0
-254 4426 0
-255 4426 0
-256 4426 0
-4427 260 261 262 263 0
-260 4427 0
-261 4427 0
-262 4427 0
-263 4427 0
-4428 267 268 269 270 0
-267 4428 0
-268 4428 0
-269 4428 0
-270 4428 0
-4429 274 275 276 277 0
-274 4429 0
-275 4429 0
-276 4429 0
-277 4429 0
-4430 281 282 283 284 0
-281 4430 0
-282 4430 0
-283 4430 0
-284 4430 0
-4431 288 289 290 291 0
-288 4431 0
-289 4431 0
-290 4431 0
-291 4431 0
-4425 4432 0
-4433 0
-4434 0
-4435 0
-4426 4436 0
-4432 4436 0
-4426 -4432 4437 0
-4433 4437 0
-4426 -4433 4438 0
-4434 4438 0
-4426 -4434 4439 0
-4435 4439 0
-4426 -4435 0
-4427 4440 0
-4436 4440 0
-4427 -4436 4441 0
-4437 4441 0
-4427 -4437 4442 0
-4438 4442 0
-4427 -4438 4443 0
-4439 4443 0
-4427 -4439 0
-4428 4444 0
-4440 4444 0
-4428 -4440 4445 0
-4441 4445 0
-4428 -4441 4446 0
-4442 4446 0
-4428 -4442 4447 0
-4443 4447 0
-4428 -4443 0
-4429 4448 0
-4444 4448 0
-4429 -4444 4449 0
-4445 4449 0
-4429 -4445 4450 0
-4446 4450 0
-4429 -4446 4451 0
-4447 4451 0
-4429 -4447 0
-4430 4452 0
-4448 4452 0
-4430 -4448 4453 0
-4449 4453 0
-4430 -4449 4454 0
-4450 4454 0
-4430 -4450 4455 0
-4451 4455 0
-4430 -4451 0
-4431 -4455 0
-4460 246 247 248 249 250 0
-246 4460 0
-247 4460 0
-248 4460 0
-249 4460 0
-250 4460 0
-4461 253 254 255 256 257 0
-253 4461 0
-254 4461 0
-255 4461 0
-256 4461 0
-257 4461 0
-4462 260 261 262 263 264 0
-260 4462 0
-261 4462 0
-262 4462 0
-263 4462 0
-264 4462 0
-4463 267 268 269 270 271 0
-267 4463 0
-268 4463 0
-269 4463 0
-270 4463 0
-271 4463 0
-4464 274 275 276 277 278 0
-274 4464 0
-275 4464 0
-276 4464 0
-277 4464 0
-278 4464 0
-4465 281 282 283 284 285 0
-281 4465 0
-282 4465 0
-283 4465 0
-284 4465 0
-285 4465 0
-4466 288 289 290 291 292 0
-288 4466 0
-289 4466 0
-290 4466 0
-291 4466 0
-292 4466 0
-4460 4467 0
-4468 0
-4469 0
-4470 0
-4471 0
-4461 4472 0
-4467 4472 0
-4461 -4467 4473 0
-4468 4473 0
-4461 -4468 4474 0
-4469 4474 0
-4461 -4469 4475 0
-4470 4475 0
-4461 -4470 4476 0
-4471 4476 0
-4461 -4471 0
-4462 4477 0
-4472 4477 0
-4462 -4472 4478 0
-4473 4478 0
-4462 -4473 4479 0
-4474 4479 0
-4462 -4474 4480 0
-4475 4480 0
-4462 -4475 4481 0
-4476 4481 0
-4462 -4476 0
-4463 4482 0
-4477 4482 0
-4463 -4477 4483 0
-4478 4483 0
-4463 -4478 4484 0
-4479 4484 0
-4463 -4479 4485 0
-4480 4485 0
-4463 -4480 4486 0
-4481 4486 0
-4463 -4481 0
-4464 4487 0
-4482 4487 0
-4464 -4482 4488 0
-4483 4488 0
-4464 -4483 4489 0
-4484 4489 0
-4464 -4484 4490 0
-4485 4490 0
-4464 -4485 4491 0
-4486 4491 0
-4464 -4486 0
-4465 4492 0
-4487 4492 0
-4465 -4487 4493 0
-4488 4493 0
-4465 -4488 4494 0
-4489 4494 0
-4465 -4489 4495 0
-4490 4495 0
-4465 -4490 4496 0
-4491 4496 0
-4465 -4491 0
-4466 -4496 0
-4502 246 247 248 249 250 251 0
-246 4502 0
-247 4502 0
-248 4502 0
-249 4502 0
-250 4502 0
-251 4502 0
-4503 253 254 255 256 257 258 0
-253 4503 0
-254 4503 0
-255 4503 0
-256 4503 0
-257 4503 0
-258 4503 0
-4504 260 261 262 263 264 265 0
-260 4504 0
-261 4504 0
-262 4504 0
-263 4504 0
-264 4504 0
-265 4504 0
-4505 267 268 269 270 271 272 0
-267 4505 0
-268 4505 0
-269 4505 0
-270 4505 0
-271 4505 0
-272 4505 0
-4506 274 275 276 277 278 279 0
-274 4506 0
-275 4506 0
-276 4506 0
-277 4506 0
-278 4506 0
-279 4506 0
-4507 281 282 283 284 285 286 0
-281 4507 0
-282 4507 0
-283 4507 0
-284 4507 0
-285 4507 0
-286 4507 0
-4508 288 289 290 291 292 293 0
-288 4508 0
-289 4508 0
-290 4508 0
-291 4508 0
-292 4508 0
-293 4508 0
-4502 4509 0
-4510 0
-4511 0
-4512 0
-4513 0
-4514 0
-4503 4515 0
-4509 4515 0
-4503 -4509 4516 0
-4510 4516 0
-4503 -4510 4517 0
-4511 4517 0
-4503 -4511 4518 0
-4512 4518 0
-4503 -4512 4519 0
-4513 4519 0
-4503 -4513 4520 0
-4514 4520 0
-4503 -4514 0
-4504 4521 0
-4515 4521 0
-4504 -4515 4522 0
-4516 4522 0
-4504 -4516 4523 0
-4517 4523 0
-4504 -4517 4524 0
-4518 4524 0
-4504 -4518 4525 0
-4519 4525 0
-4504 -4519 4526 0
-4520 4526 0
-4504 -4520 0
-4505 4527 0
-4521 4527 0
-4505 -4521 4528 0
-4522 4528 0
-4505 -4522 4529 0
-4523 4529 0
-4505 -4523 4530 0
-4524 4530 0
-4505 -4524 4531 0
-4525 4531 0
-4505 -4525 4532 0
-4526 4532 0
-4505 -4526 0
-4506 4533 0
-4527 4533 0
-4506 -4527 4534 0
-4528 4534 0
-4506 -4528 4535 0
-4529 4535 0
-4506 -4529 4536 0
-4530 4536 0
-4506 -4530 4537 0
-4531 4537 0
-4506 -4531 4538 0
-4532 4538 0
-4506 -4532 0
-4507 4539 0
-4533 4539 0
-4507 -4533 4540 0
-4534 4540 0
-4507 -4534 4541 0
-4535 4541 0
-4507 -4535 4542 0
-4536 4542 0
-4507 -4536 4543 0
-4537 4543 0
-4507 -4537 4544 0
-4538 4544 0
-4507 -4538 0
-4508 -4544 0
-4551 246 247 248 249 250 251 252 0
-246 4551 0
-247 4551 0
-248 4551 0
-249 4551 0
-250 4551 0
-251 4551 0
-252 4551 0
-4552 253 254 255 256 257 258 259 0
-253 4552 0
-254 4552 0
-255 4552 0
-256 4552 0
-257 4552 0
-258 4552 0
-259 4552 0
-4553 260 261 262 263 264 265 266 0
-260 4553 0
-261 4553 0
-262 4553 0
-263 4553 0
-264 4553 0
-265 4553 0
-266 4553 0
-4554 267 268 269 270 271 272 273 0
-267 4554 0
-268 4554 0
-269 4554 0
-270 4554 0
-271 4554 0
-272 4554 0
-273 4554 0
-4555 274 275 276 277 278 279 280 0
-274 4555 0
-275 4555 0
-276 4555 0
-277 4555 0
-278 4555 0
-279 4555 0
-280 4555 0
-4556 281 282 283 284 285 286 287 0
-281 4556 0
-282 4556 0
-283 4556 0
-284 4556 0
-285 4556 0
-286 4556 0
-287 4556 0
-4557 288 289 290 291 292 293 294 0
-288 4557 0
-289 4557 0
-290 4557 0
-291 4557 0
-292 4557 0
-293 4557 0
-294 4557 0
-4558 247 0
-247 4558 0
-4559 254 0
-254 4559 0
-4560 261 0
-261 4560 0
-4561 268 0
-268 4561 0
-4562 275 0
-275 4562 0
-4563 282 0
-282 4563 0
-4564 289 0
-289 4564 0
-4558 4565 0
-4559 4566 0
-4565 4566 0
-4559 -4565 0
-4560 4567 0
-4566 4567 0
-4560 -4566 0
-4561 4568 0
-4567 4568 0
-4561 -4567 0
-4562 4569 0
-4568 4569 0
-4562 -4568 0
-4563 4570 0
-4569 4570 0
-4563 -4569 0
-4564 -4570 0
-4572 247 248 0
-247 4572 0
-248 4572 0
-4573 254 255 0
-254 4573 0
-255 4573 0
-4574 261 262 0
-261 4574 0
-262 4574 0
-4575 268 269 0
-268 4575 0
-269 4575 0
-4576 275 276 0
-275 4576 0
-276 4576 0
-4577 282 283 0
-282 4577 0
-283 4577 0
-4578 289 290 0
-289 4578 0
-290 4578 0
-4572 4579 0
-4580 0
-4573 4581 0
-4579 4581 0
-4573 -4579 4582 0
-4580 4582 0
-4573 -4580 0
-4574 4583 0
-4581 4583 0
-4574 -4581 4584 0
-4582 4584 0
-4574 -4582 0
-4575 4585 0
-4583 4585 0
-4575 -4583 4586 0
-4584 4586 0
-4575 -4584 0
-4576 4587 0
-4585 4587 0
-4576 -4585 4588 0
-4586 4588 0
-4576 -4586 0
-4577 4589 0
-4587 4589 0
-4577 -4587 4590 0
-4588 4590 0
-4577 -4588 0
-4578 -4590 0
-4593 247 248 249 0
-247 4593 0
-248 4593 0
-249 4593 0
-4594 254 255 256 0
-254 4594 0
-255 4594 0
-256 4594 0
-4595 261 262 263 0
-261 4595 0
-262 4595 0
-263 4595 0
-4596 268 269 270 0
-268 4596 0
-269 4596 0
-270 4596 0
-4597 275 276 277 0
-275 4597 0
-276 4597 0
-277 4597 0
-4598 282 283 284 0
-282 4598 0
-283 4598 0
-284 4598 0
-4599 289 290 291 0
-289 4599 0
-290 4599 0
-291 4599 0
-4593 4600 0
-4601 0
-4602 0
-4594 4603 0
-4600 4603 0
-4594 -4600 4604 0
-4601 4604 0
-4594 -4601 4605 0
-4602 4605 0
-4594 -4602 0
-4595 4606 0
-4603 4606 0
-4595 -4603 4607 0
-4604 4607 0
-4595 -4604 4608 0
-4605 4608 0
-4595 -4605 0
-4596 4609 0
-4606 4609 0
-4596 -4606 4610 0
-4607 4610 0
-4596 -4607 4611 0
-4608 4611 0
-4596 -4608 0
-4597 4612 0
-4609 4612 0
-4597 -4609 4613 0
-4610 4613 0
-4597 -4610 4614 0
-4611 4614 0
-4597 -4611 0
-4598 4615 0
-4612 4615 0
-4598 -4612 4616 0
-4613 4616 0
-4598 -4613 4617 0
-4614 4617 0
-4598 -4614 0
-4599 -4617 0
-4621 247 248 249 250 0
-247 4621 0
-248 4621 0
-249 4621 0
-250 4621 0
-4622 254 255 256 257 0
-254 4622 0
-255 4622 0
-256 4622 0
-257 4622 0
-4623 261 262 263 264 0
-261 4623 0
-262 4623 0
-263 4623 0
-264 4623 0
-4624 268 269 270 271 0
-268 4624 0
-269 4624 0
-270 4624 0
-271 4624 0
-4625 275 276 277 278 0
-275 4625 0
-276 4625 0
-277 4625 0
-278 4625 0
-4626 282 283 284 285 0
-282 4626 0
-283 4626 0
-284 4626 0
-285 4626 0
-4627 289 290 291 292 0
-289 4627 0
-290 4627 0
-291 4627 0
-292 4627 0
-4621 4628 0
-4629 0
-4630 0
-4631 0
-4622 4632 0
-4628 4632 0
-4622 -4628 4633 0
-4629 4633 0
-4622 -4629 4634 0
-4630 4634 0
-4622 -4630 4635 0
-4631 4635 0
-4622 -4631 0
-4623 4636 0
-4632 4636 0
-4623 -4632 4637 0
-4633 4637 0
-4623 -4633 4638 0
-4634 4638 0
-4623 -4634 4639 0
-4635 4639 0
-4623 -4635 0
-4624 4640 0
-4636 4640 0
-4624 -4636 4641 0
-4637 4641 0
-4624 -4637 4642 0
-4638 4642 0
-4624 -4638 4643 0
-4639 4643 0
-4624 -4639 0
-4625 4644 0
-4640 4644 0
-4625 -4640 4645 0
-4641 4645 0
-4625 -4641 4646 0
-4642 4646 0
-4625 -4642 4647 0
-4643 4647 0
-4625 -4643 0
-4626 4648 0
-4644 4648 0
-4626 -4644 4649 0
-4645 4649 0
-4626 -4645 4650 0
-4646 4650 0
-4626 -4646 4651 0
-4647 4651 0
-4626 -4647 0
-4627 -4651 0
-4656 247 248 249 250 251 0
-247 4656 0
-248 4656 0
-249 4656 0
-250 4656 0
-251 4656 0
-4657 254 255 256 257 258 0
-254 4657 0
-255 4657 0
-256 4657 0
-257 4657 0
-258 4657 0
-4658 261 262 263 264 265 0
-261 4658 0
-262 4658 0
-263 4658 0
-264 4658 0
-265 4658 0
-4659 268 269 270 271 272 0
-268 4659 0
-269 4659 0
-270 4659 0
-271 4659 0
-272 4659 0
-4660 275 276 277 278 279 0
-275 4660 0
-276 4660 0
-277 4660 0
-278 4660 0
-279 4660 0
-4661 282 283 284 285 286 0
-282 4661 0
-283 4661 0
-284 4661 0
-285 4661 0
-286 4661 0
-4662 289 290 291 292 293 0
-289 4662 0
-290 4662 0
-291 4662 0
-292 4662 0
-293 4662 0
-4656 4663 0
-4664 0
-4665 0
-4666 0
-4667 0
-4657 4668 0
-4663 4668 0
-4657 -4663 4669 0
-4664 4669 0
-4657 -4664 4670 0
-4665 4670 0
-4657 -4665 4671 0
-4666 4671 0
-4657 -4666 4672 0
-4667 4672 0
-4657 -4667 0
-4658 4673 0
-4668 4673 0
-4658 -4668 4674 0
-4669 4674 0
-4658 -4669 4675 0
-4670 4675 0
-4658 -4670 4676 0
-4671 4676 0
-4658 -4671 4677 0
-4672 4677 0
-4658 -4672 0
-4659 4678 0
-4673 4678 0
-4659 -4673 4679 0
-4674 4679 0
-4659 -4674 4680 0
-4675 4680 0
-4659 -4675 4681 0
-4676 4681 0
-4659 -4676 4682 0
-4677 4682 0
-4659 -4677 0
-4660 4683 0
-4678 4683 0
-4660 -4678 4684 0
-4679 4684 0
-4660 -4679 4685 0
-4680 4685 0
-4660 -4680 4686 0
-4681 4686 0
-4660 -4681 4687 0
-4682 4687 0
-4660 -4682 0
-4661 4688 0
-4683 4688 0
-4661 -4683 4689 0
-4684 4689 0
-4661 -4684 4690 0
-4685 4690 0
-4661 -4685 4691 0
-4686 4691 0
-4661 -4686 4692 0
-4687 4692 0
-4661 -4687 0
-4662 -4692 0
-4698 247 248 249 250 251 252 0
-247 4698 0
-248 4698 0
-249 4698 0
-250 4698 0
-251 4698 0
-252 4698 0
-4699 254 255 256 257 258 259 0
-254 4699 0
-255 4699 0
-256 4699 0
-257 4699 0
-258 4699 0
-259 4699 0
-4700 261 262 263 264 265 266 0
-261 4700 0
-262 4700 0
-263 4700 0
-264 4700 0
-265 4700 0
-266 4700 0
-4701 268 269 270 271 272 273 0
-268 4701 0
-269 4701 0
-270 4701 0
-271 4701 0
-272 4701 0
-273 4701 0
-4702 275 276 277 278 279 280 0
-275 4702 0
-276 4702 0
-277 4702 0
-278 4702 0
-279 4702 0
-280 4702 0
-4703 282 283 284 285 286 287 0
-282 4703 0
-283 4703 0
-284 4703 0
-285 4703 0
-286 4703 0
-287 4703 0
-4704 289 290 291 292 293 294 0
-289 4704 0
-290 4704 0
-291 4704 0
-292 4704 0
-293 4704 0
-294 4704 0
-4698 4705 0
-4706 0
-4707 0
-4708 0
-4709 0
-4710 0
-4699 4711 0
-4705 4711 0
-4699 -4705 4712 0
-4706 4712 0
-4699 -4706 4713 0
-4707 4713 0
-4699 -4707 4714 0
-4708 4714 0
-4699 -4708 4715 0
-4709 4715 0
-4699 -4709 4716 0
-4710 4716 0
-4699 -4710 0
-4700 4717 0
-4711 4717 0
-4700 -4711 4718 0
-4712 4718 0
-4700 -4712 4719 0
-4713 4719 0
-4700 -4713 4720 0
-4714 4720 0
-4700 -4714 4721 0
-4715 4721 0
-4700 -4715 4722 0
-4716 4722 0
-4700 -4716 0
-4701 4723 0
-4717 4723 0
-4701 -4717 4724 0
-4718 4724 0
-4701 -4718 4725 0
-4719 4725 0
-4701 -4719 4726 0
-4720 4726 0
-4701 -4720 4727 0
-4721 4727 0
-4701 -4721 4728 0
-4722 4728 0
-4701 -4722 0
-4702 4729 0
-4723 4729 0
-4702 -4723 4730 0
-4724 4730 0
-4702 -4724 4731 0
-4725 4731 0
-4702 -4725 4732 0
-4726 4732 0
-4702 -4726 4733 0
-4727 4733 0
-4702 -4727 4734 0
-4728 4734 0
-4702 -4728 0
-4703 4735 0
-4729 4735 0
-4703 -4729 4736 0
-4730 4736 0
-4703 -4730 4737 0
-4731 4737 0
-4703 -4731 4738 0
-4732 4738 0
-4703 -4732 4739 0
-4733 4739 0
-4703 -4733 4740 0
-4734 4740 0
-4703 -4734 0
-4704 -4740 0
-4747 248 0
-248 4747 0
-4748 255 0
-255 4748 0
-4749 262 0
-262 4749 0
-4750 269 0
-269 4750 0
-4751 276 0
-276 4751 0
-4752 283 0
-283 4752 0
-4753 290 0
-290 4753 0
-4747 4754 0
-4748 4755 0
-4754 4755 0
-4748 -4754 0
-4749 4756 0
-4755 4756 0
-4749 -4755 0
-4750 4757 0
-4756 4757 0
-4750 -4756 0
-4751 4758 0
-4757 4758 0
-4751 -4757 0
-4752 4759 0
-4758 4759 0
-4752 -4758 0
-4753 -4759 0
-4761 248 249 0
-248 4761 0
-249 4761 0
-4762 255 256 0
-255 4762 0
-256 4762 0
-4763 262 263 0
-262 4763 0
-263 4763 0
-4764 269 270 0
-269 4764 0
-270 4764 0
-4765 276 277 0
-276 4765 0
-277 4765 0
-4766 283 284 0
-283 4766 0
-284 4766 0
-4767 290 291 0
-290 4767 0
-291 4767 0
-4761 4768 0
-4769 0
-4762 4770 0
-4768 4770 0
-4762 -4768 4771 0
-4769 4771 0
-4762 -4769 0
-4763 4772 0
-4770 4772 0
-4763 -4770 4773 0
-4771 4773 0
-4763 -4771 0
-4764 4774 0
-4772 4774 0
-4764 -4772 4775 0
-4773 4775 0
-4764 -4773 0
-4765 4776 0
-4774 4776 0
-4765 -4774 4777 0
-4775 4777 0
-4765 -4775 0
-4766 4778 0
-4776 4778 0
-4766 -4776 4779 0
-4777 4779 0
-4766 -4777 0
-4767 -4779 0
-4782 248 249 250 0
-248 4782 0
-249 4782 0
-250 4782 0
-4783 255 256 257 0
-255 4783 0
-256 4783 0
-257 4783 0
-4784 262 263 264 0
-262 4784 0
-263 4784 0
-264 4784 0
-4785 269 270 271 0
-269 4785 0
-270 4785 0
-271 4785 0
-4786 276 277 278 0
-276 4786 0
-277 4786 0
-278 4786 0
-4787 283 284 285 0
-283 4787 0
-284 4787 0
-285 4787 0
-4788 290 291 292 0
-290 4788 0
-291 4788 0
-292 4788 0
-4782 4789 0
-4790 0
-4791 0
-4783 4792 0
-4789 4792 0
-4783 -4789 4793 0
-4790 4793 0
-4783 -4790 4794 0
-4791 4794 0
-4783 -4791 0
-4784 4795 0
-4792 4795 0
-4784 -4792 4796 0
-4793 4796 0
-4784 -4793 4797 0
-4794 4797 0
-4784 -4794 0
-4785 4798 0
-4795 4798 0
-4785 -4795 4799 0
-4796 4799 0
-4785 -4796 4800 0
-4797 4800 0
-4785 -4797 0
-4786 4801 0
-4798 4801 0
-4786 -4798 4802 0
-4799 4802 0
-4786 -4799 4803 0
-4800 4803 0
-4786 -4800 0
-4787 4804 0
-4801 4804 0
-4787 -4801 4805 0
-4802 4805 0
-4787 -4802 4806 0
-4803 4806 0
-4787 -4803 0
-4788 -4806 0
-4810 248 249 250 251 0
-248 4810 0
-249 4810 0
-250 4810 0
-251 4810 0
-4811 255 256 257 258 0
-255 4811 0
-256 4811 0
-257 4811 0
-258 4811 0
-4812 262 263 264 265 0
-262 4812 0
-263 4812 0
-264 4812 0
-265 4812 0
-4813 269 270 271 272 0
-269 4813 0
-270 4813 0
-271 4813 0
-272 4813 0
-4814 276 277 278 279 0
-276 4814 0
-277 4814 0
-278 4814 0
-279 4814 0
-4815 283 284 285 286 0
-283 4815 0
-284 4815 0
-285 4815 0
-286 4815 0
-4816 290 291 292 293 0
-290 4816 0
-291 4816 0
-292 4816 0
-293 4816 0
-4810 4817 0
-4818 0
-4819 0
-4820 0
-4811 4821 0
-4817 4821 0
-4811 -4817 4822 0
-4818 4822 0
-4811 -4818 4823 0
-4819 4823 0
-4811 -4819 4824 0
-4820 4824 0
-4811 -4820 0
-4812 4825 0
-4821 4825 0
-4812 -4821 4826 0
-4822 4826 0
-4812 -4822 4827 0
-4823 4827 0
-4812 -4823 4828 0
-4824 4828 0
-4812 -4824 0
-4813 4829 0
-4825 4829 0
-4813 -4825 4830 0
-4826 4830 0
-4813 -4826 4831 0
-4827 4831 0
-4813 -4827 4832 0
-4828 4832 0
-4813 -4828 0
-4814 4833 0
-4829 4833 0
-4814 -4829 4834 0
-4830 4834 0
-4814 -4830 4835 0
-4831 4835 0
-4814 -4831 4836 0
-4832 4836 0
-4814 -4832 0
-4815 4837 0
-4833 4837 0
-4815 -4833 4838 0
-4834 4838 0
-4815 -4834 4839 0
-4835 4839 0
-4815 -4835 4840 0
-4836 4840 0
-4815 -4836 0
-4816 -4840 0
-4845 248 249 250 251 252 0
-248 4845 0
-249 4845 0
-250 4845 0
-251 4845 0
-252 4845 0
-4846 255 256 257 258 259 0
-255 4846 0
-256 4846 0
-257 4846 0
-258 4846 0
-259 4846 0
-4847 262 263 264 265 266 0
-262 4847 0
-263 4847 0
-264 4847 0
-265 4847 0
-266 4847 0
-4848 269 270 271 272 273 0
-269 4848 0
-270 4848 0
-271 4848 0
-272 4848 0
-273 4848 0
-4849 276 277 278 279 280 0
-276 4849 0
-277 4849 0
-278 4849 0
-279 4849 0
-280 4849 0
-4850 283 284 285 286 287 0
-283 4850 0
-284 4850 0
-285 4850 0
-286 4850 0
-287 4850 0
-4851 290 291 292 293 294 0
-290 4851 0
-291 4851 0
-292 4851 0
-293 4851 0
-294 4851 0
-4845 4852 0
-4853 0
-4854 0
-4855 0
-4856 0
-4846 4857 0
-4852 4857 0
-4846 -4852 4858 0
-4853 4858 0
-4846 -4853 4859 0
-4854 4859 0
-4846 -4854 4860 0
-4855 4860 0
-4846 -4855 4861 0
-4856 4861 0
-4846 -4856 0
-4847 4862 0
-4857 4862 0
-4847 -4857 4863 0
-4858 4863 0
-4847 -4858 4864 0
-4859 4864 0
-4847 -4859 4865 0
-4860 4865 0
-4847 -4860 4866 0
-4861 4866 0
-4847 -4861 0
-4848 4867 0
-4862 4867 0
-4848 -4862 4868 0
-4863 4868 0
-4848 -4863 4869 0
-4864 4869 0
-4848 -4864 4870 0
-4865 4870 0
-4848 -4865 4871 0
-4866 4871 0
-4848 -4866 0
-4849 4872 0
-4867 4872 0
-4849 -4867 4873 0
-4868 4873 0
-4849 -4868 4874 0
-4869 4874 0
-4849 -4869 4875 0
-4870 4875 0
-4849 -4870 4876 0
-4871 4876 0
-4849 -4871 0
-4850 4877 0
-4872 4877 0
-4850 -4872 4878 0
-4873 4878 0
-4850 -4873 4879 0
-4874 4879 0
-4850 -4874 4880 0
-4875 4880 0
-4850 -4875 4881 0
-4876 4881 0
-4850 -4876 0
-4851 -4881 0
-4887 249 0
-249 4887 0
-4888 256 0
-256 4888 0
-4889 263 0
-263 4889 0
-4890 270 0
-270 4890 0
-4891 277 0
-277 4891 0
-4892 284 0
-284 4892 0
-4893 291 0
-291 4893 0
-4887 4894 0
-4888 4895 0
-4894 4895 0
-4888 -4894 0
-4889 4896 0
-4895 4896 0
-4889 -4895 0
-4890 4897 0
-4896 4897 0
-4890 -4896 0
-4891 4898 0
-4897 4898 0
-4891 -4897 0
-4892 4899 0
-4898 4899 0
-4892 -4898 0
-4893 -4899 0
-4901 249 250 0
-249 4901 0
-250 4901 0
-4902 256 257 0
-256 4902 0
-257 4902 0
-4903 263 264 0
-263 4903 0
-264 4903 0
-4904 270 271 0
-270 4904 0
-271 4904 0
-4905 277 278 0
-277 4905 0
-278 4905 0
-4906 284 285 0
-284 4906 0
-285 4906 0
-4907 291 292 0
-291 4907 0
-292 4907 0
-4901 4908 0
-4909 0
-4902 4910 0
-4908 4910 0
-4902 -4908 4911 0
-4909 4911 0
-4902 -4909 0
-4903 4912 0
-4910 4912 0
-4903 -4910 4913 0
-4911 4913 0
-4903 -4911 0
-4904 4914 0
-4912 4914 0
-4904 -4912 4915 0
-4913 4915 0
-4904 -4913 0
-4905 4916 0
-4914 4916 0
-4905 -4914 4917 0
-4915 4917 0
-4905 -4915 0
-4906 4918 0
-4916 4918 0
-4906 -4916 4919 0
-4917 4919 0
-4906 -4917 0
-4907 -4919 0
-4922 249 250 251 0
-249 4922 0
-250 4922 0
-251 4922 0
-4923 256 257 258 0
-256 4923 0
-257 4923 0
-258 4923 0
-4924 263 264 265 0
-263 4924 0
-264 4924 0
-265 4924 0
-4925 270 271 272 0
-270 4925 0
-271 4925 0
-272 4925 0
-4926 277 278 279 0
-277 4926 0
-278 4926 0
-279 4926 0
-4927 284 285 286 0
-284 4927 0
-285 4927 0
-286 4927 0
-4928 291 292 293 0
-291 4928 0
-292 4928 0
-293 4928 0
-4922 4929 0
-4930 0
-4931 0
-4923 4932 0
-4929 4932 0
-4923 -4929 4933 0
-4930 4933 0
-4923 -4930 4934 0
-4931 4934 0
-4923 -4931 0
-4924 4935 0
-4932 4935 0
-4924 -4932 4936 0
-4933 4936 0
-4924 -4933 4937 0
-4934 4937 0
-4924 -4934 0
-4925 4938 0
-4935 4938 0
-4925 -4935 4939 0
-4936 4939 0
-4925 -4936 4940 0
-4937 4940 0
-4925 -4937 0
-4926 4941 0
-4938 4941 0
-4926 -4938 4942 0
-4939 4942 0
-4926 -4939 4943 0
-4940 4943 0
-4926 -4940 0
-4927 4944 0
-4941 4944 0
-4927 -4941 4945 0
-4942 4945 0
-4927 -4942 4946 0
-4943 4946 0
-4927 -4943 0
-4928 -4946 0
-4950 249 250 251 252 0
-249 4950 0
-250 4950 0
-251 4950 0
-252 4950 0
-4951 256 257 258 259 0
-256 4951 0
-257 4951 0
-258 4951 0
-259 4951 0
-4952 263 264 265 266 0
-263 4952 0
-264 4952 0
-265 4952 0
-266 4952 0
-4953 270 271 272 273 0
-270 4953 0
-271 4953 0
-272 4953 0
-273 4953 0
-4954 277 278 279 280 0
-277 4954 0
-278 4954 0
-279 4954 0
-280 4954 0
-4955 284 285 286 287 0
-284 4955 0
-285 4955 0
-286 4955 0
-287 4955 0
-4956 291 292 293 294 0
-291 4956 0
-292 4956 0
-293 4956 0
-294 4956 0
-4950 4957 0
-4958 0
-4959 0
-4960 0
-4951 4961 0
-4957 4961 0
-4951 -4957 4962 0
-4958 4962 0
-4951 -4958 4963 0
-4959 4963 0
-4951 -4959 4964 0
-4960 4964 0
-4951 -4960 0
-4952 4965 0
-4961 4965 0
-4952 -4961 4966 0
-4962 4966 0
-4952 -4962 4967 0
-4963 4967 0
-4952 -4963 4968 0
-4964 4968 0
-4952 -4964 0
-4953 4969 0
-4965 4969 0
-4953 -4965 4970 0
-4966 4970 0
-4953 -4966 4971 0
-4967 4971 0
-4953 -4967 4972 0
-4968 4972 0
-4953 -4968 0
-4954 4973 0
-4969 4973 0
-4954 -4969 4974 0
-4970 4974 0
-4954 -4970 4975 0
-4971 4975 0
-4954 -4971 4976 0
-4972 4976 0
-4954 -4972 0
-4955 4977 0
-4973 4977 0
-4955 -4973 4978 0
-4974 4978 0
-4955 -4974 4979 0
-4975 4979 0
-4955 -4975 4980 0
-4976 4980 0
-4955 -4976 0
-4956 -4980 0
-4985 250 0
-250 4985 0
-4986 257 0
-257 4986 0
-4987 264 0
-264 4987 0
-4988 271 0
-271 4988 0
-4989 278 0
-278 4989 0
-4990 285 0
-285 4990 0
-4991 292 0
-292 4991 0
-4985 4992 0
-4986 4993 0
-4992 4993 0
-4986 -4992 0
-4987 4994 0
-4993 4994 0
-4987 -4993 0
-4988 4995 0
-4994 4995 0
-4988 -4994 0
-4989 4996 0
-4995 4996 0
-4989 -4995 0
-4990 4997 0
-4996 4997 0
-4990 -4996 0
-4991 -4997 0
-4999 250 251 0
-250 4999 0
-251 4999 0
-5000 257 258 0
-257 5000 0
-258 5000 0
-5001 264 265 0
-264 5001 0
-265 5001 0
-5002 271 272 0
-271 5002 0
-272 5002 0
-5003 278 279 0
-278 5003 0
-279 5003 0
-5004 285 286 0
-285 5004 0
-286 5004 0
-5005 292 293 0
-292 5005 0
-293 5005 0
-4999 5006 0
-5007 0
-5000 5008 0
-5006 5008 0
-5000 -5006 5009 0
-5007 5009 0
-5000 -5007 0
-5001 5010 0
-5008 5010 0
-5001 -5008 5011 0
-5009 5011 0
-5001 -5009 0
-5002 5012 0
-5010 5012 0
-5002 -5010 5013 0
-5011 5013 0
-5002 -5011 0
-5003 5014 0
-5012 5014 0
-5003 -5012 5015 0
-5013 5015 0
-5003 -5013 0
-5004 5016 0
-5014 5016 0
-5004 -5014 5017 0
-5015 5017 0
-5004 -5015 0
-5005 -5017 0
-5020 250 251 252 0
-250 5020 0
-251 5020 0
-252 5020 0
-5021 257 258 259 0
-257 5021 0
-258 5021 0
-259 5021 0
-5022 264 265 266 0
-264 5022 0
-265 5022 0
-266 5022 0
-5023 271 272 273 0
-271 5023 0
-272 5023 0
-273 5023 0
-5024 278 279 280 0
-278 5024 0
-279 5024 0
-280 5024 0
-5025 285 286 287 0
-285 5025 0
-286 5025 0
-287 5025 0
-5026 292 293 294 0
-292 5026 0
-293 5026 0
-294 5026 0
-5020 5027 0
-5028 0
-5029 0
-5021 5030 0
-5027 5030 0
-5021 -5027 5031 0
-5028 5031 0
-5021 -5028 5032 0
-5029 5032 0
-5021 -5029 0
-5022 5033 0
-5030 5033 0
-5022 -5030 5034 0
-5031 5034 0
-5022 -5031 5035 0
-5032 5035 0
-5022 -5032 0
-5023 5036 0
-5033 5036 0
-5023 -5033 5037 0
-5034 5037 0
-5023 -5034 5038 0
-5035 5038 0
-5023 -5035 0
-5024 5039 0
-5036 5039 0
-5024 -5036 5040 0
-5037 5040 0
-5024 -5037 5041 0
-5038 5041 0
-5024 -5038 0
-5025 5042 0
-5039 5042 0
-5025 -5039 5043 0
-5040 5043 0
-5025 -5040 5044 0
-5041 5044 0
-5025 -5041 0
-5026 -5044 0
-5048 251 0
-251 5048 0
-5049 258 0
-258 5049 0
-5050 265 0
-265 5050 0
-5051 272 0
-272 5051 0
-5052 279 0
-279 5052 0
-5053 286 0
-286 5053 0
-5054 293 0
-293 5054 0
-5048 5055 0
-5049 5056 0
-5055 5056 0
-5049 -5055 0
-5050 5057 0
-5056 5057 0
-5050 -5056 0
-5051 5058 0
-5057 5058 0
-5051 -5057 0
-5052 5059 0
-5058 5059 0
-5052 -5058 0
-5053 5060 0
-5059 5060 0
-5053 -5059 0
-5054 -5060 0
-5062 251 252 0
-251 5062 0
-252 5062 0
-5063 258 259 0
-258 5063 0
-259 5063 0
-5064 265 266 0
-265 5064 0
-266 5064 0
-5065 272 273 0
-272 5065 0
-273 5065 0
-5066 279 280 0
-279 5066 0
-280 5066 0
-5067 286 287 0
-286 5067 0
-287 5067 0
-5068 293 294 0
-293 5068 0
-294 5068 0
-5062 5069 0
-5070 0
-5063 5071 0
-5069 5071 0
-5063 -5069 5072 0
-5070 5072 0
-5063 -5070 0
-5064 5073 0
-5071 5073 0
-5064 -5071 5074 0
-5072 5074 0
-5064 -5072 0
-5065 5075 0
-5073 5075 0
-5065 -5073 5076 0
-5074 5076 0
-5065 -5074 0
-5066 5077 0
-5075 5077 0
-5066 -5075 5078 0
-5076 5078 0
-5066 -5076 0
-5067 5079 0
-5077 5079 0
-5067 -5077 5080 0
-5078 5080 0
-5067 -5078 0
-5068 -5080 0
-5083 252 0
-252 5083 0
-5084 259 0
-259 5084 0
-5085 266 0
-266 5085 0
-5086 273 0
-273 5086 0
-5087 280 0
-280 5087 0
-5088 287 0
-287 5088 0
-5089 294 0
-294 5089 0
-5083 5090 0
-5084 5091 0
-5090 5091 0
-5084 -5090 0
-5085 5092 0
-5091 5092 0
-5085 -5091 0
-5086 5093 0
-5092 5093 0
-5086 -5092 0
-5087 5094 0
-5093 5094 0
-5087 -5093 0
-5088 5095 0
-5094 5095 0
-5088 -5094 0
-5089 -5095 0
-5097 295 0
-295 5097 0
-5098 302 0
-302 5098 0
-5099 309 0
-309 5099 0
-5100 316 0
-316 5100 0
-5101 323 0
-323 5101 0
-5102 330 0
-330 5102 0
-5103 337 0
-337 5103 0
-5097 5104 0
-5098 5105 0
-5104 5105 0
-5098 -5104 0
-5099 5106 0
-5105 5106 0
-5099 -5105 0
-5100 5107 0
-5106 5107 0
-5100 -5106 0
-5101 5108 0
-5107 5108 0
-5101 -5107 0
-5102 5109 0
-5108 5109 0
-5102 -5108 0
-5103 -5109 0
-5111 295 296 0
-295 5111 0
-296 5111 0
-5112 302 303 0
-302 5112 0
-303 5112 0
-5113 309 310 0
-309 5113 0
-310 5113 0
-5114 316 317 0
-316 5114 0
-317 5114 0
-5115 323 324 0
-323 5115 0
-324 5115 0
-5116 330 331 0
-330 5116 0
-331 5116 0
-5117 337 338 0
-337 5117 0
-338 5117 0
-5111 5118 0
-5119 0
-5112 5120 0
-5118 5120 0
-5112 -5118 5121 0
-5119 5121 0
-5112 -5119 0
-5113 5122 0
-5120 5122 0
-5113 -5120 5123 0
-5121 5123 0
-5113 -5121 0
-5114 5124 0
-5122 5124 0
-5114 -5122 5125 0
-5123 5125 0
-5114 -5123 0
-5115 5126 0
-5124 5126 0
-5115 -5124 5127 0
-5125 5127 0
-5115 -5125 0
-5116 5128 0
-5126 5128 0
-5116 -5126 5129 0
-5127 5129 0
-5116 -5127 0
-5117 -5129 0
-5132 295 296 297 0
-295 5132 0
-296 5132 0
-297 5132 0
-5133 302 303 304 0
-302 5133 0
-303 5133 0
-304 5133 0
-5134 309 310 311 0
-309 5134 0
-310 5134 0
-311 5134 0
-5135 316 317 318 0
-316 5135 0
-317 5135 0
-318 5135 0
-5136 323 324 325 0
-323 5136 0
-324 5136 0
-325 5136 0
-5137 330 331 332 0
-330 5137 0
-331 5137 0
-332 5137 0
-5138 337 338 339 0
-337 5138 0
-338 5138 0
-339 5138 0
-5132 5139 0
-5140 0
-5141 0
-5133 5142 0
-5139 5142 0
-5133 -5139 5143 0
-5140 5143 0
-5133 -5140 5144 0
-5141 5144 0
-5133 -5141 0
-5134 5145 0
-5142 5145 0
-5134 -5142 5146 0
-5143 5146 0
-5134 -5143 5147 0
-5144 5147 0
-5134 -5144 0
-5135 5148 0
-5145 5148 0
-5135 -5145 5149 0
-5146 5149 0
-5135 -5146 5150 0
-5147 5150 0
-5135 -5147 0
-5136 5151 0
-5148 5151 0
-5136 -5148 5152 0
-5149 5152 0
-5136 -5149 5153 0
-5150 5153 0
-5136 -5150 0
-5137 5154 0
-5151 5154 0
-5137 -5151 5155 0
-5152 5155 0
-5137 -5152 5156 0
-5153 5156 0
-5137 -5153 0
-5138 -5156 0
-5160 295 296 297 298 0
-295 5160 0
-296 5160 0
-297 5160 0
-298 5160 0
-5161 302 303 304 305 0
-302 5161 0
-303 5161 0
-304 5161 0
-305 5161 0
-5162 309 310 311 312 0
-309 5162 0
-310 5162 0
-311 5162 0
-312 5162 0
-5163 316 317 318 319 0
-316 5163 0
-317 5163 0
-318 5163 0
-319 5163 0
-5164 323 324 325 326 0
-323 5164 0
-324 5164 0
-325 5164 0
-326 5164 0
-5165 330 331 332 333 0
-330 5165 0
-331 5165 0
-332 5165 0
-333 5165 0
-5166 337 338 339 340 0
-337 5166 0
-338 5166 0
-339 5166 0
-340 5166 0
-5160 5167 0
-5168 0
-5169 0
-5170 0
-5161 5171 0
-5167 5171 0
-5161 -5167 5172 0
-5168 5172 0
-5161 -5168 5173 0
-5169 5173 0
-5161 -5169 5174 0
-5170 5174 0
-5161 -5170 0
-5162 5175 0
-5171 5175 0
-5162 -5171 5176 0
-5172 5176 0
-5162 -5172 5177 0
-5173 5177 0
-5162 -5173 5178 0
-5174 5178 0
-5162 -5174 0
-5163 5179 0
-5175 5179 0
-5163 -5175 5180 0
-5176 5180 0
-5163 -5176 5181 0
-5177 5181 0
-5163 -5177 5182 0
-5178 5182 0
-5163 -5178 0
-5164 5183 0
-5179 5183 0
-5164 -5179 5184 0
-5180 5184 0
-5164 -5180 5185 0
-5181 5185 0
-5164 -5181 5186 0
-5182 5186 0
-5164 -5182 0
-5165 5187 0
-5183 5187 0
-5165 -5183 5188 0
-5184 5188 0
-5165 -5184 5189 0
-5185 5189 0
-5165 -5185 5190 0
-5186 5190 0
-5165 -5186 0
-5166 -5190 0
-5195 295 296 297 298 299 0
-295 5195 0
-296 5195 0
-297 5195 0
-298 5195 0
-299 5195 0
-5196 302 303 304 305 306 0
-302 5196 0
-303 5196 0
-304 5196 0
-305 5196 0
-306 5196 0
-5197 309 310 311 312 313 0
-309 5197 0
-310 5197 0
-311 5197 0
-312 5197 0
-313 5197 0
-5198 316 317 318 319 320 0
-316 5198 0
-317 5198 0
-318 5198 0
-319 5198 0
-320 5198 0
-5199 323 324 325 326 327 0
-323 5199 0
-324 5199 0
-325 5199 0
-326 5199 0
-327 5199 0
-5200 330 331 332 333 334 0
-330 5200 0
-331 5200 0
-332 5200 0
-333 5200 0
-334 5200 0
-5201 337 338 339 340 341 0
-337 5201 0
-338 5201 0
-339 5201 0
-340 5201 0
-341 5201 0
-5195 5202 0
-5203 0
-5204 0
-5205 0
-5206 0
-5196 5207 0
-5202 5207 0
-5196 -5202 5208 0
-5203 5208 0
-5196 -5203 5209 0
-5204 5209 0
-5196 -5204 5210 0
-5205 5210 0
-5196 -5205 5211 0
-5206 5211 0
-5196 -5206 0
-5197 5212 0
-5207 5212 0
-5197 -5207 5213 0
-5208 5213 0
-5197 -5208 5214 0
-5209 5214 0
-5197 -5209 5215 0
-5210 5215 0
-5197 -5210 5216 0
-5211 5216 0
-5197 -5211 0
-5198 5217 0
-5212 5217 0
-5198 -5212 5218 0
-5213 5218 0
-5198 -5213 5219 0
-5214 5219 0
-5198 -5214 5220 0
-5215 5220 0
-5198 -5215 5221 0
-5216 5221 0
-5198 -5216 0
-5199 5222 0
-5217 5222 0
-5199 -5217 5223 0
-5218 5223 0
-5199 -5218 5224 0
-5219 5224 0
-5199 -5219 5225 0
-5220 5225 0
-5199 -5220 5226 0
-5221 5226 0
-5199 -5221 0
-5200 5227 0
-5222 5227 0
-5200 -5222 5228 0
-5223 5228 0
-5200 -5223 5229 0
-5224 5229 0
-5200 -5224 5230 0
-5225 5230 0
-5200 -5225 5231 0
-5226 5231 0
-5200 -5226 0
-5201 -5231 0
-5237 295 296 297 298 299 300 0
-295 5237 0
-296 5237 0
-297 5237 0
-298 5237 0
-299 5237 0
-300 5237 0
-5238 302 303 304 305 306 307 0
-302 5238 0
-303 5238 0
-304 5238 0
-305 5238 0
-306 5238 0
-307 5238 0
-5239 309 310 311 312 313 314 0
-309 5239 0
-310 5239 0
-311 5239 0
-312 5239 0
-313 5239 0
-314 5239 0
-5240 316 317 318 319 320 321 0
-316 5240 0
-317 5240 0
-318 5240 0
-319 5240 0
-320 5240 0
-321 5240 0
-5241 323 324 325 326 327 328 0
-323 5241 0
-324 5241 0
-325 5241 0
-326 5241 0
-327 5241 0
-328 5241 0
-5242 330 331 332 333 334 335 0
-330 5242 0
-331 5242 0
-332 5242 0
-333 5242 0
-334 5242 0
-335 5242 0
-5243 337 338 339 340 341 342 0
-337 5243 0
-338 5243 0
-339 5243 0
-340 5243 0
-341 5243 0
-342 5243 0
-5237 5244 0
-5245 0
-5246 0
-5247 0
-5248 0
-5249 0
-5238 5250 0
-5244 5250 0
-5238 -5244 5251 0
-5245 5251 0
-5238 -5245 5252 0
-5246 5252 0
-5238 -5246 5253 0
-5247 5253 0
-5238 -5247 5254 0
-5248 5254 0
-5238 -5248 5255 0
-5249 5255 0
-5238 -5249 0
-5239 5256 0
-5250 5256 0
-5239 -5250 5257 0
-5251 5257 0
-5239 -5251 5258 0
-5252 5258 0
-5239 -5252 5259 0
-5253 5259 0
-5239 -5253 5260 0
-5254 5260 0
-5239 -5254 5261 0
-5255 5261 0
-5239 -5255 0
-5240 5262 0
-5256 5262 0
-5240 -5256 5263 0
-5257 5263 0
-5240 -5257 5264 0
-5258 5264 0
-5240 -5258 5265 0
-5259 5265 0
-5240 -5259 5266 0
-5260 5266 0
-5240 -5260 5267 0
-5261 5267 0
-5240 -5261 0
-5241 5268 0
-5262 5268 0
-5241 -5262 5269 0
-5263 5269 0
-5241 -5263 5270 0
-5264 5270 0
-5241 -5264 5271 0
-5265 5271 0
-5241 -5265 5272 0
-5266 5272 0
-5241 -5266 5273 0
-5267 5273 0
-5241 -5267 0
-5242 5274 0
-5268 5274 0
-5242 -5268 5275 0
-5269 5275 0
-5242 -5269 5276 0
-5270 5276 0
-5242 -5270 5277 0
-5271 5277 0
-5242 -5271 5278 0
-5272 5278 0
-5242 -5272 5279 0
-5273 5279 0
-5242 -5273 0
-5243 -5279 0
-5286 295 296 297 298 299 300 301 0
-295 5286 0
-296 5286 0
-297 5286 0
-298 5286 0
-299 5286 0
-300 5286 0
-301 5286 0
-5287 302 303 304 305 306 307 308 0
-302 5287 0
-303 5287 0
-304 5287 0
-305 5287 0
-306 5287 0
-307 5287 0
-308 5287 0
-5288 309 310 311 312 313 314 315 0
-309 5288 0
-310 5288 0
-311 5288 0
-312 5288 0
-313 5288 0
-314 5288 0
-315 5288 0
-5289 316 317 318 319 320 321 322 0
-316 5289 0
-317 5289 0
-318 5289 0
-319 5289 0
-320 5289 0
-321 5289 0
-322 5289 0
-5290 323 324 325 326 327 328 329 0
-323 5290 0
-324 5290 0
-325 5290 0
-326 5290 0
-327 5290 0
-328 5290 0
-329 5290 0
-5291 330 331 332 333 334 335 336 0
-330 5291 0
-331 5291 0
-332 5291 0
-333 5291 0
-334 5291 0
-335 5291 0
-336 5291 0
-5292 337 338 339 340 341 342 343 0
-337 5292 0
-338 5292 0
-339 5292 0
-340 5292 0
-341 5292 0
-342 5292 0
-343 5292 0
-5293 296 0
-296 5293 0
-5294 303 0
-303 5294 0
-5295 310 0
-310 5295 0
-5296 317 0
-317 5296 0
-5297 324 0
-324 5297 0
-5298 331 0
-331 5298 0
-5299 338 0
-338 5299 0
-5293 5300 0
-5294 5301 0
-5300 5301 0
-5294 -5300 0
-5295 5302 0
-5301 5302 0
-5295 -5301 0
-5296 5303 0
-5302 5303 0
-5296 -5302 0
-5297 5304 0
-5303 5304 0
-5297 -5303 0
-5298 5305 0
-5304 5305 0
-5298 -5304 0
-5299 -5305 0
-5307 296 297 0
-296 5307 0
-297 5307 0
-5308 303 304 0
-303 5308 0
-304 5308 0
-5309 310 311 0
-310 5309 0
-311 5309 0
-5310 317 318 0
-317 5310 0
-318 5310 0
-5311 324 325 0
-324 5311 0
-325 5311 0
-5312 331 332 0
-331 5312 0
-332 5312 0
-5313 338 339 0
-338 5313 0
-339 5313 0
-5307 5314 0
-5315 0
-5308 5316 0
-5314 5316 0
-5308 -5314 5317 0
-5315 5317 0
-5308 -5315 0
-5309 5318 0
-5316 5318 0
-5309 -5316 5319 0
-5317 5319 0
-5309 -5317 0
-5310 5320 0
-5318 5320 0
-5310 -5318 5321 0
-5319 5321 0
-5310 -5319 0
-5311 5322 0
-5320 5322 0
-5311 -5320 5323 0
-5321 5323 0
-5311 -5321 0
-5312 5324 0
-5322 5324 0
-5312 -5322 5325 0
-5323 5325 0
-5312 -5323 0
-5313 -5325 0
-5328 296 297 298 0
-296 5328 0
-297 5328 0
-298 5328 0
-5329 303 304 305 0
-303 5329 0
-304 5329 0
-305 5329 0
-5330 310 311 312 0
-310 5330 0
-311 5330 0
-312 5330 0
-5331 317 318 319 0
-317 5331 0
-318 5331 0
-319 5331 0
-5332 324 325 326 0
-324 5332 0
-325 5332 0
-326 5332 0
-5333 331 332 333 0
-331 5333 0
-332 5333 0
-333 5333 0
-5334 338 339 340 0
-338 5334 0
-339 5334 0
-340 5334 0
-5328 5335 0
-5336 0
-5337 0
-5329 5338 0
-5335 5338 0
-5329 -5335 5339 0
-5336 5339 0
-5329 -5336 5340 0
-5337 5340 0
-5329 -5337 0
-5330 5341 0
-5338 5341 0
-5330 -5338 5342 0
-5339 5342 0
-5330 -5339 5343 0
-5340 5343 0
-5330 -5340 0
-5331 5344 0
-5341 5344 0
-5331 -5341 5345 0
-5342 5345 0
-5331 -5342 5346 0
-5343 5346 0
-5331 -5343 0
-5332 5347 0
-5344 5347 0
-5332 -5344 5348 0
-5345 5348 0
-5332 -5345 5349 0
-5346 5349 0
-5332 -5346 0
-5333 5350 0
-5347 5350 0
-5333 -5347 5351 0
-5348 5351 0
-5333 -5348 5352 0
-5349 5352 0
-5333 -5349 0
-5334 -5352 0
-5356 296 297 298 299 0
-296 5356 0
-297 5356 0
-298 5356 0
-299 5356 0
-5357 303 304 305 306 0
-303 5357 0
-304 5357 0
-305 5357 0
-306 5357 0
-5358 310 311 312 313 0
-310 5358 0
-311 5358 0
-312 5358 0
-313 5358 0
-5359 317 318 319 320 0
-317 5359 0
-318 5359 0
-319 5359 0
-320 5359 0
-5360 324 325 326 327 0
-324 5360 0
-325 5360 0
-326 5360 0
-327 5360 0
-5361 331 332 333 334 0
-331 5361 0
-332 5361 0
-333 5361 0
-334 5361 0
-5362 338 339 340 341 0
-338 5362 0
-339 5362 0
-340 5362 0
-341 5362 0
-5356 5363 0
-5364 0
-5365 0
-5366 0
-5357 5367 0
-5363 5367 0
-5357 -5363 5368 0
-5364 5368 0
-5357 -5364 5369 0
-5365 5369 0
-5357 -5365 5370 0
-5366 5370 0
-5357 -5366 0
-5358 5371 0
-5367 5371 0
-5358 -5367 5372 0
-5368 5372 0
-5358 -5368 5373 0
-5369 5373 0
-5358 -5369 5374 0
-5370 5374 0
-5358 -5370 0
-5359 5375 0
-5371 5375 0
-5359 -5371 5376 0
-5372 5376 0
-5359 -5372 5377 0
-5373 5377 0
-5359 -5373 5378 0
-5374 5378 0
-5359 -5374 0
-5360 5379 0
-5375 5379 0
-5360 -5375 5380 0
-5376 5380 0
-5360 -5376 5381 0
-5377 5381 0
-5360 -5377 5382 0
-5378 5382 0
-5360 -5378 0
-5361 5383 0
-5379 5383 0
-5361 -5379 5384 0
-5380 5384 0
-5361 -5380 5385 0
-5381 5385 0
-5361 -5381 5386 0
-5382 5386 0
-5361 -5382 0
-5362 -5386 0
-5391 296 297 298 299 300 0
-296 5391 0
-297 5391 0
-298 5391 0
-299 5391 0
-300 5391 0
-5392 303 304 305 306 307 0
-303 5392 0
-304 5392 0
-305 5392 0
-306 5392 0
-307 5392 0
-5393 310 311 312 313 314 0
-310 5393 0
-311 5393 0
-312 5393 0
-313 5393 0
-314 5393 0
-5394 317 318 319 320 321 0
-317 5394 0
-318 5394 0
-319 5394 0
-320 5394 0
-321 5394 0
-5395 324 325 326 327 328 0
-324 5395 0
-325 5395 0
-326 5395 0
-327 5395 0
-328 5395 0
-5396 331 332 333 334 335 0
-331 5396 0
-332 5396 0
-333 5396 0
-334 5396 0
-335 5396 0
-5397 338 339 340 341 342 0
-338 5397 0
-339 5397 0
-340 5397 0
-341 5397 0
-342 5397 0
-5391 5398 0
-5399 0
-5400 0
-5401 0
-5402 0
-5392 5403 0
-5398 5403 0
-5392 -5398 5404 0
-5399 5404 0
-5392 -5399 5405 0
-5400 5405 0
-5392 -5400 5406 0
-5401 5406 0
-5392 -5401 5407 0
-5402 5407 0
-5392 -5402 0
-5393 5408 0
-5403 5408 0
-5393 -5403 5409 0
-5404 5409 0
-5393 -5404 5410 0
-5405 5410 0
-5393 -5405 5411 0
-5406 5411 0
-5393 -5406 5412 0
-5407 5412 0
-5393 -5407 0
-5394 5413 0
-5408 5413 0
-5394 -5408 5414 0
-5409 5414 0
-5394 -5409 5415 0
-5410 5415 0
-5394 -5410 5416 0
-5411 5416 0
-5394 -5411 5417 0
-5412 5417 0
-5394 -5412 0
-5395 5418 0
-5413 5418 0
-5395 -5413 5419 0
-5414 5419 0
-5395 -5414 5420 0
-5415 5420 0
-5395 -5415 5421 0
-5416 5421 0
-5395 -5416 5422 0
-5417 5422 0
-5395 -5417 0
-5396 5423 0
-5418 5423 0
-5396 -5418 5424 0
-5419 5424 0
-5396 -5419 5425 0
-5420 5425 0
-5396 -5420 5426 0
-5421 5426 0
-5396 -5421 5427 0
-5422 5427 0
-5396 -5422 0
-5397 -5427 0
-5433 296 297 298 299 300 301 0
-296 5433 0
-297 5433 0
-298 5433 0
-299 5433 0
-300 5433 0
-301 5433 0
-5434 303 304 305 306 307 308 0
-303 5434 0
-304 5434 0
-305 5434 0
-306 5434 0
-307 5434 0
-308 5434 0
-5435 310 311 312 313 314 315 0
-310 5435 0
-311 5435 0
-312 5435 0
-313 5435 0
-314 5435 0
-315 5435 0
-5436 317 318 319 320 321 322 0
-317 5436 0
-318 5436 0
-319 5436 0
-320 5436 0
-321 5436 0
-322 5436 0
-5437 324 325 326 327 328 329 0
-324 5437 0
-325 5437 0
-326 5437 0
-327 5437 0
-328 5437 0
-329 5437 0
-5438 331 332 333 334 335 336 0
-331 5438 0
-332 5438 0
-333 5438 0
-334 5438 0
-335 5438 0
-336 5438 0
-5439 338 339 340 341 342 343 0
-338 5439 0
-339 5439 0
-340 5439 0
-341 5439 0
-342 5439 0
-343 5439 0
-5433 5440 0
-5441 0
-5442 0
-5443 0
-5444 0
-5445 0
-5434 5446 0
-5440 5446 0
-5434 -5440 5447 0
-5441 5447 0
-5434 -5441 5448 0
-5442 5448 0
-5434 -5442 5449 0
-5443 5449 0
-5434 -5443 5450 0
-5444 5450 0
-5434 -5444 5451 0
-5445 5451 0
-5434 -5445 0
-5435 5452 0
-5446 5452 0
-5435 -5446 5453 0
-5447 5453 0
-5435 -5447 5454 0
-5448 5454 0
-5435 -5448 5455 0
-5449 5455 0
-5435 -5449 5456 0
-5450 5456 0
-5435 -5450 5457 0
-5451 5457 0
-5435 -5451 0
-5436 5458 0
-5452 5458 0
-5436 -5452 5459 0
-5453 5459 0
-5436 -5453 5460 0
-5454 5460 0
-5436 -5454 5461 0
-5455 5461 0
-5436 -5455 5462 0
-5456 5462 0
-5436 -5456 5463 0
-5457 5463 0
-5436 -5457 0
-5437 5464 0
-5458 5464 0
-5437 -5458 5465 0
-5459 5465 0
-5437 -5459 5466 0
-5460 5466 0
-5437 -5460 5467 0
-5461 5467 0
-5437 -5461 5468 0
-5462 5468 0
-5437 -5462 5469 0
-5463 5469 0
-5437 -5463 0
-5438 5470 0
-5464 5470 0
-5438 -5464 5471 0
-5465 5471 0
-5438 -5465 5472 0
-5466 5472 0
-5438 -5466 5473 0
-5467 5473 0
-5438 -5467 5474 0
-5468 5474 0
-5438 -5468 5475 0
-5469 5475 0
-5438 -5469 0
-5439 -5475 0
-5482 297 0
-297 5482 0
-5483 304 0
-304 5483 0
-5484 311 0
-311 5484 0
-5485 318 0
-318 5485 0
-5486 325 0
-325 5486 0
-5487 332 0
-332 5487 0
-5488 339 0
-339 5488 0
-5482 5489 0
-5483 5490 0
-5489 5490 0
-5483 -5489 0
-5484 5491 0
-5490 5491 0
-5484 -5490 0
-5485 5492 0
-5491 5492 0
-5485 -5491 0
-5486 5493 0
-5492 5493 0
-5486 -5492 0
-5487 5494 0
-5493 5494 0
-5487 -5493 0
-5488 -5494 0
-5496 297 298 0
-297 5496 0
-298 5496 0
-5497 304 305 0
-304 5497 0
-305 5497 0
-5498 311 312 0
-311 5498 0
-312 5498 0
-5499 318 319 0
-318 5499 0
-319 5499 0
-5500 325 326 0
-325 5500 0
-326 5500 0
-5501 332 333 0
-332 5501 0
-333 5501 0
-5502 339 340 0
-339 5502 0
-340 5502 0
-5496 5503 0
-5504 0
-5497 5505 0
-5503 5505 0
-5497 -5503 5506 0
-5504 5506 0
-5497 -5504 0
-5498 5507 0
-5505 5507 0
-5498 -5505 5508 0
-5506 5508 0
-5498 -5506 0
-5499 5509 0
-5507 5509 0
-5499 -5507 5510 0
-5508 5510 0
-5499 -5508 0
-5500 5511 0
-5509 5511 0
-5500 -5509 5512 0
-5510 5512 0
-5500 -5510 0
-5501 5513 0
-5511 5513 0
-5501 -5511 5514 0
-5512 5514 0
-5501 -5512 0
-5502 -5514 0
-5517 297 298 299 0
-297 5517 0
-298 5517 0
-299 5517 0
-5518 304 305 306 0
-304 5518 0
-305 5518 0
-306 5518 0
-5519 311 312 313 0
-311 5519 0
-312 5519 0
-313 5519 0
-5520 318 319 320 0
-318 5520 0
-319 5520 0
-320 5520 0
-5521 325 326 327 0
-325 5521 0
-326 5521 0
-327 5521 0
-5522 332 333 334 0
-332 5522 0
-333 5522 0
-334 5522 0
-5523 339 340 341 0
-339 5523 0
-340 5523 0
-341 5523 0
-5517 5524 0
-5525 0
-5526 0
-5518 5527 0
-5524 5527 0
-5518 -5524 5528 0
-5525 5528 0
-5518 -5525 5529 0
-5526 5529 0
-5518 -5526 0
-5519 5530 0
-5527 5530 0
-5519 -5527 5531 0
-5528 5531 0
-5519 -5528 5532 0
-5529 5532 0
-5519 -5529 0
-5520 5533 0
-5530 5533 0
-5520 -5530 5534 0
-5531 5534 0
-5520 -5531 5535 0
-5532 5535 0
-5520 -5532 0
-5521 5536 0
-5533 5536 0
-5521 -5533 5537 0
-5534 5537 0
-5521 -5534 5538 0
-5535 5538 0
-5521 -5535 0
-5522 5539 0
-5536 5539 0
-5522 -5536 5540 0
-5537 5540 0
-5522 -5537 5541 0
-5538 5541 0
-5522 -5538 0
-5523 -5541 0
-5545 297 298 299 300 0
-297 5545 0
-298 5545 0
-299 5545 0
-300 5545 0
-5546 304 305 306 307 0
-304 5546 0
-305 5546 0
-306 5546 0
-307 5546 0
-5547 311 312 313 314 0
-311 5547 0
-312 5547 0
-313 5547 0
-314 5547 0
-5548 318 319 320 321 0
-318 5548 0
-319 5548 0
-320 5548 0
-321 5548 0
-5549 325 326 327 328 0
-325 5549 0
-326 5549 0
-327 5549 0
-328 5549 0
-5550 332 333 334 335 0
-332 5550 0
-333 5550 0
-334 5550 0
-335 5550 0
-5551 339 340 341 342 0
-339 5551 0
-340 5551 0
-341 5551 0
-342 5551 0
-5545 5552 0
-5553 0
-5554 0
-5555 0
-5546 5556 0
-5552 5556 0
-5546 -5552 5557 0
-5553 5557 0
-5546 -5553 5558 0
-5554 5558 0
-5546 -5554 5559 0
-5555 5559 0
-5546 -5555 0
-5547 5560 0
-5556 5560 0
-5547 -5556 5561 0
-5557 5561 0
-5547 -5557 5562 0
-5558 5562 0
-5547 -5558 5563 0
-5559 5563 0
-5547 -5559 0
-5548 5564 0
-5560 5564 0
-5548 -5560 5565 0
-5561 5565 0
-5548 -5561 5566 0
-5562 5566 0
-5548 -5562 5567 0
-5563 5567 0
-5548 -5563 0
-5549 5568 0
-5564 5568 0
-5549 -5564 5569 0
-5565 5569 0
-5549 -5565 5570 0
-5566 5570 0
-5549 -5566 5571 0
-5567 5571 0
-5549 -5567 0
-5550 5572 0
-5568 5572 0
-5550 -5568 5573 0
-5569 5573 0
-5550 -5569 5574 0
-5570 5574 0
-5550 -5570 5575 0
-5571 5575 0
-5550 -5571 0
-5551 -5575 0
-5580 297 298 299 300 301 0
-297 5580 0
-298 5580 0
-299 5580 0
-300 5580 0
-301 5580 0
-5581 304 305 306 307 308 0
-304 5581 0
-305 5581 0
-306 5581 0
-307 5581 0
-308 5581 0
-5582 311 312 313 314 315 0
-311 5582 0
-312 5582 0
-313 5582 0
-314 5582 0
-315 5582 0
-5583 318 319 320 321 322 0
-318 5583 0
-319 5583 0
-320 5583 0
-321 5583 0
-322 5583 0
-5584 325 326 327 328 329 0
-325 5584 0
-326 5584 0
-327 5584 0
-328 5584 0
-329 5584 0
-5585 332 333 334 335 336 0
-332 5585 0
-333 5585 0
-334 5585 0
-335 5585 0
-336 5585 0
-5586 339 340 341 342 343 0
-339 5586 0
-340 5586 0
-341 5586 0
-342 5586 0
-343 5586 0
-5580 5587 0
-5588 0
-5589 0
-5590 0
-5591 0
-5581 5592 0
-5587 5592 0
-5581 -5587 5593 0
-5588 5593 0
-5581 -5588 5594 0
-5589 5594 0
-5581 -5589 5595 0
-5590 5595 0
-5581 -5590 5596 0
-5591 5596 0
-5581 -5591 0
-5582 5597 0
-5592 5597 0
-5582 -5592 5598 0
-5593 5598 0
-5582 -5593 5599 0
-5594 5599 0
-5582 -5594 5600 0
-5595 5600 0
-5582 -5595 5601 0
-5596 5601 0
-5582 -5596 0
-5583 5602 0
-5597 5602 0
-5583 -5597 5603 0
-5598 5603 0
-5583 -5598 5604 0
-5599 5604 0
-5583 -5599 5605 0
-5600 5605 0
-5583 -5600 5606 0
-5601 5606 0
-5583 -5601 0
-5584 5607 0
-5602 5607 0
-5584 -5602 5608 0
-5603 5608 0
-5584 -5603 5609 0
-5604 5609 0
-5584 -5604 5610 0
-5605 5610 0
-5584 -5605 5611 0
-5606 5611 0
-5584 -5606 0
-5585 5612 0
-5607 5612 0
-5585 -5607 5613 0
-5608 5613 0
-5585 -5608 5614 0
-5609 5614 0
-5585 -5609 5615 0
-5610 5615 0
-5585 -5610 5616 0
-5611 5616 0
-5585 -5611 0
-5586 -5616 0
-5622 298 0
-298 5622 0
-5623 305 0
-305 5623 0
-5624 312 0
-312 5624 0
-5625 319 0
-319 5625 0
-5626 326 0
-326 5626 0
-5627 333 0
-333 5627 0
-5628 340 0
-340 5628 0
-5622 5629 0
-5623 5630 0
-5629 5630 0
-5623 -5629 0
-5624 5631 0
-5630 5631 0
-5624 -5630 0
-5625 5632 0
-5631 5632 0
-5625 -5631 0
-5626 5633 0
-5632 5633 0
-5626 -5632 0
-5627 5634 0
-5633 5634 0
-5627 -5633 0
-5628 -5634 0
-5636 298 299 0
-298 5636 0
-299 5636 0
-5637 305 306 0
-305 5637 0
-306 5637 0
-5638 312 313 0
-312 5638 0
-313 5638 0
-5639 319 320 0
-319 5639 0
-320 5639 0
-5640 326 327 0
-326 5640 0
-327 5640 0
-5641 333 334 0
-333 5641 0
-334 5641 0
-5642 340 341 0
-340 5642 0
-341 5642 0
-5636 5643 0
-5644 0
-5637 5645 0
-5643 5645 0
-5637 -5643 5646 0
-5644 5646 0
-5637 -5644 0
-5638 5647 0
-5645 5647 0
-5638 -5645 5648 0
-5646 5648 0
-5638 -5646 0
-5639 5649 0
-5647 5649 0
-5639 -5647 5650 0
-5648 5650 0
-5639 -5648 0
-5640 5651 0
-5649 5651 0
-5640 -5649 5652 0
-5650 5652 0
-5640 -5650 0
-5641 5653 0
-5651 5653 0
-5641 -5651 5654 0
-5652 5654 0
-5641 -5652 0
-5642 -5654 0
-5657 298 299 300 0
-298 5657 0
-299 5657 0
-300 5657 0
-5658 305 306 307 0
-305 5658 0
-306 5658 0
-307 5658 0
-5659 312 313 314 0
-312 5659 0
-313 5659 0
-314 5659 0
-5660 319 320 321 0
-319 5660 0
-320 5660 0
-321 5660 0
-5661 326 327 328 0
-326 5661 0
-327 5661 0
-328 5661 0
-5662 333 334 335 0
-333 5662 0
-334 5662 0
-335 5662 0
-5663 340 341 342 0
-340 5663 0
-341 5663 0
-342 5663 0
-5657 5664 0
-5665 0
-5666 0
-5658 5667 0
-5664 5667 0
-5658 -5664 5668 0
-5665 5668 0
-5658 -5665 5669 0
-5666 5669 0
-5658 -5666 0
-5659 5670 0
-5667 5670 0
-5659 -5667 5671 0
-5668 5671 0
-5659 -5668 5672 0
-5669 5672 0
-5659 -5669 0
-5660 5673 0
-5670 5673 0
-5660 -5670 5674 0
-5671 5674 0
-5660 -5671 5675 0
-5672 5675 0
-5660 -5672 0
-5661 5676 0
-5673 5676 0
-5661 -5673 5677 0
-5674 5677 0
-5661 -5674 5678 0
-5675 5678 0
-5661 -5675 0
-5662 5679 0
-5676 5679 0
-5662 -5676 5680 0
-5677 5680 0
-5662 -5677 5681 0
-5678 5681 0
-5662 -5678 0
-5663 -5681 0
-5685 298 299 300 301 0
-298 5685 0
-299 5685 0
-300 5685 0
-301 5685 0
-5686 305 306 307 308 0
-305 5686 0
-306 5686 0
-307 5686 0
-308 5686 0
-5687 312 313 314 315 0
-312 5687 0
-313 5687 0
-314 5687 0
-315 5687 0
-5688 319 320 321 322 0
-319 5688 0
-320 5688 0
-321 5688 0
-322 5688 0
-5689 326 327 328 329 0
-326 5689 0
-327 5689 0
-328 5689 0
-329 5689 0
-5690 333 334 335 336 0
-333 5690 0
-334 5690 0
-335 5690 0
-336 5690 0
-5691 340 341 342 343 0
-340 5691 0
-341 5691 0
-342 5691 0
-343 5691 0
-5685 5692 0
-5693 0
-5694 0
-5695 0
-5686 5696 0
-5692 5696 0
-5686 -5692 5697 0
-5693 5697 0
-5686 -5693 5698 0
-5694 5698 0
-5686 -5694 5699 0
-5695 5699 0
-5686 -5695 0
-5687 5700 0
-5696 5700 0
-5687 -5696 5701 0
-5697 5701 0
-5687 -5697 5702 0
-5698 5702 0
-5687 -5698 5703 0
-5699 5703 0
-5687 -5699 0
-5688 5704 0
-5700 5704 0
-5688 -5700 5705 0
-5701 5705 0
-5688 -5701 5706 0
-5702 5706 0
-5688 -5702 5707 0
-5703 5707 0
-5688 -5703 0
-5689 5708 0
-5704 5708 0
-5689 -5704 5709 0
-5705 5709 0
-5689 -5705 5710 0
-5706 5710 0
-5689 -5706 5711 0
-5707 5711 0
-5689 -5707 0
-5690 5712 0
-5708 5712 0
-5690 -5708 5713 0
-5709 5713 0
-5690 -5709 5714 0
-5710 5714 0
-5690 -5710 5715 0
-5711 5715 0
-5690 -5711 0
-5691 -5715 0
-5720 299 0
-299 5720 0
-5721 306 0
-306 5721 0
-5722 313 0
-313 5722 0
-5723 320 0
-320 5723 0
-5724 327 0
-327 5724 0
-5725 334 0
-334 5725 0
-5726 341 0
-341 5726 0
-5720 5727 0
-5721 5728 0
-5727 5728 0
-5721 -5727 0
-5722 5729 0
-5728 5729 0
-5722 -5728 0
-5723 5730 0
-5729 5730 0
-5723 -5729 0
-5724 5731 0
-5730 5731 0
-5724 -5730 0
-5725 5732 0
-5731 5732 0
-5725 -5731 0
-5726 -5732 0
-5734 299 300 0
-299 5734 0
-300 5734 0
-5735 306 307 0
-306 5735 0
-307 5735 0
-5736 313 314 0
-313 5736 0
-314 5736 0
-5737 320 321 0
-320 5737 0
-321 5737 0
-5738 327 328 0
-327 5738 0
-328 5738 0
-5739 334 335 0
-334 5739 0
-335 5739 0
-5740 341 342 0
-341 5740 0
-342 5740 0
-5734 5741 0
-5742 0
-5735 5743 0
-5741 5743 0
-5735 -5741 5744 0
-5742 5744 0
-5735 -5742 0
-5736 5745 0
-5743 5745 0
-5736 -5743 5746 0
-5744 5746 0
-5736 -5744 0
-5737 5747 0
-5745 5747 0
-5737 -5745 5748 0
-5746 5748 0
-5737 -5746 0
-5738 5749 0
-5747 5749 0
-5738 -5747 5750 0
-5748 5750 0
-5738 -5748 0
-5739 5751 0
-5749 5751 0
-5739 -5749 5752 0
-5750 5752 0
-5739 -5750 0
-5740 -5752 0
-5755 299 300 301 0
-299 5755 0
-300 5755 0
-301 5755 0
-5756 306 307 308 0
-306 5756 0
-307 5756 0
-308 5756 0
-5757 313 314 315 0
-313 5757 0
-314 5757 0
-315 5757 0
-5758 320 321 322 0
-320 5758 0
-321 5758 0
-322 5758 0
-5759 327 328 329 0
-327 5759 0
-328 5759 0
-329 5759 0
-5760 334 335 336 0
-334 5760 0
-335 5760 0
-336 5760 0
-5761 341 342 343 0
-341 5761 0
-342 5761 0
-343 5761 0
-5755 5762 0
-5763 0
-5764 0
-5756 5765 0
-5762 5765 0
-5756 -5762 5766 0
-5763 5766 0
-5756 -5763 5767 0
-5764 5767 0
-5756 -5764 0
-5757 5768 0
-5765 5768 0
-5757 -5765 5769 0
-5766 5769 0
-5757 -5766 5770 0
-5767 5770 0
-5757 -5767 0
-5758 5771 0
-5768 5771 0
-5758 -5768 5772 0
-5769 5772 0
-5758 -5769 5773 0
-5770 5773 0
-5758 -5770 0
-5759 5774 0
-5771 5774 0
-5759 -5771 5775 0
-5772 5775 0
-5759 -5772 5776 0
-5773 5776 0
-5759 -5773 0
-5760 5777 0
-5774 5777 0
-5760 -5774 5778 0
-5775 5778 0
-5760 -5775 5779 0
-5776 5779 0
-5760 -5776 0
-5761 -5779 0
-5783 300 0
-300 5783 0
-5784 307 0
-307 5784 0
-5785 314 0
-314 5785 0
-5786 321 0
-321 5786 0
-5787 328 0
-328 5787 0
-5788 335 0
-335 5788 0
-5789 342 0
-342 5789 0
-5783 5790 0
-5784 5791 0
-5790 5791 0
-5784 -5790 0
-5785 5792 0
-5791 5792 0
-5785 -5791 0
-5786 5793 0
-5792 5793 0
-5786 -5792 0
-5787 5794 0
-5793 5794 0
-5787 -5793 0
-5788 5795 0
-5794 5795 0
-5788 -5794 0
-5789 -5795 0
-5797 300 301 0
-300 5797 0
-301 5797 0
-5798 307 308 0
-307 5798 0
-308 5798 0
-5799 314 315 0
-314 5799 0
-315 5799 0
-5800 321 322 0
-321 5800 0
-322 5800 0
-5801 328 329 0
-328 5801 0
-329 5801 0
-5802 335 336 0
-335 5802 0
-336 5802 0
-5803 342 343 0
-342 5803 0
-343 5803 0
-5797 5804 0
-5805 0
-5798 5806 0
-5804 5806 0
-5798 -5804 5807 0
-5805 5807 0
-5798 -5805 0
-5799 5808 0
-5806 5808 0
-5799 -5806 5809 0
-5807 5809 0
-5799 -5807 0
-5800 5810 0
-5808 5810 0
-5800 -5808 5811 0
-5809 5811 0
-5800 -5809 0
-5801 5812 0
-5810 5812 0
-5801 -5810 5813 0
-5811 5813 0
-5801 -5811 0
-5802 5814 0
-5812 5814 0
-5802 -5812 5815 0
-5813 5815 0
-5802 -5813 0
-5803 -5815 0
-5818 301 0
-301 5818 0
-5819 308 0
-308 5819 0
-5820 315 0
-315 5820 0
-5821 322 0
-322 5821 0
-5822 329 0
-329 5822 0
-5823 336 0
-336 5823 0
-5824 343 0
-343 5824 0
-5818 5825 0
-5819 5826 0
-5825 5826 0
-5819 -5825 0
-5820 5827 0
-5826 5827 0
-5820 -5826 0
-5821 5828 0
-5827 5828 0
-5821 -5827 0
-5822 5829 0
-5828 5829 0
-5822 -5828 0
-5823 5830 0
-5829 5830 0
-5823 -5829 0
-5824 -5830 0
-5832 1 0
-1 5832 0
-5833 50 0
-50 5833 0
-5834 99 0
-99 5834 0
-5835 148 0
-148 5835 0
-5836 197 0
-197 5836 0
-5837 246 0
-246 5837 0
-5838 295 0
-295 5838 0
-5832 5839 0
-5833 5840 0
-5839 5840 0
-5833 -5839 0
-5834 5841 0
-5840 5841 0
-5834 -5840 0
-5835 5842 0
-5841 5842 0
-5835 -5841 0
-5836 5843 0
-5842 5843 0
-5836 -5842 0
-5837 5844 0
-5843 5844 0
-5837 -5843 0
-5838 -5844 0
-5846 1 2 0
-1 5846 0
-2 5846 0
-5847 50 51 0
-50 5847 0
-51 5847 0
-5848 99 100 0
-99 5848 0
-100 5848 0
-5849 148 149 0
-148 5849 0
-149 5849 0
-5850 197 198 0
-197 5850 0
-198 5850 0
-5851 246 247 0
-246 5851 0
-247 5851 0
-5852 295 296 0
-295 5852 0
-296 5852 0
-5846 5853 0
-5854 0
-5847 5855 0
-5853 5855 0
-5847 -5853 5856 0
-5854 5856 0
-5847 -5854 0
-5848 5857 0
-5855 5857 0
-5848 -5855 5858 0
-5856 5858 0
-5848 -5856 0
-5849 5859 0
-5857 5859 0
-5849 -5857 5860 0
-5858 5860 0
-5849 -5858 0
-5850 5861 0
-5859 5861 0
-5850 -5859 5862 0
-5860 5862 0
-5850 -5860 0
-5851 5863 0
-5861 5863 0
-5851 -5861 5864 0
-5862 5864 0
-5851 -5862 0
-5852 -5864 0
-5867 1 2 3 0
-1 5867 0
-2 5867 0
-3 5867 0
-5868 50 51 52 0
-50 5868 0
-51 5868 0
-52 5868 0
-5869 99 100 101 0
-99 5869 0
-100 5869 0
-101 5869 0
-5870 148 149 150 0
-148 5870 0
-149 5870 0
-150 5870 0
-5871 197 198 199 0
-197 5871 0
-198 5871 0
-199 5871 0
-5872 246 247 248 0
-246 5872 0
-247 5872 0
-248 5872 0
-5873 295 296 297 0
-295 5873 0
-296 5873 0
-297 5873 0
-5867 5874 0
-5875 0
-5876 0
-5868 5877 0
-5874 5877 0
-5868 -5874 5878 0
-5875 5878 0
-5868 -5875 5879 0
-5876 5879 0
-5868 -5876 0
-5869 5880 0
-5877 5880 0
-5869 -5877 5881 0
-5878 5881 0
-5869 -5878 5882 0
-5879 5882 0
-5869 -5879 0
-5870 5883 0
-5880 5883 0
-5870 -5880 5884 0
-5881 5884 0
-5870 -5881 5885 0
-5882 5885 0
-5870 -5882 0
-5871 5886 0
-5883 5886 0
-5871 -5883 5887 0
-5884 5887 0
-5871 -5884 5888 0
-5885 5888 0
-5871 -5885 0
-5872 5889 0
-5886 5889 0
-5872 -5886 5890 0
-5887 5890 0
-5872 -5887 5891 0
-5888 5891 0
-5872 -5888 0
-5873 -5891 0
-5895 1 2 3 4 0
-1 5895 0
-2 5895 0
-3 5895 0
-4 5895 0
-5896 50 51 52 53 0
-50 5896 0
-51 5896 0
-52 5896 0
-53 5896 0
-5897 99 100 101 102 0
-99 5897 0
-100 5897 0
-101 5897 0
-102 5897 0
-5898 148 149 150 151 0
-148 5898 0
-149 5898 0
-150 5898 0
-151 5898 0
-5899 197 198 199 200 0
-197 5899 0
-198 5899 0
-199 5899 0
-200 5899 0
-5900 246 247 248 249 0
-246 5900 0
-247 5900 0
-248 5900 0
-249 5900 0
-5901 295 296 297 298 0
-295 5901 0
-296 5901 0
-297 5901 0
-298 5901 0
-5895 5902 0
-5903 0
-5904 0
-5905 0
-5896 5906 0
-5902 5906 0
-5896 -5902 5907 0
-5903 5907 0
-5896 -5903 5908 0
-5904 5908 0
-5896 -5904 5909 0
-5905 5909 0
-5896 -5905 0
-5897 5910 0
-5906 5910 0
-5897 -5906 5911 0
-5907 5911 0
-5897 -5907 5912 0
-5908 5912 0
-5897 -5908 5913 0
-5909 5913 0
-5897 -5909 0
-5898 5914 0
-5910 5914 0
-5898 -5910 5915 0
-5911 5915 0
-5898 -5911 5916 0
-5912 5916 0
-5898 -5912 5917 0
-5913 5917 0
-5898 -5913 0
-5899 5918 0
-5914 5918 0
-5899 -5914 5919 0
-5915 5919 0
-5899 -5915 5920 0
-5916 5920 0
-5899 -5916 5921 0
-5917 5921 0
-5899 -5917 0
-5900 5922 0
-5918 5922 0
-5900 -5918 5923 0
-5919 5923 0
-5900 -5919 5924 0
-5920 5924 0
-5900 -5920 5925 0
-5921 5925 0
-5900 -5921 0
-5901 -5925 0
-5930 1 2 3 4 5 0
-1 5930 0
-2 5930 0
-3 5930 0
-4 5930 0
-5 5930 0
-5931 50 51 52 53 54 0
-50 5931 0
-51 5931 0
-52 5931 0
-53 5931 0
-54 5931 0
-5932 99 100 101 102 103 0
-99 5932 0
-100 5932 0
-101 5932 0
-102 5932 0
-103 5932 0
-5933 148 149 150 151 152 0
-148 5933 0
-149 5933 0
-150 5933 0
-151 5933 0
-152 5933 0
-5934 197 198 199 200 201 0
-197 5934 0
-198 5934 0
-199 5934 0
-200 5934 0
-201 5934 0
-5935 246 247 248 249 250 0
-246 5935 0
-247 5935 0
-248 5935 0
-249 5935 0
-250 5935 0
-5936 295 296 297 298 299 0
-295 5936 0
-296 5936 0
-297 5936 0
-298 5936 0
-299 5936 0
-5930 5937 0
-5938 0
-5939 0
-5940 0
-5941 0
-5931 5942 0
-5937 5942 0
-5931 -5937 5943 0
-5938 5943 0
-5931 -5938 5944 0
-5939 5944 0
-5931 -5939 5945 0
-5940 5945 0
-5931 -5940 5946 0
-5941 5946 0
-5931 -5941 0
-5932 5947 0
-5942 5947 0
-5932 -5942 5948 0
-5943 5948 0
-5932 -5943 5949 0
-5944 5949 0
-5932 -5944 5950 0
-5945 5950 0
-5932 -5945 5951 0
-5946 5951 0
-5932 -5946 0
-5933 5952 0
-5947 5952 0
-5933 -5947 5953 0
-5948 5953 0
-5933 -5948 5954 0
-5949 5954 0
-5933 -5949 5955 0
-5950 5955 0
-5933 -5950 5956 0
-5951 5956 0
-5933 -5951 0
-5934 5957 0
-5952 5957 0
-5934 -5952 5958 0
-5953 5958 0
-5934 -5953 5959 0
-5954 5959 0
-5934 -5954 5960 0
-5955 5960 0
-5934 -5955 5961 0
-5956 5961 0
-5934 -5956 0
-5935 5962 0
-5957 5962 0
-5935 -5957 5963 0
-5958 5963 0
-5935 -5958 5964 0
-5959 5964 0
-5935 -5959 5965 0
-5960 5965 0
-5935 -5960 5966 0
-5961 5966 0
-5935 -5961 0
-5936 -5966 0
-5972 1 2 3 4 5 6 0
-1 5972 0
-2 5972 0
-3 5972 0
-4 5972 0
-5 5972 0
-6 5972 0
-5973 50 51 52 53 54 55 0
-50 5973 0
-51 5973 0
-52 5973 0
-53 5973 0
-54 5973 0
-55 5973 0
-5974 99 100 101 102 103 104 0
-99 5974 0
-100 5974 0
-101 5974 0
-102 5974 0
-103 5974 0
-104 5974 0
-5975 148 149 150 151 152 153 0
-148 5975 0
-149 5975 0
-150 5975 0
-151 5975 0
-152 5975 0
-153 5975 0
-5976 197 198 199 200 201 202 0
-197 5976 0
-198 5976 0
-199 5976 0
-200 5976 0
-201 5976 0
-202 5976 0
-5977 246 247 248 249 250 251 0
-246 5977 0
-247 5977 0
-248 5977 0
-249 5977 0
-250 5977 0
-251 5977 0
-5978 295 296 297 298 299 300 0
-295 5978 0
-296 5978 0
-297 5978 0
-298 5978 0
-299 5978 0
-300 5978 0
-5972 5979 0
-5980 0
-5981 0
-5982 0
-5983 0
-5984 0
-5973 5985 0
-5979 5985 0
-5973 -5979 5986 0
-5980 5986 0
-5973 -5980 5987 0
-5981 5987 0
-5973 -5981 5988 0
-5982 5988 0
-5973 -5982 5989 0
-5983 5989 0
-5973 -5983 5990 0
-5984 5990 0
-5973 -5984 0
-5974 5991 0
-5985 5991 0
-5974 -5985 5992 0
-5986 5992 0
-5974 -5986 5993 0
-5987 5993 0
-5974 -5987 5994 0
-5988 5994 0
-5974 -5988 5995 0
-5989 5995 0
-5974 -5989 5996 0
-5990 5996 0
-5974 -5990 0
-5975 5997 0
-5991 5997 0
-5975 -5991 5998 0
-5992 5998 0
-5975 -5992 5999 0
-5993 5999 0
-5975 -5993 6000 0
-5994 6000 0
-5975 -5994 6001 0
-5995 6001 0
-5975 -5995 6002 0
-5996 6002 0
-5975 -5996 0
-5976 6003 0
-5997 6003 0
-5976 -5997 6004 0
-5998 6004 0
-5976 -5998 6005 0
-5999 6005 0
-5976 -5999 6006 0
-6000 6006 0
-5976 -6000 6007 0
-6001 6007 0
-5976 -6001 6008 0
-6002 6008 0
-5976 -6002 0
-5977 6009 0
-6003 6009 0
-5977 -6003 6010 0
-6004 6010 0
-5977 -6004 6011 0
-6005 6011 0
-5977 -6005 6012 0
-6006 6012 0
-5977 -6006 6013 0
-6007 6013 0
-5977 -6007 6014 0
-6008 6014 0
-5977 -6008 0
-5978 -6014 0
-6021 1 2 3 4 5 6 7 0
-1 6021 0
-2 6021 0
-3 6021 0
-4 6021 0
-5 6021 0
-6 6021 0
-7 6021 0
-6022 50 51 52 53 54 55 56 0
-50 6022 0
-51 6022 0
-52 6022 0
-53 6022 0
-54 6022 0
-55 6022 0
-56 6022 0
-6023 99 100 101 102 103 104 105 0
-99 6023 0
-100 6023 0
-101 6023 0
-102 6023 0
-103 6023 0
-104 6023 0
-105 6023 0
-6024 148 149 150 151 152 153 154 0
-148 6024 0
-149 6024 0
-150 6024 0
-151 6024 0
-152 6024 0
-153 6024 0
-154 6024 0
-6025 197 198 199 200 201 202 203 0
-197 6025 0
-198 6025 0
-199 6025 0
-200 6025 0
-201 6025 0
-202 6025 0
-203 6025 0
-6026 246 247 248 249 250 251 252 0
-246 6026 0
-247 6026 0
-248 6026 0
-249 6026 0
-250 6026 0
-251 6026 0
-252 6026 0
-6027 295 296 297 298 299 300 301 0
-295 6027 0
-296 6027 0
-297 6027 0
-298 6027 0
-299 6027 0
-300 6027 0
-301 6027 0
-6028 2 0
-2 6028 0
-6029 51 0
-51 6029 0
-6030 100 0
-100 6030 0
-6031 149 0
-149 6031 0
-6032 198 0
-198 6032 0
-6033 247 0
-247 6033 0
-6034 296 0
-296 6034 0
-6028 6035 0
-6029 6036 0
-6035 6036 0
-6029 -6035 0
-6030 6037 0
-6036 6037 0
-6030 -6036 0
-6031 6038 0
-6037 6038 0
-6031 -6037 0
-6032 6039 0
-6038 6039 0
-6032 -6038 0
-6033 6040 0
-6039 6040 0
-6033 -6039 0
-6034 -6040 0
-6042 2 3 0
-2 6042 0
-3 6042 0
-6043 51 52 0
-51 6043 0
-52 6043 0
-6044 100 101 0
-100 6044 0
-101 6044 0
-6045 149 150 0
-149 6045 0
-150 6045 0
-6046 198 199 0
-198 6046 0
-199 6046 0
-6047 247 248 0
-247 6047 0
-248 6047 0
-6048 296 297 0
-296 6048 0
-297 6048 0
-6042 6049 0
-6050 0
-6043 6051 0
-6049 6051 0
-6043 -6049 6052 0
-6050 6052 0
-6043 -6050 0
-6044 6053 0
-6051 6053 0
-6044 -6051 6054 0
-6052 6054 0
-6044 -6052 0
-6045 6055 0
-6053 6055 0
-6045 -6053 6056 0
-6054 6056 0
-6045 -6054 0
-6046 6057 0
-6055 6057 0
-6046 -6055 6058 0
-6056 6058 0
-6046 -6056 0
-6047 6059 0
-6057 6059 0
-6047 -6057 6060 0
-6058 6060 0
-6047 -6058 0
-6048 -6060 0
-6063 2 3 4 0
-2 6063 0
-3 6063 0
-4 6063 0
-6064 51 52 53 0
-51 6064 0
-52 6064 0
-53 6064 0
-6065 100 101 102 0
-100 6065 0
-101 6065 0
-102 6065 0
-6066 149 150 151 0
-149 6066 0
-150 6066 0
-151 6066 0
-6067 198 199 200 0
-198 6067 0
-199 6067 0
-200 6067 0
-6068 247 248 249 0
-247 6068 0
-248 6068 0
-249 6068 0
-6069 296 297 298 0
-296 6069 0
-297 6069 0
-298 6069 0
-6063 6070 0
-6071 0
-6072 0
-6064 6073 0
-6070 6073 0
-6064 -6070 6074 0
-6071 6074 0
-6064 -6071 6075 0
-6072 6075 0
-6064 -6072 0
-6065 6076 0
-6073 6076 0
-6065 -6073 6077 0
-6074 6077 0
-6065 -6074 6078 0
-6075 6078 0
-6065 -6075 0
-6066 6079 0
-6076 6079 0
-6066 -6076 6080 0
-6077 6080 0
-6066 -6077 6081 0
-6078 6081 0
-6066 -6078 0
-6067 6082 0
-6079 6082 0
-6067 -6079 6083 0
-6080 6083 0
-6067 -6080 6084 0
-6081 6084 0
-6067 -6081 0
-6068 6085 0
-6082 6085 0
-6068 -6082 6086 0
-6083 6086 0
-6068 -6083 6087 0
-6084 6087 0
-6068 -6084 0
-6069 -6087 0
-6091 2 3 4 5 0
-2 6091 0
-3 6091 0
-4 6091 0
-5 6091 0
-6092 51 52 53 54 0
-51 6092 0
-52 6092 0
-53 6092 0
-54 6092 0
-6093 100 101 102 103 0
-100 6093 0
-101 6093 0
-102 6093 0
-103 6093 0
-6094 149 150 151 152 0
-149 6094 0
-150 6094 0
-151 6094 0
-152 6094 0
-6095 198 199 200 201 0
-198 6095 0
-199 6095 0
-200 6095 0
-201 6095 0
-6096 247 248 249 250 0
-247 6096 0
-248 6096 0
-249 6096 0
-250 6096 0
-6097 296 297 298 299 0
-296 6097 0
-297 6097 0
-298 6097 0
-299 6097 0
-6091 6098 0
-6099 0
-6100 0
-6101 0
-6092 6102 0
-6098 6102 0
-6092 -6098 6103 0
-6099 6103 0
-6092 -6099 6104 0
-6100 6104 0
-6092 -6100 6105 0
-6101 6105 0
-6092 -6101 0
-6093 6106 0
-6102 6106 0
-6093 -6102 6107 0
-6103 6107 0
-6093 -6103 6108 0
-6104 6108 0
-6093 -6104 6109 0
-6105 6109 0
-6093 -6105 0
-6094 6110 0
-6106 6110 0
-6094 -6106 6111 0
-6107 6111 0
-6094 -6107 6112 0
-6108 6112 0
-6094 -6108 6113 0
-6109 6113 0
-6094 -6109 0
-6095 6114 0
-6110 6114 0
-6095 -6110 6115 0
-6111 6115 0
-6095 -6111 6116 0
-6112 6116 0
-6095 -6112 6117 0
-6113 6117 0
-6095 -6113 0
-6096 6118 0
-6114 6118 0
-6096 -6114 6119 0
-6115 6119 0
-6096 -6115 6120 0
-6116 6120 0
-6096 -6116 6121 0
-6117 6121 0
-6096 -6117 0
-6097 -6121 0
-6126 2 3 4 5 6 0
-2 6126 0
-3 6126 0
-4 6126 0
-5 6126 0
-6 6126 0
-6127 51 52 53 54 55 0
-51 6127 0
-52 6127 0
-53 6127 0
-54 6127 0
-55 6127 0
-6128 100 101 102 103 104 0
-100 6128 0
-101 6128 0
-102 6128 0
-103 6128 0
-104 6128 0
-6129 149 150 151 152 153 0
-149 6129 0
-150 6129 0
-151 6129 0
-152 6129 0
-153 6129 0
-6130 198 199 200 201 202 0
-198 6130 0
-199 6130 0
-200 6130 0
-201 6130 0
-202 6130 0
-6131 247 248 249 250 251 0
-247 6131 0
-248 6131 0
-249 6131 0
-250 6131 0
-251 6131 0
-6132 296 297 298 299 300 0
-296 6132 0
-297 6132 0
-298 6132 0
-299 6132 0
-300 6132 0
-6126 6133 0
-6134 0
-6135 0
-6136 0
-6137 0
-6127 6138 0
-6133 6138 0
-6127 -6133 6139 0
-6134 6139 0
-6127 -6134 6140 0
-6135 6140 0
-6127 -6135 6141 0
-6136 6141 0
-6127 -6136 6142 0
-6137 6142 0
-6127 -6137 0
-6128 6143 0
-6138 6143 0
-6128 -6138 6144 0
-6139 6144 0
-6128 -6139 6145 0
-6140 6145 0
-6128 -6140 6146 0
-6141 6146 0
-6128 -6141 6147 0
-6142 6147 0
-6128 -6142 0
-6129 6148 0
-6143 6148 0
-6129 -6143 6149 0
-6144 6149 0
-6129 -6144 6150 0
-6145 6150 0
-6129 -6145 6151 0
-6146 6151 0
-6129 -6146 6152 0
-6147 6152 0
-6129 -6147 0
-6130 6153 0
-6148 6153 0
-6130 -6148 6154 0
-6149 6154 0
-6130 -6149 6155 0
-6150 6155 0
-6130 -6150 6156 0
-6151 6156 0
-6130 -6151 6157 0
-6152 6157 0
-6130 -6152 0
-6131 6158 0
-6153 6158 0
-6131 -6153 6159 0
-6154 6159 0
-6131 -6154 6160 0
-6155 6160 0
-6131 -6155 6161 0
-6156 6161 0
-6131 -6156 6162 0
-6157 6162 0
-6131 -6157 0
-6132 -6162 0
-6168 2 3 4 5 6 7 0
-2 6168 0
-3 6168 0
-4 6168 0
-5 6168 0
-6 6168 0
-7 6168 0
-6169 51 52 53 54 55 56 0
-51 6169 0
-52 6169 0
-53 6169 0
-54 6169 0
-55 6169 0
-56 6169 0
-6170 100 101 102 103 104 105 0
-100 6170 0
-101 6170 0
-102 6170 0
-103 6170 0
-104 6170 0
-105 6170 0
-6171 149 150 151 152 153 154 0
-149 6171 0
-150 6171 0
-151 6171 0
-152 6171 0
-153 6171 0
-154 6171 0
-6172 198 199 200 201 202 203 0
-198 6172 0
-199 6172 0
-200 6172 0
-201 6172 0
-202 6172 0
-203 6172 0
-6173 247 248 249 250 251 252 0
-247 6173 0
-248 6173 0
-249 6173 0
-250 6173 0
-251 6173 0
-252 6173 0
-6174 296 297 298 299 300 301 0
-296 6174 0
-297 6174 0
-298 6174 0
-299 6174 0
-300 6174 0
-301 6174 0
-6168 6175 0
-6176 0
-6177 0
-6178 0
-6179 0
-6180 0
-6169 6181 0
-6175 6181 0
-6169 -6175 6182 0
-6176 6182 0
-6169 -6176 6183 0
-6177 6183 0
-6169 -6177 6184 0
-6178 6184 0
-6169 -6178 6185 0
-6179 6185 0
-6169 -6179 6186 0
-6180 6186 0
-6169 -6180 0
-6170 6187 0
-6181 6187 0
-6170 -6181 6188 0
-6182 6188 0
-6170 -6182 6189 0
-6183 6189 0
-6170 -6183 6190 0
-6184 6190 0
-6170 -6184 6191 0
-6185 6191 0
-6170 -6185 6192 0
-6186 6192 0
-6170 -6186 0
-6171 6193 0
-6187 6193 0
-6171 -6187 6194 0
-6188 6194 0
-6171 -6188 6195 0
-6189 6195 0
-6171 -6189 6196 0
-6190 6196 0
-6171 -6190 6197 0
-6191 6197 0
-6171 -6191 6198 0
-6192 6198 0
-6171 -6192 0
-6172 6199 0
-6193 6199 0
-6172 -6193 6200 0
-6194 6200 0
-6172 -6194 6201 0
-6195 6201 0
-6172 -6195 6202 0
-6196 6202 0
-6172 -6196 6203 0
-6197 6203 0
-6172 -6197 6204 0
-6198 6204 0
-6172 -6198 0
-6173 6205 0
-6199 6205 0
-6173 -6199 6206 0
-6200 6206 0
-6173 -6200 6207 0
-6201 6207 0
-6173 -6201 6208 0
-6202 6208 0
-6173 -6202 6209 0
-6203 6209 0
-6173 -6203 6210 0
-6204 6210 0
-6173 -6204 0
-6174 -6210 0
-6217 3 0
-3 6217 0
-6218 52 0
-52 6218 0
-6219 101 0
-101 6219 0
-6220 150 0
-150 6220 0
-6221 199 0
-199 6221 0
-6222 248 0
-248 6222 0
-6223 297 0
-297 6223 0
-6217 6224 0
-6218 6225 0
-6224 6225 0
-6218 -6224 0
-6219 6226 0
-6225 6226 0
-6219 -6225 0
-6220 6227 0
-6226 6227 0
-6220 -6226 0
-6221 6228 0
-6227 6228 0
-6221 -6227 0
-6222 6229 0
-6228 6229 0
-6222 -6228 0
-6223 -6229 0
-6231 3 4 0
-3 6231 0
-4 6231 0
-6232 52 53 0
-52 6232 0
-53 6232 0
-6233 101 102 0
-101 6233 0
-102 6233 0
-6234 150 151 0
-150 6234 0
-151 6234 0
-6235 199 200 0
-199 6235 0
-200 6235 0
-6236 248 249 0
-248 6236 0
-249 6236 0
-6237 297 298 0
-297 6237 0
-298 6237 0
-6231 6238 0
-6239 0
-6232 6240 0
-6238 6240 0
-6232 -6238 6241 0
-6239 6241 0
-6232 -6239 0
-6233 6242 0
-6240 6242 0
-6233 -6240 6243 0
-6241 6243 0
-6233 -6241 0
-6234 6244 0
-6242 6244 0
-6234 -6242 6245 0
-6243 6245 0
-6234 -6243 0
-6235 6246 0
-6244 6246 0
-6235 -6244 6247 0
-6245 6247 0
-6235 -6245 0
-6236 6248 0
-6246 6248 0
-6236 -6246 6249 0
-6247 6249 0
-6236 -6247 0
-6237 -6249 0
-6252 3 4 5 0
-3 6252 0
-4 6252 0
-5 6252 0
-6253 52 53 54 0
-52 6253 0
-53 6253 0
-54 6253 0
-6254 101 102 103 0
-101 6254 0
-102 6254 0
-103 6254 0
-6255 150 151 152 0
-150 6255 0
-151 6255 0
-152 6255 0
-6256 199 200 201 0
-199 6256 0
-200 6256 0
-201 6256 0
-6257 248 249 250 0
-248 6257 0
-249 6257 0
-250 6257 0
-6258 297 298 299 0
-297 6258 0
-298 6258 0
-299 6258 0
-6252 6259 0
-6260 0
-6261 0
-6253 6262 0
-6259 6262 0
-6253 -6259 6263 0
-6260 6263 0
-6253 -6260 6264 0
-6261 6264 0
-6253 -6261 0
-6254 6265 0
-6262 6265 0
-6254 -6262 6266 0
-6263 6266 0
-6254 -6263 6267 0
-6264 6267 0
-6254 -6264 0
-6255 6268 0
-6265 6268 0
-6255 -6265 6269 0
-6266 6269 0
-6255 -6266 6270 0
-6267 6270 0
-6255 -6267 0
-6256 6271 0
-6268 6271 0
-6256 -6268 6272 0
-6269 6272 0
-6256 -6269 6273 0
-6270 6273 0
-6256 -6270 0
-6257 6274 0
-6271 6274 0
-6257 -6271 6275 0
-6272 6275 0
-6257 -6272 6276 0
-6273 6276 0
-6257 -6273 0
-6258 -6276 0
-6280 3 4 5 6 0
-3 6280 0
-4 6280 0
-5 6280 0
-6 6280 0
-6281 52 53 54 55 0
-52 6281 0
-53 6281 0
-54 6281 0
-55 6281 0
-6282 101 102 103 104 0
-101 6282 0
-102 6282 0
-103 6282 0
-104 6282 0
-6283 150 151 152 153 0
-150 6283 0
-151 6283 0
-152 6283 0
-153 6283 0
-6284 199 200 201 202 0
-199 6284 0
-200 6284 0
-201 6284 0
-202 6284 0
-6285 248 249 250 251 0
-248 6285 0
-249 6285 0
-250 6285 0
-251 6285 0
-6286 297 298 299 300 0
-297 6286 0
-298 6286 0
-299 6286 0
-300 6286 0
-6280 6287 0
-6288 0
-6289 0
-6290 0
-6281 6291 0
-6287 6291 0
-6281 -6287 6292 0
-6288 6292 0
-6281 -6288 6293 0
-6289 6293 0
-6281 -6289 6294 0
-6290 6294 0
-6281 -6290 0
-6282 6295 0
-6291 6295 0
-6282 -6291 6296 0
-6292 6296 0
-6282 -6292 6297 0
-6293 6297 0
-6282 -6293 6298 0
-6294 6298 0
-6282 -6294 0
-6283 6299 0
-6295 6299 0
-6283 -6295 6300 0
-6296 6300 0
-6283 -6296 6301 0
-6297 6301 0
-6283 -6297 6302 0
-6298 6302 0
-6283 -6298 0
-6284 6303 0
-6299 6303 0
-6284 -6299 6304 0
-6300 6304 0
-6284 -6300 6305 0
-6301 6305 0
-6284 -6301 6306 0
-6302 6306 0
-6284 -6302 0
-6285 6307 0
-6303 6307 0
-6285 -6303 6308 0
-6304 6308 0
-6285 -6304 6309 0
-6305 6309 0
-6285 -6305 6310 0
-6306 6310 0
-6285 -6306 0
-6286 -6310 0
-6315 3 4 5 6 7 0
-3 6315 0
-4 6315 0
-5 6315 0
-6 6315 0
-7 6315 0
-6316 52 53 54 55 56 0
-52 6316 0
-53 6316 0
-54 6316 0
-55 6316 0
-56 6316 0
-6317 101 102 103 104 105 0
-101 6317 0
-102 6317 0
-103 6317 0
-104 6317 0
-105 6317 0
-6318 150 151 152 153 154 0
-150 6318 0
-151 6318 0
-152 6318 0
-153 6318 0
-154 6318 0
-6319 199 200 201 202 203 0
-199 6319 0
-200 6319 0
-201 6319 0
-202 6319 0
-203 6319 0
-6320 248 249 250 251 252 0
-248 6320 0
-249 6320 0
-250 6320 0
-251 6320 0
-252 6320 0
-6321 297 298 299 300 301 0
-297 6321 0
-298 6321 0
-299 6321 0
-300 6321 0
-301 6321 0
-6315 6322 0
-6323 0
-6324 0
-6325 0
-6326 0
-6316 6327 0
-6322 6327 0
-6316 -6322 6328 0
-6323 6328 0
-6316 -6323 6329 0
-6324 6329 0
-6316 -6324 6330 0
-6325 6330 0
-6316 -6325 6331 0
-6326 6331 0
-6316 -6326 0
-6317 6332 0
-6327 6332 0
-6317 -6327 6333 0
-6328 6333 0
-6317 -6328 6334 0
-6329 6334 0
-6317 -6329 6335 0
-6330 6335 0
-6317 -6330 6336 0
-6331 6336 0
-6317 -6331 0
-6318 6337 0
-6332 6337 0
-6318 -6332 6338 0
-6333 6338 0
-6318 -6333 6339 0
-6334 6339 0
-6318 -6334 6340 0
-6335 6340 0
-6318 -6335 6341 0
-6336 6341 0
-6318 -6336 0
-6319 6342 0
-6337 6342 0
-6319 -6337 6343 0
-6338 6343 0
-6319 -6338 6344 0
-6339 6344 0
-6319 -6339 6345 0
-6340 6345 0
-6319 -6340 6346 0
-6341 6346 0
-6319 -6341 0
-6320 6347 0
-6342 6347 0
-6320 -6342 6348 0
-6343 6348 0
-6320 -6343 6349 0
-6344 6349 0
-6320 -6344 6350 0
-6345 6350 0
-6320 -6345 6351 0
-6346 6351 0
-6320 -6346 0
-6321 -6351 0
-6357 4 0
-4 6357 0
-6358 53 0
-53 6358 0
-6359 102 0
-102 6359 0
-6360 151 0
-151 6360 0
-6361 200 0
-200 6361 0
-6362 249 0
-249 6362 0
-6363 298 0
-298 6363 0
-6357 6364 0
-6358 6365 0
-6364 6365 0
-6358 -6364 0
-6359 6366 0
-6365 6366 0
-6359 -6365 0
-6360 6367 0
-6366 6367 0
-6360 -6366 0
-6361 6368 0
-6367 6368 0
-6361 -6367 0
-6362 6369 0
-6368 6369 0
-6362 -6368 0
-6363 -6369 0
-6371 4 5 0
-4 6371 0
-5 6371 0
-6372 53 54 0
-53 6372 0
-54 6372 0
-6373 102 103 0
-102 6373 0
-103 6373 0
-6374 151 152 0
-151 6374 0
-152 6374 0
-6375 200 201 0
-200 6375 0
-201 6375 0
-6376 249 250 0
-249 6376 0
-250 6376 0
-6377 298 299 0
-298 6377 0
-299 6377 0
-6371 6378 0
-6379 0
-6372 6380 0
-6378 6380 0
-6372 -6378 6381 0
-6379 6381 0
-6372 -6379 0
-6373 6382 0
-6380 6382 0
-6373 -6380 6383 0
-6381 6383 0
-6373 -6381 0
-6374 6384 0
-6382 6384 0
-6374 -6382 6385 0
-6383 6385 0
-6374 -6383 0
-6375 6386 0
-6384 6386 0
-6375 -6384 6387 0
-6385 6387 0
-6375 -6385 0
-6376 6388 0
-6386 6388 0
-6376 -6386 6389 0
-6387 6389 0
-6376 -6387 0
-6377 -6389 0
-6392 4 5 6 0
-4 6392 0
-5 6392 0
-6 6392 0
-6393 53 54 55 0
-53 6393 0
-54 6393 0
-55 6393 0
-6394 102 103 104 0
-102 6394 0
-103 6394 0
-104 6394 0
-6395 151 152 153 0
-151 6395 0
-152 6395 0
-153 6395 0
-6396 200 201 202 0
-200 6396 0
-201 6396 0
-202 6396 0
-6397 249 250 251 0
-249 6397 0
-250 6397 0
-251 6397 0
-6398 298 299 300 0
-298 6398 0
-299 6398 0
-300 6398 0
-6392 6399 0
-6400 0
-6401 0
-6393 6402 0
-6399 6402 0
-6393 -6399 6403 0
-6400 6403 0
-6393 -6400 6404 0
-6401 6404 0
-6393 -6401 0
-6394 6405 0
-6402 6405 0
-6394 -6402 6406 0
-6403 6406 0
-6394 -6403 6407 0
-6404 6407 0
-6394 -6404 0
-6395 6408 0
-6405 6408 0
-6395 -6405 6409 0
-6406 6409 0
-6395 -6406 6410 0
-6407 6410 0
-6395 -6407 0
-6396 6411 0
-6408 6411 0
-6396 -6408 6412 0
-6409 6412 0
-6396 -6409 6413 0
-6410 6413 0
-6396 -6410 0
-6397 6414 0
-6411 6414 0
-6397 -6411 6415 0
-6412 6415 0
-6397 -6412 6416 0
-6413 6416 0
-6397 -6413 0
-6398 -6416 0
-6420 4 5 6 7 0
-4 6420 0
-5 6420 0
-6 6420 0
-7 6420 0
-6421 53 54 55 56 0
-53 6421 0
-54 6421 0
-55 6421 0
-56 6421 0
-6422 102 103 104 105 0
-102 6422 0
-103 6422 0
-104 6422 0
-105 6422 0
-6423 151 152 153 154 0
-151 6423 0
-152 6423 0
-153 6423 0
-154 6423 0
-6424 200 201 202 203 0
-200 6424 0
-201 6424 0
-202 6424 0
-203 6424 0
-6425 249 250 251 252 0
-249 6425 0
-250 6425 0
-251 6425 0
-252 6425 0
-6426 298 299 300 301 0
-298 6426 0
-299 6426 0
-300 6426 0
-301 6426 0
-6420 6427 0
-6428 0
-6429 0
-6430 0
-6421 6431 0
-6427 6431 0
-6421 -6427 6432 0
-6428 6432 0
-6421 -6428 6433 0
-6429 6433 0
-6421 -6429 6434 0
-6430 6434 0
-6421 -6430 0
-6422 6435 0
-6431 6435 0
-6422 -6431 6436 0
-6432 6436 0
-6422 -6432 6437 0
-6433 6437 0
-6422 -6433 6438 0
-6434 6438 0
-6422 -6434 0
-6423 6439 0
-6435 6439 0
-6423 -6435 6440 0
-6436 6440 0
-6423 -6436 6441 0
-6437 6441 0
-6423 -6437 6442 0
-6438 6442 0
-6423 -6438 0
-6424 6443 0
-6439 6443 0
-6424 -6439 6444 0
-6440 6444 0
-6424 -6440 6445 0
-6441 6445 0
-6424 -6441 6446 0
-6442 6446 0
-6424 -6442 0
-6425 6447 0
-6443 6447 0
-6425 -6443 6448 0
-6444 6448 0
-6425 -6444 6449 0
-6445 6449 0
-6425 -6445 6450 0
-6446 6450 0
-6425 -6446 0
-6426 -6450 0
-6455 5 0
-5 6455 0
-6456 54 0
-54 6456 0
-6457 103 0
-103 6457 0
-6458 152 0
-152 6458 0
-6459 201 0
-201 6459 0
-6460 250 0
-250 6460 0
-6461 299 0
-299 6461 0
-6455 6462 0
-6456 6463 0
-6462 6463 0
-6456 -6462 0
-6457 6464 0
-6463 6464 0
-6457 -6463 0
-6458 6465 0
-6464 6465 0
-6458 -6464 0
-6459 6466 0
-6465 6466 0
-6459 -6465 0
-6460 6467 0
-6466 6467 0
-6460 -6466 0
-6461 -6467 0
-6469 5 6 0
-5 6469 0
-6 6469 0
-6470 54 55 0
-54 6470 0
-55 6470 0
-6471 103 104 0
-103 6471 0
-104 6471 0
-6472 152 153 0
-152 6472 0
-153 6472 0
-6473 201 202 0
-201 6473 0
-202 6473 0
-6474 250 251 0
-250 6474 0
-251 6474 0
-6475 299 300 0
-299 6475 0
-300 6475 0
-6469 6476 0
-6477 0
-6470 6478 0
-6476 6478 0
-6470 -6476 6479 0
-6477 6479 0
-6470 -6477 0
-6471 6480 0
-6478 6480 0
-6471 -6478 6481 0
-6479 6481 0
-6471 -6479 0
-6472 6482 0
-6480 6482 0
-6472 -6480 6483 0
-6481 6483 0
-6472 -6481 0
-6473 6484 0
-6482 6484 0
-6473 -6482 6485 0
-6483 6485 0
-6473 -6483 0
-6474 6486 0
-6484 6486 0
-6474 -6484 6487 0
-6485 6487 0
-6474 -6485 0
-6475 -6487 0
-6490 5 6 7 0
-5 6490 0
-6 6490 0
-7 6490 0
-6491 54 55 56 0
-54 6491 0
-55 6491 0
-56 6491 0
-6492 103 104 105 0
-103 6492 0
-104 6492 0
-105 6492 0
-6493 152 153 154 0
-152 6493 0
-153 6493 0
-154 6493 0
-6494 201 202 203 0
-201 6494 0
-202 6494 0
-203 6494 0
-6495 250 251 252 0
-250 6495 0
-251 6495 0
-252 6495 0
-6496 299 300 301 0
-299 6496 0
-300 6496 0
-301 6496 0
-6490 6497 0
-6498 0
-6499 0
-6491 6500 0
-6497 6500 0
-6491 -6497 6501 0
-6498 6501 0
-6491 -6498 6502 0
-6499 6502 0
-6491 -6499 0
-6492 6503 0
-6500 6503 0
-6492 -6500 6504 0
-6501 6504 0
-6492 -6501 6505 0
-6502 6505 0
-6492 -6502 0
-6493 6506 0
-6503 6506 0
-6493 -6503 6507 0
-6504 6507 0
-6493 -6504 6508 0
-6505 6508 0
-6493 -6505 0
-6494 6509 0
-6506 6509 0
-6494 -6506 6510 0
-6507 6510 0
-6494 -6507 6511 0
-6508 6511 0
-6494 -6508 0
-6495 6512 0
-6509 6512 0
-6495 -6509 6513 0
-6510 6513 0
-6495 -6510 6514 0
-6511 6514 0
-6495 -6511 0
-6496 -6514 0
-6518 6 0
-6 6518 0
-6519 55 0
-55 6519 0
-6520 104 0
-104 6520 0
-6521 153 0
-153 6521 0
-6522 202 0
-202 6522 0
-6523 251 0
-251 6523 0
-6524 300 0
-300 6524 0
-6518 6525 0
-6519 6526 0
-6525 6526 0
-6519 -6525 0
-6520 6527 0
-6526 6527 0
-6520 -6526 0
-6521 6528 0
-6527 6528 0
-6521 -6527 0
-6522 6529 0
-6528 6529 0
-6522 -6528 0
-6523 6530 0
-6529 6530 0
-6523 -6529 0
-6524 -6530 0
-6532 6 7 0
-6 6532 0
-7 6532 0
-6533 55 56 0
-55 6533 0
-56 6533 0
-6534 104 105 0
-104 6534 0
-105 6534 0
-6535 153 154 0
-153 6535 0
-154 6535 0
-6536 202 203 0
-202 6536 0
-203 6536 0
-6537 251 252 0
-251 6537 0
-252 6537 0
-6538 300 301 0
-300 6538 0
-301 6538 0
-6532 6539 0
-6540 0
-6533 6541 0
-6539 6541 0
-6533 -6539 6542 0
-6540 6542 0
-6533 -6540 0
-6534 6543 0
-6541 6543 0
-6534 -6541 6544 0
-6542 6544 0
-6534 -6542 0
-6535 6545 0
-6543 6545 0
-6535 -6543 6546 0
-6544 6546 0
-6535 -6544 0
-6536 6547 0
-6545 6547 0
-6536 -6545 6548 0
-6546 6548 0
-6536 -6546 0
-6537 6549 0
-6547 6549 0
-6537 -6547 6550 0
-6548 6550 0
-6537 -6548 0
-6538 -6550 0
-6553 7 0
-7 6553 0
-6554 56 0
-56 6554 0
-6555 105 0
-105 6555 0
-6556 154 0
-154 6556 0
-6557 203 0
-203 6557 0
-6558 252 0
-252 6558 0
-6559 301 0
-301 6559 0
-6553 6560 0
-6554 6561 0
-6560 6561 0
-6554 -6560 0
-6555 6562 0
-6561 6562 0
-6555 -6561 0
-6556 6563 0
-6562 6563 0
-6556 -6562 0
-6557 6564 0
-6563 6564 0
-6557 -6563 0
-6558 6565 0
-6564 6565 0
-6558 -6564 0
-6559 -6565 0
-6567 8 0
-8 6567 0
-6568 57 0
-57 6568 0
-6569 106 0
-106 6569 0
-6570 155 0
-155 6570 0
-6571 204 0
-204 6571 0
-6572 253 0
-253 6572 0
-6573 302 0
-302 6573 0
-6567 6574 0
-6568 6575 0
-6574 6575 0
-6568 -6574 0
-6569 6576 0
-6575 6576 0
-6569 -6575 0
-6570 6577 0
-6576 6577 0
-6570 -6576 0
-6571 6578 0
-6577 6578 0
-6571 -6577 0
-6572 6579 0
-6578 6579 0
-6572 -6578 0
-6573 -6579 0
-6581 8 9 0
-8 6581 0
-9 6581 0
-6582 57 58 0
-57 6582 0
-58 6582 0
-6583 106 107 0
-106 6583 0
-107 6583 0
-6584 155 156 0
-155 6584 0
-156 6584 0
-6585 204 205 0
-204 6585 0
-205 6585 0
-6586 253 254 0
-253 6586 0
-254 6586 0
-6587 302 303 0
-302 6587 0
-303 6587 0
-6581 6588 0
-6589 0
-6582 6590 0
-6588 6590 0
-6582 -6588 6591 0
-6589 6591 0
-6582 -6589 0
-6583 6592 0
-6590 6592 0
-6583 -6590 6593 0
-6591 6593 0
-6583 -6591 0
-6584 6594 0
-6592 6594 0
-6584 -6592 6595 0
-6593 6595 0
-6584 -6593 0
-6585 6596 0
-6594 6596 0
-6585 -6594 6597 0
-6595 6597 0
-6585 -6595 0
-6586 6598 0
-6596 6598 0
-6586 -6596 6599 0
-6597 6599 0
-6586 -6597 0
-6587 -6599 0
-6602 8 9 10 0
-8 6602 0
-9 6602 0
-10 6602 0
-6603 57 58 59 0
-57 6603 0
-58 6603 0
-59 6603 0
-6604 106 107 108 0
-106 6604 0
-107 6604 0
-108 6604 0
-6605 155 156 157 0
-155 6605 0
-156 6605 0
-157 6605 0
-6606 204 205 206 0
-204 6606 0
-205 6606 0
-206 6606 0
-6607 253 254 255 0
-253 6607 0
-254 6607 0
-255 6607 0
-6608 302 303 304 0
-302 6608 0
-303 6608 0
-304 6608 0
-6602 6609 0
-6610 0
-6611 0
-6603 6612 0
-6609 6612 0
-6603 -6609 6613 0
-6610 6613 0
-6603 -6610 6614 0
-6611 6614 0
-6603 -6611 0
-6604 6615 0
-6612 6615 0
-6604 -6612 6616 0
-6613 6616 0
-6604 -6613 6617 0
-6614 6617 0
-6604 -6614 0
-6605 6618 0
-6615 6618 0
-6605 -6615 6619 0
-6616 6619 0
-6605 -6616 6620 0
-6617 6620 0
-6605 -6617 0
-6606 6621 0
-6618 6621 0
-6606 -6618 6622 0
-6619 6622 0
-6606 -6619 6623 0
-6620 6623 0
-6606 -6620 0
-6607 6624 0
-6621 6624 0
-6607 -6621 6625 0
-6622 6625 0
-6607 -6622 6626 0
-6623 6626 0
-6607 -6623 0
-6608 -6626 0
-6630 8 9 10 11 0
-8 6630 0
-9 6630 0
-10 6630 0
-11 6630 0
-6631 57 58 59 60 0
-57 6631 0
-58 6631 0
-59 6631 0
-60 6631 0
-6632 106 107 108 109 0
-106 6632 0
-107 6632 0
-108 6632 0
-109 6632 0
-6633 155 156 157 158 0
-155 6633 0
-156 6633 0
-157 6633 0
-158 6633 0
-6634 204 205 206 207 0
-204 6634 0
-205 6634 0
-206 6634 0
-207 6634 0
-6635 253 254 255 256 0
-253 6635 0
-254 6635 0
-255 6635 0
-256 6635 0
-6636 302 303 304 305 0
-302 6636 0
-303 6636 0
-304 6636 0
-305 6636 0
-6630 6637 0
-6638 0
-6639 0
-6640 0
-6631 6641 0
-6637 6641 0
-6631 -6637 6642 0
-6638 6642 0
-6631 -6638 6643 0
-6639 6643 0
-6631 -6639 6644 0
-6640 6644 0
-6631 -6640 0
-6632 6645 0
-6641 6645 0
-6632 -6641 6646 0
-6642 6646 0
-6632 -6642 6647 0
-6643 6647 0
-6632 -6643 6648 0
-6644 6648 0
-6632 -6644 0
-6633 6649 0
-6645 6649 0
-6633 -6645 6650 0
-6646 6650 0
-6633 -6646 6651 0
-6647 6651 0
-6633 -6647 6652 0
-6648 6652 0
-6633 -6648 0
-6634 6653 0
-6649 6653 0
-6634 -6649 6654 0
-6650 6654 0
-6634 -6650 6655 0
-6651 6655 0
-6634 -6651 6656 0
-6652 6656 0
-6634 -6652 0
-6635 6657 0
-6653 6657 0
-6635 -6653 6658 0
-6654 6658 0
-6635 -6654 6659 0
-6655 6659 0
-6635 -6655 6660 0
-6656 6660 0
-6635 -6656 0
-6636 -6660 0
-6665 8 9 10 11 12 0
-8 6665 0
-9 6665 0
-10 6665 0
-11 6665 0
-12 6665 0
-6666 57 58 59 60 61 0
-57 6666 0
-58 6666 0
-59 6666 0
-60 6666 0
-61 6666 0
-6667 106 107 108 109 110 0
-106 6667 0
-107 6667 0
-108 6667 0
-109 6667 0
-110 6667 0
-6668 155 156 157 158 159 0
-155 6668 0
-156 6668 0
-157 6668 0
-158 6668 0
-159 6668 0
-6669 204 205 206 207 208 0
-204 6669 0
-205 6669 0
-206 6669 0
-207 6669 0
-208 6669 0
-6670 253 254 255 256 257 0
-253 6670 0
-254 6670 0
-255 6670 0
-256 6670 0
-257 6670 0
-6671 302 303 304 305 306 0
-302 6671 0
-303 6671 0
-304 6671 0
-305 6671 0
-306 6671 0
-6665 6672 0
-6673 0
-6674 0
-6675 0
-6676 0
-6666 6677 0
-6672 6677 0
-6666 -6672 6678 0
-6673 6678 0
-6666 -6673 6679 0
-6674 6679 0
-6666 -6674 6680 0
-6675 6680 0
-6666 -6675 6681 0
-6676 6681 0
-6666 -6676 0
-6667 6682 0
-6677 6682 0
-6667 -6677 6683 0
-6678 6683 0
-6667 -6678 6684 0
-6679 6684 0
-6667 -6679 6685 0
-6680 6685 0
-6667 -6680 6686 0
-6681 6686 0
-6667 -6681 0
-6668 6687 0
-6682 6687 0
-6668 -6682 6688 0
-6683 6688 0
-6668 -6683 6689 0
-6684 6689 0
-6668 -6684 6690 0
-6685 6690 0
-6668 -6685 6691 0
-6686 6691 0
-6668 -6686 0
-6669 6692 0
-6687 6692 0
-6669 -6687 6693 0
-6688 6693 0
-6669 -6688 6694 0
-6689 6694 0
-6669 -6689 6695 0
-6690 6695 0
-6669 -6690 6696 0
-6691 6696 0
-6669 -6691 0
-6670 6697 0
-6692 6697 0
-6670 -6692 6698 0
-6693 6698 0
-6670 -6693 6699 0
-6694 6699 0
-6670 -6694 6700 0
-6695 6700 0
-6670 -6695 6701 0
-6696 6701 0
-6670 -6696 0
-6671 -6701 0
-6707 8 9 10 11 12 13 0
-8 6707 0
-9 6707 0
-10 6707 0
-11 6707 0
-12 6707 0
-13 6707 0
-6708 57 58 59 60 61 62 0
-57 6708 0
-58 6708 0
-59 6708 0
-60 6708 0
-61 6708 0
-62 6708 0
-6709 106 107 108 109 110 111 0
-106 6709 0
-107 6709 0
-108 6709 0
-109 6709 0
-110 6709 0
-111 6709 0
-6710 155 156 157 158 159 160 0
-155 6710 0
-156 6710 0
-157 6710 0
-158 6710 0
-159 6710 0
-160 6710 0
-6711 204 205 206 207 208 209 0
-204 6711 0
-205 6711 0
-206 6711 0
-207 6711 0
-208 6711 0
-209 6711 0
-6712 253 254 255 256 257 258 0
-253 6712 0
-254 6712 0
-255 6712 0
-256 6712 0
-257 6712 0
-258 6712 0
-6713 302 303 304 305 306 307 0
-302 6713 0
-303 6713 0
-304 6713 0
-305 6713 0
-306 6713 0
-307 6713 0
-6707 6714 0
-6715 0
-6716 0
-6717 0
-6718 0
-6719 0
-6708 6720 0
-6714 6720 0
-6708 -6714 6721 0
-6715 6721 0
-6708 -6715 6722 0
-6716 6722 0
-6708 -6716 6723 0
-6717 6723 0
-6708 -6717 6724 0
-6718 6724 0
-6708 -6718 6725 0
-6719 6725 0
-6708 -6719 0
-6709 6726 0
-6720 6726 0
-6709 -6720 6727 0
-6721 6727 0
-6709 -6721 6728 0
-6722 6728 0
-6709 -6722 6729 0
-6723 6729 0
-6709 -6723 6730 0
-6724 6730 0
-6709 -6724 6731 0
-6725 6731 0
-6709 -6725 0
-6710 6732 0
-6726 6732 0
-6710 -6726 6733 0
-6727 6733 0
-6710 -6727 6734 0
-6728 6734 0
-6710 -6728 6735 0
-6729 6735 0
-6710 -6729 6736 0
-6730 6736 0
-6710 -6730 6737 0
-6731 6737 0
-6710 -6731 0
-6711 6738 0
-6732 6738 0
-6711 -6732 6739 0
-6733 6739 0
-6711 -6733 6740 0
-6734 6740 0
-6711 -6734 6741 0
-6735 6741 0
-6711 -6735 6742 0
-6736 6742 0
-6711 -6736 6743 0
-6737 6743 0
-6711 -6737 0
-6712 6744 0
-6738 6744 0
-6712 -6738 6745 0
-6739 6745 0
-6712 -6739 6746 0
-6740 6746 0
-6712 -6740 6747 0
-6741 6747 0
-6712 -6741 6748 0
-6742 6748 0
-6712 -6742 6749 0
-6743 6749 0
-6712 -6743 0
-6713 -6749 0
-6756 8 9 10 11 12 13 14 0
-8 6756 0
-9 6756 0
-10 6756 0
-11 6756 0
-12 6756 0
-13 6756 0
-14 6756 0
-6757 57 58 59 60 61 62 63 0
-57 6757 0
-58 6757 0
-59 6757 0
-60 6757 0
-61 6757 0
-62 6757 0
-63 6757 0
-6758 106 107 108 109 110 111 112 0
-106 6758 0
-107 6758 0
-108 6758 0
-109 6758 0
-110 6758 0
-111 6758 0
-112 6758 0
-6759 155 156 157 158 159 160 161 0
-155 6759 0
-156 6759 0
-157 6759 0
-158 6759 0
-159 6759 0
-160 6759 0
-161 6759 0
-6760 204 205 206 207 208 209 210 0
-204 6760 0
-205 6760 0
-206 6760 0
-207 6760 0
-208 6760 0
-209 6760 0
-210 6760 0
-6761 253 254 255 256 257 258 259 0
-253 6761 0
-254 6761 0
-255 6761 0
-256 6761 0
-257 6761 0
-258 6761 0
-259 6761 0
-6762 302 303 304 305 306 307 308 0
-302 6762 0
-303 6762 0
-304 6762 0
-305 6762 0
-306 6762 0
-307 6762 0
-308 6762 0
-6763 9 0
-9 6763 0
-6764 58 0
-58 6764 0
-6765 107 0
-107 6765 0
-6766 156 0
-156 6766 0
-6767 205 0
-205 6767 0
-6768 254 0
-254 6768 0
-6769 303 0
-303 6769 0
-6763 6770 0
-6764 6771 0
-6770 6771 0
-6764 -6770 0
-6765 6772 0
-6771 6772 0
-6765 -6771 0
-6766 6773 0
-6772 6773 0
-6766 -6772 0
-6767 6774 0
-6773 6774 0
-6767 -6773 0
-6768 6775 0
-6774 6775 0
-6768 -6774 0
-6769 -6775 0
-6777 9 10 0
-9 6777 0
-10 6777 0
-6778 58 59 0
-58 6778 0
-59 6778 0
-6779 107 108 0
-107 6779 0
-108 6779 0
-6780 156 157 0
-156 6780 0
-157 6780 0
-6781 205 206 0
-205 6781 0
-206 6781 0
-6782 254 255 0
-254 6782 0
-255 6782 0
-6783 303 304 0
-303 6783 0
-304 6783 0
-6777 6784 0
-6785 0
-6778 6786 0
-6784 6786 0
-6778 -6784 6787 0
-6785 6787 0
-6778 -6785 0
-6779 6788 0
-6786 6788 0
-6779 -6786 6789 0
-6787 6789 0
-6779 -6787 0
-6780 6790 0
-6788 6790 0
-6780 -6788 6791 0
-6789 6791 0
-6780 -6789 0
-6781 6792 0
-6790 6792 0
-6781 -6790 6793 0
-6791 6793 0
-6781 -6791 0
-6782 6794 0
-6792 6794 0
-6782 -6792 6795 0
-6793 6795 0
-6782 -6793 0
-6783 -6795 0
-6798 9 10 11 0
-9 6798 0
-10 6798 0
-11 6798 0
-6799 58 59 60 0
-58 6799 0
-59 6799 0
-60 6799 0
-6800 107 108 109 0
-107 6800 0
-108 6800 0
-109 6800 0
-6801 156 157 158 0
-156 6801 0
-157 6801 0
-158 6801 0
-6802 205 206 207 0
-205 6802 0
-206 6802 0
-207 6802 0
-6803 254 255 256 0
-254 6803 0
-255 6803 0
-256 6803 0
-6804 303 304 305 0
-303 6804 0
-304 6804 0
-305 6804 0
-6798 6805 0
-6806 0
-6807 0
-6799 6808 0
-6805 6808 0
-6799 -6805 6809 0
-6806 6809 0
-6799 -6806 6810 0
-6807 6810 0
-6799 -6807 0
-6800 6811 0
-6808 6811 0
-6800 -6808 6812 0
-6809 6812 0
-6800 -6809 6813 0
-6810 6813 0
-6800 -6810 0
-6801 6814 0
-6811 6814 0
-6801 -6811 6815 0
-6812 6815 0
-6801 -6812 6816 0
-6813 6816 0
-6801 -6813 0
-6802 6817 0
-6814 6817 0
-6802 -6814 6818 0
-6815 6818 0
-6802 -6815 6819 0
-6816 6819 0
-6802 -6816 0
-6803 6820 0
-6817 6820 0
-6803 -6817 6821 0
-6818 6821 0
-6803 -6818 6822 0
-6819 6822 0
-6803 -6819 0
-6804 -6822 0
-6826 9 10 11 12 0
-9 6826 0
-10 6826 0
-11 6826 0
-12 6826 0
-6827 58 59 60 61 0
-58 6827 0
-59 6827 0
-60 6827 0
-61 6827 0
-6828 107 108 109 110 0
-107 6828 0
-108 6828 0
-109 6828 0
-110 6828 0
-6829 156 157 158 159 0
-156 6829 0
-157 6829 0
-158 6829 0
-159 6829 0
-6830 205 206 207 208 0
-205 6830 0
-206 6830 0
-207 6830 0
-208 6830 0
-6831 254 255 256 257 0
-254 6831 0
-255 6831 0
-256 6831 0
-257 6831 0
-6832 303 304 305 306 0
-303 6832 0
-304 6832 0
-305 6832 0
-306 6832 0
-6826 6833 0
-6834 0
-6835 0
-6836 0
-6827 6837 0
-6833 6837 0
-6827 -6833 6838 0
-6834 6838 0
-6827 -6834 6839 0
-6835 6839 0
-6827 -6835 6840 0
-6836 6840 0
-6827 -6836 0
-6828 6841 0
-6837 6841 0
-6828 -6837 6842 0
-6838 6842 0
-6828 -6838 6843 0
-6839 6843 0
-6828 -6839 6844 0
-6840 6844 0
-6828 -6840 0
-6829 6845 0
-6841 6845 0
-6829 -6841 6846 0
-6842 6846 0
-6829 -6842 6847 0
-6843 6847 0
-6829 -6843 6848 0
-6844 6848 0
-6829 -6844 0
-6830 6849 0
-6845 6849 0
-6830 -6845 6850 0
-6846 6850 0
-6830 -6846 6851 0
-6847 6851 0
-6830 -6847 6852 0
-6848 6852 0
-6830 -6848 0
-6831 6853 0
-6849 6853 0
-6831 -6849 6854 0
-6850 6854 0
-6831 -6850 6855 0
-6851 6855 0
-6831 -6851 6856 0
-6852 6856 0
-6831 -6852 0
-6832 -6856 0
-6861 9 10 11 12 13 0
-9 6861 0
-10 6861 0
-11 6861 0
-12 6861 0
-13 6861 0
-6862 58 59 60 61 62 0
-58 6862 0
-59 6862 0
-60 6862 0
-61 6862 0
-62 6862 0
-6863 107 108 109 110 111 0
-107 6863 0
-108 6863 0
-109 6863 0
-110 6863 0
-111 6863 0
-6864 156 157 158 159 160 0
-156 6864 0
-157 6864 0
-158 6864 0
-159 6864 0
-160 6864 0
-6865 205 206 207 208 209 0
-205 6865 0
-206 6865 0
-207 6865 0
-208 6865 0
-209 6865 0
-6866 254 255 256 257 258 0
-254 6866 0
-255 6866 0
-256 6866 0
-257 6866 0
-258 6866 0
-6867 303 304 305 306 307 0
-303 6867 0
-304 6867 0
-305 6867 0
-306 6867 0
-307 6867 0
-6861 6868 0
-6869 0
-6870 0
-6871 0
-6872 0
-6862 6873 0
-6868 6873 0
-6862 -6868 6874 0
-6869 6874 0
-6862 -6869 6875 0
-6870 6875 0
-6862 -6870 6876 0
-6871 6876 0
-6862 -6871 6877 0
-6872 6877 0
-6862 -6872 0
-6863 6878 0
-6873 6878 0
-6863 -6873 6879 0
-6874 6879 0
-6863 -6874 6880 0
-6875 6880 0
-6863 -6875 6881 0
-6876 6881 0
-6863 -6876 6882 0
-6877 6882 0
-6863 -6877 0
-6864 6883 0
-6878 6883 0
-6864 -6878 6884 0
-6879 6884 0
-6864 -6879 6885 0
-6880 6885 0
-6864 -6880 6886 0
-6881 6886 0
-6864 -6881 6887 0
-6882 6887 0
-6864 -6882 0
-6865 6888 0
-6883 6888 0
-6865 -6883 6889 0
-6884 6889 0
-6865 -6884 6890 0
-6885 6890 0
-6865 -6885 6891 0
-6886 6891 0
-6865 -6886 6892 0
-6887 6892 0
-6865 -6887 0
-6866 6893 0
-6888 6893 0
-6866 -6888 6894 0
-6889 6894 0
-6866 -6889 6895 0
-6890 6895 0
-6866 -6890 6896 0
-6891 6896 0
-6866 -6891 6897 0
-6892 6897 0
-6866 -6892 0
-6867 -6897 0
-6903 9 10 11 12 13 14 0
-9 6903 0
-10 6903 0
-11 6903 0
-12 6903 0
-13 6903 0
-14 6903 0
-6904 58 59 60 61 62 63 0
-58 6904 0
-59 6904 0
-60 6904 0
-61 6904 0
-62 6904 0
-63 6904 0
-6905 107 108 109 110 111 112 0
-107 6905 0
-108 6905 0
-109 6905 0
-110 6905 0
-111 6905 0
-112 6905 0
-6906 156 157 158 159 160 161 0
-156 6906 0
-157 6906 0
-158 6906 0
-159 6906 0
-160 6906 0
-161 6906 0
-6907 205 206 207 208 209 210 0
-205 6907 0
-206 6907 0
-207 6907 0
-208 6907 0
-209 6907 0
-210 6907 0
-6908 254 255 256 257 258 259 0
-254 6908 0
-255 6908 0
-256 6908 0
-257 6908 0
-258 6908 0
-259 6908 0
-6909 303 304 305 306 307 308 0
-303 6909 0
-304 6909 0
-305 6909 0
-306 6909 0
-307 6909 0
-308 6909 0
-6903 6910 0
-6911 0
-6912 0
-6913 0
-6914 0
-6915 0
-6904 6916 0
-6910 6916 0
-6904 -6910 6917 0
-6911 6917 0
-6904 -6911 6918 0
-6912 6918 0
-6904 -6912 6919 0
-6913 6919 0
-6904 -6913 6920 0
-6914 6920 0
-6904 -6914 6921 0
-6915 6921 0
-6904 -6915 0
-6905 6922 0
-6916 6922 0
-6905 -6916 6923 0
-6917 6923 0
-6905 -6917 6924 0
-6918 6924 0
-6905 -6918 6925 0
-6919 6925 0
-6905 -6919 6926 0
-6920 6926 0
-6905 -6920 6927 0
-6921 6927 0
-6905 -6921 0
-6906 6928 0
-6922 6928 0
-6906 -6922 6929 0
-6923 6929 0
-6906 -6923 6930 0
-6924 6930 0
-6906 -6924 6931 0
-6925 6931 0
-6906 -6925 6932 0
-6926 6932 0
-6906 -6926 6933 0
-6927 6933 0
-6906 -6927 0
-6907 6934 0
-6928 6934 0
-6907 -6928 6935 0
-6929 6935 0
-6907 -6929 6936 0
-6930 6936 0
-6907 -6930 6937 0
-6931 6937 0
-6907 -6931 6938 0
-6932 6938 0
-6907 -6932 6939 0
-6933 6939 0
-6907 -6933 0
-6908 6940 0
-6934 6940 0
-6908 -6934 6941 0
-6935 6941 0
-6908 -6935 6942 0
-6936 6942 0
-6908 -6936 6943 0
-6937 6943 0
-6908 -6937 6944 0
-6938 6944 0
-6908 -6938 6945 0
-6939 6945 0
-6908 -6939 0
-6909 -6945 0
-6952 10 0
-10 6952 0
-6953 59 0
-59 6953 0
-6954 108 0
-108 6954 0
-6955 157 0
-157 6955 0
-6956 206 0
-206 6956 0
-6957 255 0
-255 6957 0
-6958 304 0
-304 6958 0
-6952 6959 0
-6953 6960 0
-6959 6960 0
-6953 -6959 0
-6954 6961 0
-6960 6961 0
-6954 -6960 0
-6955 6962 0
-6961 6962 0
-6955 -6961 0
-6956 6963 0
-6962 6963 0
-6956 -6962 0
-6957 6964 0
-6963 6964 0
-6957 -6963 0
-6958 -6964 0
-6966 10 11 0
-10 6966 0
-11 6966 0
-6967 59 60 0
-59 6967 0
-60 6967 0
-6968 108 109 0
-108 6968 0
-109 6968 0
-6969 157 158 0
-157 6969 0
-158 6969 0
-6970 206 207 0
-206 6970 0
-207 6970 0
-6971 255 256 0
-255 6971 0
-256 6971 0
-6972 304 305 0
-304 6972 0
-305 6972 0
-6966 6973 0
-6974 0
-6967 6975 0
-6973 6975 0
-6967 -6973 6976 0
-6974 6976 0
-6967 -6974 0
-6968 6977 0
-6975 6977 0
-6968 -6975 6978 0
-6976 6978 0
-6968 -6976 0
-6969 6979 0
-6977 6979 0
-6969 -6977 6980 0
-6978 6980 0
-6969 -6978 0
-6970 6981 0
-6979 6981 0
-6970 -6979 6982 0
-6980 6982 0
-6970 -6980 0
-6971 6983 0
-6981 6983 0
-6971 -6981 6984 0
-6982 6984 0
-6971 -6982 0
-6972 -6984 0
-6987 10 11 12 0
-10 6987 0
-11 6987 0
-12 6987 0
-6988 59 60 61 0
-59 6988 0
-60 6988 0
-61 6988 0
-6989 108 109 110 0
-108 6989 0
-109 6989 0
-110 6989 0
-6990 157 158 159 0
-157 6990 0
-158 6990 0
-159 6990 0
-6991 206 207 208 0
-206 6991 0
-207 6991 0
-208 6991 0
-6992 255 256 257 0
-255 6992 0
-256 6992 0
-257 6992 0
-6993 304 305 306 0
-304 6993 0
-305 6993 0
-306 6993 0
-6987 6994 0
-6995 0
-6996 0
-6988 6997 0
-6994 6997 0
-6988 -6994 6998 0
-6995 6998 0
-6988 -6995 6999 0
-6996 6999 0
-6988 -6996 0
-6989 7000 0
-6997 7000 0
-6989 -6997 7001 0
-6998 7001 0
-6989 -6998 7002 0
-6999 7002 0
-6989 -6999 0
-6990 7003 0
-7000 7003 0
-6990 -7000 7004 0
-7001 7004 0
-6990 -7001 7005 0
-7002 7005 0
-6990 -7002 0
-6991 7006 0
-7003 7006 0
-6991 -7003 7007 0
-7004 7007 0
-6991 -7004 7008 0
-7005 7008 0
-6991 -7005 0
-6992 7009 0
-7006 7009 0
-6992 -7006 7010 0
-7007 7010 0
-6992 -7007 7011 0
-7008 7011 0
-6992 -7008 0
-6993 -7011 0
-7015 10 11 12 13 0
-10 7015 0
-11 7015 0
-12 7015 0
-13 7015 0
-7016 59 60 61 62 0
-59 7016 0
-60 7016 0
-61 7016 0
-62 7016 0
-7017 108 109 110 111 0
-108 7017 0
-109 7017 0
-110 7017 0
-111 7017 0
-7018 157 158 159 160 0
-157 7018 0
-158 7018 0
-159 7018 0
-160 7018 0
-7019 206 207 208 209 0
-206 7019 0
-207 7019 0
-208 7019 0
-209 7019 0
-7020 255 256 257 258 0
-255 7020 0
-256 7020 0
-257 7020 0
-258 7020 0
-7021 304 305 306 307 0
-304 7021 0
-305 7021 0
-306 7021 0
-307 7021 0
-7015 7022 0
-7023 0
-7024 0
-7025 0
-7016 7026 0
-7022 7026 0
-7016 -7022 7027 0
-7023 7027 0
-7016 -7023 7028 0
-7024 7028 0
-7016 -7024 7029 0
-7025 7029 0
-7016 -7025 0
-7017 7030 0
-7026 7030 0
-7017 -7026 7031 0
-7027 7031 0
-7017 -7027 7032 0
-7028 7032 0
-7017 -7028 7033 0
-7029 7033 0
-7017 -7029 0
-7018 7034 0
-7030 7034 0
-7018 -7030 7035 0
-7031 7035 0
-7018 -7031 7036 0
-7032 7036 0
-7018 -7032 7037 0
-7033 7037 0
-7018 -7033 0
-7019 7038 0
-7034 7038 0
-7019 -7034 7039 0
-7035 7039 0
-7019 -7035 7040 0
-7036 7040 0
-7019 -7036 7041 0
-7037 7041 0
-7019 -7037 0
-7020 7042 0
-7038 7042 0
-7020 -7038 7043 0
-7039 7043 0
-7020 -7039 7044 0
-7040 7044 0
-7020 -7040 7045 0
-7041 7045 0
-7020 -7041 0
-7021 -7045 0
-7050 10 11 12 13 14 0
-10 7050 0
-11 7050 0
-12 7050 0
-13 7050 0
-14 7050 0
-7051 59 60 61 62 63 0
-59 7051 0
-60 7051 0
-61 7051 0
-62 7051 0
-63 7051 0
-7052 108 109 110 111 112 0
-108 7052 0
-109 7052 0
-110 7052 0
-111 7052 0
-112 7052 0
-7053 157 158 159 160 161 0
-157 7053 0
-158 7053 0
-159 7053 0
-160 7053 0
-161 7053 0
-7054 206 207 208 209 210 0
-206 7054 0
-207 7054 0
-208 7054 0
-209 7054 0
-210 7054 0
-7055 255 256 257 258 259 0
-255 7055 0
-256 7055 0
-257 7055 0
-258 7055 0
-259 7055 0
-7056 304 305 306 307 308 0
-304 7056 0
-305 7056 0
-306 7056 0
-307 7056 0
-308 7056 0
-7050 7057 0
-7058 0
-7059 0
-7060 0
-7061 0
-7051 7062 0
-7057 7062 0
-7051 -7057 7063 0
-7058 7063 0
-7051 -7058 7064 0
-7059 7064 0
-7051 -7059 7065 0
-7060 7065 0
-7051 -7060 7066 0
-7061 7066 0
-7051 -7061 0
-7052 7067 0
-7062 7067 0
-7052 -7062 7068 0
-7063 7068 0
-7052 -7063 7069 0
-7064 7069 0
-7052 -7064 7070 0
-7065 7070 0
-7052 -7065 7071 0
-7066 7071 0
-7052 -7066 0
-7053 7072 0
-7067 7072 0
-7053 -7067 7073 0
-7068 7073 0
-7053 -7068 7074 0
-7069 7074 0
-7053 -7069 7075 0
-7070 7075 0
-7053 -7070 7076 0
-7071 7076 0
-7053 -7071 0
-7054 7077 0
-7072 7077 0
-7054 -7072 7078 0
-7073 7078 0
-7054 -7073 7079 0
-7074 7079 0
-7054 -7074 7080 0
-7075 7080 0
-7054 -7075 7081 0
-7076 7081 0
-7054 -7076 0
-7055 7082 0
-7077 7082 0
-7055 -7077 7083 0
-7078 7083 0
-7055 -7078 7084 0
-7079 7084 0
-7055 -7079 7085 0
-7080 7085 0
-7055 -7080 7086 0
-7081 7086 0
-7055 -7081 0
-7056 -7086 0
-7092 11 0
-11 7092 0
-7093 60 0
-60 7093 0
-7094 109 0
-109 7094 0
-7095 158 0
-158 7095 0
-7096 207 0
-207 7096 0
-7097 256 0
-256 7097 0
-7098 305 0
-305 7098 0
-7092 7099 0
-7093 7100 0
-7099 7100 0
-7093 -7099 0
-7094 7101 0
-7100 7101 0
-7094 -7100 0
-7095 7102 0
-7101 7102 0
-7095 -7101 0
-7096 7103 0
-7102 7103 0
-7096 -7102 0
-7097 7104 0
-7103 7104 0
-7097 -7103 0
-7098 -7104 0
-7106 11 12 0
-11 7106 0
-12 7106 0
-7107 60 61 0
-60 7107 0
-61 7107 0
-7108 109 110 0
-109 7108 0
-110 7108 0
-7109 158 159 0
-158 7109 0
-159 7109 0
-7110 207 208 0
-207 7110 0
-208 7110 0
-7111 256 257 0
-256 7111 0
-257 7111 0
-7112 305 306 0
-305 7112 0
-306 7112 0
-7106 7113 0
-7114 0
-7107 7115 0
-7113 7115 0
-7107 -7113 7116 0
-7114 7116 0
-7107 -7114 0
-7108 7117 0
-7115 7117 0
-7108 -7115 7118 0
-7116 7118 0
-7108 -7116 0
-7109 7119 0
-7117 7119 0
-7109 -7117 7120 0
-7118 7120 0
-7109 -7118 0
-7110 7121 0
-7119 7121 0
-7110 -7119 7122 0
-7120 7122 0
-7110 -7120 0
-7111 7123 0
-7121 7123 0
-7111 -7121 7124 0
-7122 7124 0
-7111 -7122 0
-7112 -7124 0
-7127 11 12 13 0
-11 7127 0
-12 7127 0
-13 7127 0
-7128 60 61 62 0
-60 7128 0
-61 7128 0
-62 7128 0
-7129 109 110 111 0
-109 7129 0
-110 7129 0
-111 7129 0
-7130 158 159 160 0
-158 7130 0
-159 7130 0
-160 7130 0
-7131 207 208 209 0
-207 7131 0
-208 7131 0
-209 7131 0
-7132 256 257 258 0
-256 7132 0
-257 7132 0
-258 7132 0
-7133 305 306 307 0
-305 7133 0
-306 7133 0
-307 7133 0
-7127 7134 0
-7135 0
-7136 0
-7128 7137 0
-7134 7137 0
-7128 -7134 7138 0
-7135 7138 0
-7128 -7135 7139 0
-7136 7139 0
-7128 -7136 0
-7129 7140 0
-7137 7140 0
-7129 -7137 7141 0
-7138 7141 0
-7129 -7138 7142 0
-7139 7142 0
-7129 -7139 0
-7130 7143 0
-7140 7143 0
-7130 -7140 7144 0
-7141 7144 0
-7130 -7141 7145 0
-7142 7145 0
-7130 -7142 0
-7131 7146 0
-7143 7146 0
-7131 -7143 7147 0
-7144 7147 0
-7131 -7144 7148 0
-7145 7148 0
-7131 -7145 0
-7132 7149 0
-7146 7149 0
-7132 -7146 7150 0
-7147 7150 0
-7132 -7147 7151 0
-7148 7151 0
-7132 -7148 0
-7133 -7151 0
-7155 11 12 13 14 0
-11 7155 0
-12 7155 0
-13 7155 0
-14 7155 0
-7156 60 61 62 63 0
-60 7156 0
-61 7156 0
-62 7156 0
-63 7156 0
-7157 109 110 111 112 0
-109 7157 0
-110 7157 0
-111 7157 0
-112 7157 0
-7158 158 159 160 161 0
-158 7158 0
-159 7158 0
-160 7158 0
-161 7158 0
-7159 207 208 209 210 0
-207 7159 0
-208 7159 0
-209 7159 0
-210 7159 0
-7160 256 257 258 259 0
-256 7160 0
-257 7160 0
-258 7160 0
-259 7160 0
-7161 305 306 307 308 0
-305 7161 0
-306 7161 0
-307 7161 0
-308 7161 0
-7155 7162 0
-7163 0
-7164 0
-7165 0
-7156 7166 0
-7162 7166 0
-7156 -7162 7167 0
-7163 7167 0
-7156 -7163 7168 0
-7164 7168 0
-7156 -7164 7169 0
-7165 7169 0
-7156 -7165 0
-7157 7170 0
-7166 7170 0
-7157 -7166 7171 0
-7167 7171 0
-7157 -7167 7172 0
-7168 7172 0
-7157 -7168 7173 0
-7169 7173 0
-7157 -7169 0
-7158 7174 0
-7170 7174 0
-7158 -7170 7175 0
-7171 7175 0
-7158 -7171 7176 0
-7172 7176 0
-7158 -7172 7177 0
-7173 7177 0
-7158 -7173 0
-7159 7178 0
-7174 7178 0
-7159 -7174 7179 0
-7175 7179 0
-7159 -7175 7180 0
-7176 7180 0
-7159 -7176 7181 0
-7177 7181 0
-7159 -7177 0
-7160 7182 0
-7178 7182 0
-7160 -7178 7183 0
-7179 7183 0
-7160 -7179 7184 0
-7180 7184 0
-7160 -7180 7185 0
-7181 7185 0
-7160 -7181 0
-7161 -7185 0
-7190 12 0
-12 7190 0
-7191 61 0
-61 7191 0
-7192 110 0
-110 7192 0
-7193 159 0
-159 7193 0
-7194 208 0
-208 7194 0
-7195 257 0
-257 7195 0
-7196 306 0
-306 7196 0
-7190 7197 0
-7191 7198 0
-7197 7198 0
-7191 -7197 0
-7192 7199 0
-7198 7199 0
-7192 -7198 0
-7193 7200 0
-7199 7200 0
-7193 -7199 0
-7194 7201 0
-7200 7201 0
-7194 -7200 0
-7195 7202 0
-7201 7202 0
-7195 -7201 0
-7196 -7202 0
-7204 12 13 0
-12 7204 0
-13 7204 0
-7205 61 62 0
-61 7205 0
-62 7205 0
-7206 110 111 0
-110 7206 0
-111 7206 0
-7207 159 160 0
-159 7207 0
-160 7207 0
-7208 208 209 0
-208 7208 0
-209 7208 0
-7209 257 258 0
-257 7209 0
-258 7209 0
-7210 306 307 0
-306 7210 0
-307 7210 0
-7204 7211 0
-7212 0
-7205 7213 0
-7211 7213 0
-7205 -7211 7214 0
-7212 7214 0
-7205 -7212 0
-7206 7215 0
-7213 7215 0
-7206 -7213 7216 0
-7214 7216 0
-7206 -7214 0
-7207 7217 0
-7215 7217 0
-7207 -7215 7218 0
-7216 7218 0
-7207 -7216 0
-7208 7219 0
-7217 7219 0
-7208 -7217 7220 0
-7218 7220 0
-7208 -7218 0
-7209 7221 0
-7219 7221 0
-7209 -7219 7222 0
-7220 7222 0
-7209 -7220 0
-7210 -7222 0
-7225 12 13 14 0
-12 7225 0
-13 7225 0
-14 7225 0
-7226 61 62 63 0
-61 7226 0
-62 7226 0
-63 7226 0
-7227 110 111 112 0
-110 7227 0
-111 7227 0
-112 7227 0
-7228 159 160 161 0
-159 7228 0
-160 7228 0
-161 7228 0
-7229 208 209 210 0
-208 7229 0
-209 7229 0
-210 7229 0
-7230 257 258 259 0
-257 7230 0
-258 7230 0
-259 7230 0
-7231 306 307 308 0
-306 7231 0
-307 7231 0
-308 7231 0
-7225 7232 0
-7233 0
-7234 0
-7226 7235 0
-7232 7235 0
-7226 -7232 7236 0
-7233 7236 0
-7226 -7233 7237 0
-7234 7237 0
-7226 -7234 0
-7227 7238 0
-7235 7238 0
-7227 -7235 7239 0
-7236 7239 0
-7227 -7236 7240 0
-7237 7240 0
-7227 -7237 0
-7228 7241 0
-7238 7241 0
-7228 -7238 7242 0
-7239 7242 0
-7228 -7239 7243 0
-7240 7243 0
-7228 -7240 0
-7229 7244 0
-7241 7244 0
-7229 -7241 7245 0
-7242 7245 0
-7229 -7242 7246 0
-7243 7246 0
-7229 -7243 0
-7230 7247 0
-7244 7247 0
-7230 -7244 7248 0
-7245 7248 0
-7230 -7245 7249 0
-7246 7249 0
-7230 -7246 0
-7231 -7249 0
-7253 13 0
-13 7253 0
-7254 62 0
-62 7254 0
-7255 111 0
-111 7255 0
-7256 160 0
-160 7256 0
-7257 209 0
-209 7257 0
-7258 258 0
-258 7258 0
-7259 307 0
-307 7259 0
-7253 7260 0
-7254 7261 0
-7260 7261 0
-7254 -7260 0
-7255 7262 0
-7261 7262 0
-7255 -7261 0
-7256 7263 0
-7262 7263 0
-7256 -7262 0
-7257 7264 0
-7263 7264 0
-7257 -7263 0
-7258 7265 0
-7264 7265 0
-7258 -7264 0
-7259 -7265 0
-7267 13 14 0
-13 7267 0
-14 7267 0
-7268 62 63 0
-62 7268 0
-63 7268 0
-7269 111 112 0
-111 7269 0
-112 7269 0
-7270 160 161 0
-160 7270 0
-161 7270 0
-7271 209 210 0
-209 7271 0
-210 7271 0
-7272 258 259 0
-258 7272 0
-259 7272 0
-7273 307 308 0
-307 7273 0
-308 7273 0
-7267 7274 0
-7275 0
-7268 7276 0
-7274 7276 0
-7268 -7274 7277 0
-7275 7277 0
-7268 -7275 0
-7269 7278 0
-7276 7278 0
-7269 -7276 7279 0
-7277 7279 0
-7269 -7277 0
-7270 7280 0
-7278 7280 0
-7270 -7278 7281 0
-7279 7281 0
-7270 -7279 0
-7271 7282 0
-7280 7282 0
-7271 -7280 7283 0
-7281 7283 0
-7271 -7281 0
-7272 7284 0
-7282 7284 0
-7272 -7282 7285 0
-7283 7285 0
-7272 -7283 0
-7273 -7285 0
-7288 14 0
-14 7288 0
-7289 63 0
-63 7289 0
-7290 112 0
-112 7290 0
-7291 161 0
-161 7291 0
-7292 210 0
-210 7292 0
-7293 259 0
-259 7293 0
-7294 308 0
-308 7294 0
-7288 7295 0
-7289 7296 0
-7295 7296 0
-7289 -7295 0
-7290 7297 0
-7296 7297 0
-7290 -7296 0
-7291 7298 0
-7297 7298 0
-7291 -7297 0
-7292 7299 0
-7298 7299 0
-7292 -7298 0
-7293 7300 0
-7299 7300 0
-7293 -7299 0
-7294 -7300 0
-7302 15 0
-15 7302 0
-7303 64 0
-64 7303 0
-7304 113 0
-113 7304 0
-7305 162 0
-162 7305 0
-7306 211 0
-211 7306 0
-7307 260 0
-260 7307 0
-7308 309 0
-309 7308 0
-7302 7309 0
-7303 7310 0
-7309 7310 0
-7303 -7309 0
-7304 7311 0
-7310 7311 0
-7304 -7310 0
-7305 7312 0
-7311 7312 0
-7305 -7311 0
-7306 7313 0
-7312 7313 0
-7306 -7312 0
-7307 7314 0
-7313 7314 0
-7307 -7313 0
-7308 -7314 0
-7316 15 16 0
-15 7316 0
-16 7316 0
-7317 64 65 0
-64 7317 0
-65 7317 0
-7318 113 114 0
-113 7318 0
-114 7318 0
-7319 162 163 0
-162 7319 0
-163 7319 0
-7320 211 212 0
-211 7320 0
-212 7320 0
-7321 260 261 0
-260 7321 0
-261 7321 0
-7322 309 310 0
-309 7322 0
-310 7322 0
-7316 7323 0
-7324 0
-7317 7325 0
-7323 7325 0
-7317 -7323 7326 0
-7324 7326 0
-7317 -7324 0
-7318 7327 0
-7325 7327 0
-7318 -7325 7328 0
-7326 7328 0
-7318 -7326 0
-7319 7329 0
-7327 7329 0
-7319 -7327 7330 0
-7328 7330 0
-7319 -7328 0
-7320 7331 0
-7329 7331 0
-7320 -7329 7332 0
-7330 7332 0
-7320 -7330 0
-7321 7333 0
-7331 7333 0
-7321 -7331 7334 0
-7332 7334 0
-7321 -7332 0
-7322 -7334 0
-7337 15 16 17 0
-15 7337 0
-16 7337 0
-17 7337 0
-7338 64 65 66 0
-64 7338 0
-65 7338 0
-66 7338 0
-7339 113 114 115 0
-113 7339 0
-114 7339 0
-115 7339 0
-7340 162 163 164 0
-162 7340 0
-163 7340 0
-164 7340 0
-7341 211 212 213 0
-211 7341 0
-212 7341 0
-213 7341 0
-7342 260 261 262 0
-260 7342 0
-261 7342 0
-262 7342 0
-7343 309 310 311 0
-309 7343 0
-310 7343 0
-311 7343 0
-7337 7344 0
-7345 0
-7346 0
-7338 7347 0
-7344 7347 0
-7338 -7344 7348 0
-7345 7348 0
-7338 -7345 7349 0
-7346 7349 0
-7338 -7346 0
-7339 7350 0
-7347 7350 0
-7339 -7347 7351 0
-7348 7351 0
-7339 -7348 7352 0
-7349 7352 0
-7339 -7349 0
-7340 7353 0
-7350 7353 0
-7340 -7350 7354 0
-7351 7354 0
-7340 -7351 7355 0
-7352 7355 0
-7340 -7352 0
-7341 7356 0
-7353 7356 0
-7341 -7353 7357 0
-7354 7357 0
-7341 -7354 7358 0
-7355 7358 0
-7341 -7355 0
-7342 7359 0
-7356 7359 0
-7342 -7356 7360 0
-7357 7360 0
-7342 -7357 7361 0
-7358 7361 0
-7342 -7358 0
-7343 -7361 0
-7365 15 16 17 18 0
-15 7365 0
-16 7365 0
-17 7365 0
-18 7365 0
-7366 64 65 66 67 0
-64 7366 0
-65 7366 0
-66 7366 0
-67 7366 0
-7367 113 114 115 116 0
-113 7367 0
-114 7367 0
-115 7367 0
-116 7367 0
-7368 162 163 164 165 0
-162 7368 0
-163 7368 0
-164 7368 0
-165 7368 0
-7369 211 212 213 214 0
-211 7369 0
-212 7369 0
-213 7369 0
-214 7369 0
-7370 260 261 262 263 0
-260 7370 0
-261 7370 0
-262 7370 0
-263 7370 0
-7371 309 310 311 312 0
-309 7371 0
-310 7371 0
-311 7371 0
-312 7371 0
-7365 7372 0
-7373 0
-7374 0
-7375 0
-7366 7376 0
-7372 7376 0
-7366 -7372 7377 0
-7373 7377 0
-7366 -7373 7378 0
-7374 7378 0
-7366 -7374 7379 0
-7375 7379 0
-7366 -7375 0
-7367 7380 0
-7376 7380 0
-7367 -7376 7381 0
-7377 7381 0
-7367 -7377 7382 0
-7378 7382 0
-7367 -7378 7383 0
-7379 7383 0
-7367 -7379 0
-7368 7384 0
-7380 7384 0
-7368 -7380 7385 0
-7381 7385 0
-7368 -7381 7386 0
-7382 7386 0
-7368 -7382 7387 0
-7383 7387 0
-7368 -7383 0
-7369 7388 0
-7384 7388 0
-7369 -7384 7389 0
-7385 7389 0
-7369 -7385 7390 0
-7386 7390 0
-7369 -7386 7391 0
-7387 7391 0
-7369 -7387 0
-7370 7392 0
-7388 7392 0
-7370 -7388 7393 0
-7389 7393 0
-7370 -7389 7394 0
-7390 7394 0
-7370 -7390 7395 0
-7391 7395 0
-7370 -7391 0
-7371 -7395 0
-7400 15 16 17 18 19 0
-15 7400 0
-16 7400 0
-17 7400 0
-18 7400 0
-19 7400 0
-7401 64 65 66 67 68 0
-64 7401 0
-65 7401 0
-66 7401 0
-67 7401 0
-68 7401 0
-7402 113 114 115 116 117 0
-113 7402 0
-114 7402 0
-115 7402 0
-116 7402 0
-117 7402 0
-7403 162 163 164 165 166 0
-162 7403 0
-163 7403 0
-164 7403 0
-165 7403 0
-166 7403 0
-7404 211 212 213 214 215 0
-211 7404 0
-212 7404 0
-213 7404 0
-214 7404 0
-215 7404 0
-7405 260 261 262 263 264 0
-260 7405 0
-261 7405 0
-262 7405 0
-263 7405 0
-264 7405 0
-7406 309 310 311 312 313 0
-309 7406 0
-310 7406 0
-311 7406 0
-312 7406 0
-313 7406 0
-7400 7407 0
-7408 0
-7409 0
-7410 0
-7411 0
-7401 7412 0
-7407 7412 0
-7401 -7407 7413 0
-7408 7413 0
-7401 -7408 7414 0
-7409 7414 0
-7401 -7409 7415 0
-7410 7415 0
-7401 -7410 7416 0
-7411 7416 0
-7401 -7411 0
-7402 7417 0
-7412 7417 0
-7402 -7412 7418 0
-7413 7418 0
-7402 -7413 7419 0
-7414 7419 0
-7402 -7414 7420 0
-7415 7420 0
-7402 -7415 7421 0
-7416 7421 0
-7402 -7416 0
-7403 7422 0
-7417 7422 0
-7403 -7417 7423 0
-7418 7423 0
-7403 -7418 7424 0
-7419 7424 0
-7403 -7419 7425 0
-7420 7425 0
-7403 -7420 7426 0
-7421 7426 0
-7403 -7421 0
-7404 7427 0
-7422 7427 0
-7404 -7422 7428 0
-7423 7428 0
-7404 -7423 7429 0
-7424 7429 0
-7404 -7424 7430 0
-7425 7430 0
-7404 -7425 7431 0
-7426 7431 0
-7404 -7426 0
-7405 7432 0
-7427 7432 0
-7405 -7427 7433 0
-7428 7433 0
-7405 -7428 7434 0
-7429 7434 0
-7405 -7429 7435 0
-7430 7435 0
-7405 -7430 7436 0
-7431 7436 0
-7405 -7431 0
-7406 -7436 0
-7442 15 16 17 18 19 20 0
-15 7442 0
-16 7442 0
-17 7442 0
-18 7442 0
-19 7442 0
-20 7442 0
-7443 64 65 66 67 68 69 0
-64 7443 0
-65 7443 0
-66 7443 0
-67 7443 0
-68 7443 0
-69 7443 0
-7444 113 114 115 116 117 118 0
-113 7444 0
-114 7444 0
-115 7444 0
-116 7444 0
-117 7444 0
-118 7444 0
-7445 162 163 164 165 166 167 0
-162 7445 0
-163 7445 0
-164 7445 0
-165 7445 0
-166 7445 0
-167 7445 0
-7446 211 212 213 214 215 216 0
-211 7446 0
-212 7446 0
-213 7446 0
-214 7446 0
-215 7446 0
-216 7446 0
-7447 260 261 262 263 264 265 0
-260 7447 0
-261 7447 0
-262 7447 0
-263 7447 0
-264 7447 0
-265 7447 0
-7448 309 310 311 312 313 314 0
-309 7448 0
-310 7448 0
-311 7448 0
-312 7448 0
-313 7448 0
-314 7448 0
-7442 7449 0
-7450 0
-7451 0
-7452 0
-7453 0
-7454 0
-7443 7455 0
-7449 7455 0
-7443 -7449 7456 0
-7450 7456 0
-7443 -7450 7457 0
-7451 7457 0
-7443 -7451 7458 0
-7452 7458 0
-7443 -7452 7459 0
-7453 7459 0
-7443 -7453 7460 0
-7454 7460 0
-7443 -7454 0
-7444 7461 0
-7455 7461 0
-7444 -7455 7462 0
-7456 7462 0
-7444 -7456 7463 0
-7457 7463 0
-7444 -7457 7464 0
-7458 7464 0
-7444 -7458 7465 0
-7459 7465 0
-7444 -7459 7466 0
-7460 7466 0
-7444 -7460 0
-7445 7467 0
-7461 7467 0
-7445 -7461 7468 0
-7462 7468 0
-7445 -7462 7469 0
-7463 7469 0
-7445 -7463 7470 0
-7464 7470 0
-7445 -7464 7471 0
-7465 7471 0
-7445 -7465 7472 0
-7466 7472 0
-7445 -7466 0
-7446 7473 0
-7467 7473 0
-7446 -7467 7474 0
-7468 7474 0
-7446 -7468 7475 0
-7469 7475 0
-7446 -7469 7476 0
-7470 7476 0
-7446 -7470 7477 0
-7471 7477 0
-7446 -7471 7478 0
-7472 7478 0
-7446 -7472 0
-7447 7479 0
-7473 7479 0
-7447 -7473 7480 0
-7474 7480 0
-7447 -7474 7481 0
-7475 7481 0
-7447 -7475 7482 0
-7476 7482 0
-7447 -7476 7483 0
-7477 7483 0
-7447 -7477 7484 0
-7478 7484 0
-7447 -7478 0
-7448 -7484 0
-7491 15 16 17 18 19 20 21 0
-15 7491 0
-16 7491 0
-17 7491 0
-18 7491 0
-19 7491 0
-20 7491 0
-21 7491 0
-7492 64 65 66 67 68 69 70 0
-64 7492 0
-65 7492 0
-66 7492 0
-67 7492 0
-68 7492 0
-69 7492 0
-70 7492 0
-7493 113 114 115 116 117 118 119 0
-113 7493 0
-114 7493 0
-115 7493 0
-116 7493 0
-117 7493 0
-118 7493 0
-119 7493 0
-7494 162 163 164 165 166 167 168 0
-162 7494 0
-163 7494 0
-164 7494 0
-165 7494 0
-166 7494 0
-167 7494 0
-168 7494 0
-7495 211 212 213 214 215 216 217 0
-211 7495 0
-212 7495 0
-213 7495 0
-214 7495 0
-215 7495 0
-216 7495 0
-217 7495 0
-7496 260 261 262 263 264 265 266 0
-260 7496 0
-261 7496 0
-262 7496 0
-263 7496 0
-264 7496 0
-265 7496 0
-266 7496 0
-7497 309 310 311 312 313 314 315 0
-309 7497 0
-310 7497 0
-311 7497 0
-312 7497 0
-313 7497 0
-314 7497 0
-315 7497 0
-7498 16 0
-16 7498 0
-7499 65 0
-65 7499 0
-7500 114 0
-114 7500 0
-7501 163 0
-163 7501 0
-7502 212 0
-212 7502 0
-7503 261 0
-261 7503 0
-7504 310 0
-310 7504 0
-7498 7505 0
-7499 7506 0
-7505 7506 0
-7499 -7505 0
-7500 7507 0
-7506 7507 0
-7500 -7506 0
-7501 7508 0
-7507 7508 0
-7501 -7507 0
-7502 7509 0
-7508 7509 0
-7502 -7508 0
-7503 7510 0
-7509 7510 0
-7503 -7509 0
-7504 -7510 0
-7512 16 17 0
-16 7512 0
-17 7512 0
-7513 65 66 0
-65 7513 0
-66 7513 0
-7514 114 115 0
-114 7514 0
-115 7514 0
-7515 163 164 0
-163 7515 0
-164 7515 0
-7516 212 213 0
-212 7516 0
-213 7516 0
-7517 261 262 0
-261 7517 0
-262 7517 0
-7518 310 311 0
-310 7518 0
-311 7518 0
-7512 7519 0
-7520 0
-7513 7521 0
-7519 7521 0
-7513 -7519 7522 0
-7520 7522 0
-7513 -7520 0
-7514 7523 0
-7521 7523 0
-7514 -7521 7524 0
-7522 7524 0
-7514 -7522 0
-7515 7525 0
-7523 7525 0
-7515 -7523 7526 0
-7524 7526 0
-7515 -7524 0
-7516 7527 0
-7525 7527 0
-7516 -7525 7528 0
-7526 7528 0
-7516 -7526 0
-7517 7529 0
-7527 7529 0
-7517 -7527 7530 0
-7528 7530 0
-7517 -7528 0
-7518 -7530 0
-7533 16 17 18 0
-16 7533 0
-17 7533 0
-18 7533 0
-7534 65 66 67 0
-65 7534 0
-66 7534 0
-67 7534 0
-7535 114 115 116 0
-114 7535 0
-115 7535 0
-116 7535 0
-7536 163 164 165 0
-163 7536 0
-164 7536 0
-165 7536 0
-7537 212 213 214 0
-212 7537 0
-213 7537 0
-214 7537 0
-7538 261 262 263 0
-261 7538 0
-262 7538 0
-263 7538 0
-7539 310 311 312 0
-310 7539 0
-311 7539 0
-312 7539 0
-7533 7540 0
-7541 0
-7542 0
-7534 7543 0
-7540 7543 0
-7534 -7540 7544 0
-7541 7544 0
-7534 -7541 7545 0
-7542 7545 0
-7534 -7542 0
-7535 7546 0
-7543 7546 0
-7535 -7543 7547 0
-7544 7547 0
-7535 -7544 7548 0
-7545 7548 0
-7535 -7545 0
-7536 7549 0
-7546 7549 0
-7536 -7546 7550 0
-7547 7550 0
-7536 -7547 7551 0
-7548 7551 0
-7536 -7548 0
-7537 7552 0
-7549 7552 0
-7537 -7549 7553 0
-7550 7553 0
-7537 -7550 7554 0
-7551 7554 0
-7537 -7551 0
-7538 7555 0
-7552 7555 0
-7538 -7552 7556 0
-7553 7556 0
-7538 -7553 7557 0
-7554 7557 0
-7538 -7554 0
-7539 -7557 0
-7561 16 17 18 19 0
-16 7561 0
-17 7561 0
-18 7561 0
-19 7561 0
-7562 65 66 67 68 0
-65 7562 0
-66 7562 0
-67 7562 0
-68 7562 0
-7563 114 115 116 117 0
-114 7563 0
-115 7563 0
-116 7563 0
-117 7563 0
-7564 163 164 165 166 0
-163 7564 0
-164 7564 0
-165 7564 0
-166 7564 0
-7565 212 213 214 215 0
-212 7565 0
-213 7565 0
-214 7565 0
-215 7565 0
-7566 261 262 263 264 0
-261 7566 0
-262 7566 0
-263 7566 0
-264 7566 0
-7567 310 311 312 313 0
-310 7567 0
-311 7567 0
-312 7567 0
-313 7567 0
-7561 7568 0
-7569 0
-7570 0
-7571 0
-7562 7572 0
-7568 7572 0
-7562 -7568 7573 0
-7569 7573 0
-7562 -7569 7574 0
-7570 7574 0
-7562 -7570 7575 0
-7571 7575 0
-7562 -7571 0
-7563 7576 0
-7572 7576 0
-7563 -7572 7577 0
-7573 7577 0
-7563 -7573 7578 0
-7574 7578 0
-7563 -7574 7579 0
-7575 7579 0
-7563 -7575 0
-7564 7580 0
-7576 7580 0
-7564 -7576 7581 0
-7577 7581 0
-7564 -7577 7582 0
-7578 7582 0
-7564 -7578 7583 0
-7579 7583 0
-7564 -7579 0
-7565 7584 0
-7580 7584 0
-7565 -7580 7585 0
-7581 7585 0
-7565 -7581 7586 0
-7582 7586 0
-7565 -7582 7587 0
-7583 7587 0
-7565 -7583 0
-7566 7588 0
-7584 7588 0
-7566 -7584 7589 0
-7585 7589 0
-7566 -7585 7590 0
-7586 7590 0
-7566 -7586 7591 0
-7587 7591 0
-7566 -7587 0
-7567 -7591 0
-7596 16 17 18 19 20 0
-16 7596 0
-17 7596 0
-18 7596 0
-19 7596 0
-20 7596 0
-7597 65 66 67 68 69 0
-65 7597 0
-66 7597 0
-67 7597 0
-68 7597 0
-69 7597 0
-7598 114 115 116 117 118 0
-114 7598 0
-115 7598 0
-116 7598 0
-117 7598 0
-118 7598 0
-7599 163 164 165 166 167 0
-163 7599 0
-164 7599 0
-165 7599 0
-166 7599 0
-167 7599 0
-7600 212 213 214 215 216 0
-212 7600 0
-213 7600 0
-214 7600 0
-215 7600 0
-216 7600 0
-7601 261 262 263 264 265 0
-261 7601 0
-262 7601 0
-263 7601 0
-264 7601 0
-265 7601 0
-7602 310 311 312 313 314 0
-310 7602 0
-311 7602 0
-312 7602 0
-313 7602 0
-314 7602 0
-7596 7603 0
-7604 0
-7605 0
-7606 0
-7607 0
-7597 7608 0
-7603 7608 0
-7597 -7603 7609 0
-7604 7609 0
-7597 -7604 7610 0
-7605 7610 0
-7597 -7605 7611 0
-7606 7611 0
-7597 -7606 7612 0
-7607 7612 0
-7597 -7607 0
-7598 7613 0
-7608 7613 0
-7598 -7608 7614 0
-7609 7614 0
-7598 -7609 7615 0
-7610 7615 0
-7598 -7610 7616 0
-7611 7616 0
-7598 -7611 7617 0
-7612 7617 0
-7598 -7612 0
-7599 7618 0
-7613 7618 0
-7599 -7613 7619 0
-7614 7619 0
-7599 -7614 7620 0
-7615 7620 0
-7599 -7615 7621 0
-7616 7621 0
-7599 -7616 7622 0
-7617 7622 0
-7599 -7617 0
-7600 7623 0
-7618 7623 0
-7600 -7618 7624 0
-7619 7624 0
-7600 -7619 7625 0
-7620 7625 0
-7600 -7620 7626 0
-7621 7626 0
-7600 -7621 7627 0
-7622 7627 0
-7600 -7622 0
-7601 7628 0
-7623 7628 0
-7601 -7623 7629 0
-7624 7629 0
-7601 -7624 7630 0
-7625 7630 0
-7601 -7625 7631 0
-7626 7631 0
-7601 -7626 7632 0
-7627 7632 0
-7601 -7627 0
-7602 -7632 0
-7638 16 17 18 19 20 21 0
-16 7638 0
-17 7638 0
-18 7638 0
-19 7638 0
-20 7638 0
-21 7638 0
-7639 65 66 67 68 69 70 0
-65 7639 0
-66 7639 0
-67 7639 0
-68 7639 0
-69 7639 0
-70 7639 0
-7640 114 115 116 117 118 119 0
-114 7640 0
-115 7640 0
-116 7640 0
-117 7640 0
-118 7640 0
-119 7640 0
-7641 163 164 165 166 167 168 0
-163 7641 0
-164 7641 0
-165 7641 0
-166 7641 0
-167 7641 0
-168 7641 0
-7642 212 213 214 215 216 217 0
-212 7642 0
-213 7642 0
-214 7642 0
-215 7642 0
-216 7642 0
-217 7642 0
-7643 261 262 263 264 265 266 0
-261 7643 0
-262 7643 0
-263 7643 0
-264 7643 0
-265 7643 0
-266 7643 0
-7644 310 311 312 313 314 315 0
-310 7644 0
-311 7644 0
-312 7644 0
-313 7644 0
-314 7644 0
-315 7644 0
-7638 7645 0
-7646 0
-7647 0
-7648 0
-7649 0
-7650 0
-7639 7651 0
-7645 7651 0
-7639 -7645 7652 0
-7646 7652 0
-7639 -7646 7653 0
-7647 7653 0
-7639 -7647 7654 0
-7648 7654 0
-7639 -7648 7655 0
-7649 7655 0
-7639 -7649 7656 0
-7650 7656 0
-7639 -7650 0
-7640 7657 0
-7651 7657 0
-7640 -7651 7658 0
-7652 7658 0
-7640 -7652 7659 0
-7653 7659 0
-7640 -7653 7660 0
-7654 7660 0
-7640 -7654 7661 0
-7655 7661 0
-7640 -7655 7662 0
-7656 7662 0
-7640 -7656 0
-7641 7663 0
-7657 7663 0
-7641 -7657 7664 0
-7658 7664 0
-7641 -7658 7665 0
-7659 7665 0
-7641 -7659 7666 0
-7660 7666 0
-7641 -7660 7667 0
-7661 7667 0
-7641 -7661 7668 0
-7662 7668 0
-7641 -7662 0
-7642 7669 0
-7663 7669 0
-7642 -7663 7670 0
-7664 7670 0
-7642 -7664 7671 0
-7665 7671 0
-7642 -7665 7672 0
-7666 7672 0
-7642 -7666 7673 0
-7667 7673 0
-7642 -7667 7674 0
-7668 7674 0
-7642 -7668 0
-7643 7675 0
-7669 7675 0
-7643 -7669 7676 0
-7670 7676 0
-7643 -7670 7677 0
-7671 7677 0
-7643 -7671 7678 0
-7672 7678 0
-7643 -7672 7679 0
-7673 7679 0
-7643 -7673 7680 0
-7674 7680 0
-7643 -7674 0
-7644 -7680 0
-7687 17 0
-17 7687 0
-7688 66 0
-66 7688 0
-7689 115 0
-115 7689 0
-7690 164 0
-164 7690 0
-7691 213 0
-213 7691 0
-7692 262 0
-262 7692 0
-7693 311 0
-311 7693 0
-7687 7694 0
-7688 7695 0
-7694 7695 0
-7688 -7694 0
-7689 7696 0
-7695 7696 0
-7689 -7695 0
-7690 7697 0
-7696 7697 0
-7690 -7696 0
-7691 7698 0
-7697 7698 0
-7691 -7697 0
-7692 7699 0
-7698 7699 0
-7692 -7698 0
-7693 -7699 0
-7701 17 18 0
-17 7701 0
-18 7701 0
-7702 66 67 0
-66 7702 0
-67 7702 0
-7703 115 116 0
-115 7703 0
-116 7703 0
-7704 164 165 0
-164 7704 0
-165 7704 0
-7705 213 214 0
-213 7705 0
-214 7705 0
-7706 262 263 0
-262 7706 0
-263 7706 0
-7707 311 312 0
-311 7707 0
-312 7707 0
-7701 7708 0
-7709 0
-7702 7710 0
-7708 7710 0
-7702 -7708 7711 0
-7709 7711 0
-7702 -7709 0
-7703 7712 0
-7710 7712 0
-7703 -7710 7713 0
-7711 7713 0
-7703 -7711 0
-7704 7714 0
-7712 7714 0
-7704 -7712 7715 0
-7713 7715 0
-7704 -7713 0
-7705 7716 0
-7714 7716 0
-7705 -7714 7717 0
-7715 7717 0
-7705 -7715 0
-7706 7718 0
-7716 7718 0
-7706 -7716 7719 0
-7717 7719 0
-7706 -7717 0
-7707 -7719 0
-7722 17 18 19 0
-17 7722 0
-18 7722 0
-19 7722 0
-7723 66 67 68 0
-66 7723 0
-67 7723 0
-68 7723 0
-7724 115 116 117 0
-115 7724 0
-116 7724 0
-117 7724 0
-7725 164 165 166 0
-164 7725 0
-165 7725 0
-166 7725 0
-7726 213 214 215 0
-213 7726 0
-214 7726 0
-215 7726 0
-7727 262 263 264 0
-262 7727 0
-263 7727 0
-264 7727 0
-7728 311 312 313 0
-311 7728 0
-312 7728 0
-313 7728 0
-7722 7729 0
-7730 0
-7731 0
-7723 7732 0
-7729 7732 0
-7723 -7729 7733 0
-7730 7733 0
-7723 -7730 7734 0
-7731 7734 0
-7723 -7731 0
-7724 7735 0
-7732 7735 0
-7724 -7732 7736 0
-7733 7736 0
-7724 -7733 7737 0
-7734 7737 0
-7724 -7734 0
-7725 7738 0
-7735 7738 0
-7725 -7735 7739 0
-7736 7739 0
-7725 -7736 7740 0
-7737 7740 0
-7725 -7737 0
-7726 7741 0
-7738 7741 0
-7726 -7738 7742 0
-7739 7742 0
-7726 -7739 7743 0
-7740 7743 0
-7726 -7740 0
-7727 7744 0
-7741 7744 0
-7727 -7741 7745 0
-7742 7745 0
-7727 -7742 7746 0
-7743 7746 0
-7727 -7743 0
-7728 -7746 0
-7750 17 18 19 20 0
-17 7750 0
-18 7750 0
-19 7750 0
-20 7750 0
-7751 66 67 68 69 0
-66 7751 0
-67 7751 0
-68 7751 0
-69 7751 0
-7752 115 116 117 118 0
-115 7752 0
-116 7752 0
-117 7752 0
-118 7752 0
-7753 164 165 166 167 0
-164 7753 0
-165 7753 0
-166 7753 0
-167 7753 0
-7754 213 214 215 216 0
-213 7754 0
-214 7754 0
-215 7754 0
-216 7754 0
-7755 262 263 264 265 0
-262 7755 0
-263 7755 0
-264 7755 0
-265 7755 0
-7756 311 312 313 314 0
-311 7756 0
-312 7756 0
-313 7756 0
-314 7756 0
-7750 7757 0
-7758 0
-7759 0
-7760 0
-7751 7761 0
-7757 7761 0
-7751 -7757 7762 0
-7758 7762 0
-7751 -7758 7763 0
-7759 7763 0
-7751 -7759 7764 0
-7760 7764 0
-7751 -7760 0
-7752 7765 0
-7761 7765 0
-7752 -7761 7766 0
-7762 7766 0
-7752 -7762 7767 0
-7763 7767 0
-7752 -7763 7768 0
-7764 7768 0
-7752 -7764 0
-7753 7769 0
-7765 7769 0
-7753 -7765 7770 0
-7766 7770 0
-7753 -7766 7771 0
-7767 7771 0
-7753 -7767 7772 0
-7768 7772 0
-7753 -7768 0
-7754 7773 0
-7769 7773 0
-7754 -7769 7774 0
-7770 7774 0
-7754 -7770 7775 0
-7771 7775 0
-7754 -7771 7776 0
-7772 7776 0
-7754 -7772 0
-7755 7777 0
-7773 7777 0
-7755 -7773 7778 0
-7774 7778 0
-7755 -7774 7779 0
-7775 7779 0
-7755 -7775 7780 0
-7776 7780 0
-7755 -7776 0
-7756 -7780 0
-7785 17 18 19 20 21 0
-17 7785 0
-18 7785 0
-19 7785 0
-20 7785 0
-21 7785 0
-7786 66 67 68 69 70 0
-66 7786 0
-67 7786 0
-68 7786 0
-69 7786 0
-70 7786 0
-7787 115 116 117 118 119 0
-115 7787 0
-116 7787 0
-117 7787 0
-118 7787 0
-119 7787 0
-7788 164 165 166 167 168 0
-164 7788 0
-165 7788 0
-166 7788 0
-167 7788 0
-168 7788 0
-7789 213 214 215 216 217 0
-213 7789 0
-214 7789 0
-215 7789 0
-216 7789 0
-217 7789 0
-7790 262 263 264 265 266 0
-262 7790 0
-263 7790 0
-264 7790 0
-265 7790 0
-266 7790 0
-7791 311 312 313 314 315 0
-311 7791 0
-312 7791 0
-313 7791 0
-314 7791 0
-315 7791 0
-7785 7792 0
-7793 0
-7794 0
-7795 0
-7796 0
-7786 7797 0
-7792 7797 0
-7786 -7792 7798 0
-7793 7798 0
-7786 -7793 7799 0
-7794 7799 0
-7786 -7794 7800 0
-7795 7800 0
-7786 -7795 7801 0
-7796 7801 0
-7786 -7796 0
-7787 7802 0
-7797 7802 0
-7787 -7797 7803 0
-7798 7803 0
-7787 -7798 7804 0
-7799 7804 0
-7787 -7799 7805 0
-7800 7805 0
-7787 -7800 7806 0
-7801 7806 0
-7787 -7801 0
-7788 7807 0
-7802 7807 0
-7788 -7802 7808 0
-7803 7808 0
-7788 -7803 7809 0
-7804 7809 0
-7788 -7804 7810 0
-7805 7810 0
-7788 -7805 7811 0
-7806 7811 0
-7788 -7806 0
-7789 7812 0
-7807 7812 0
-7789 -7807 7813 0
-7808 7813 0
-7789 -7808 7814 0
-7809 7814 0
-7789 -7809 7815 0
-7810 7815 0
-7789 -7810 7816 0
-7811 7816 0
-7789 -7811 0
-7790 7817 0
-7812 7817 0
-7790 -7812 7818 0
-7813 7818 0
-7790 -7813 7819 0
-7814 7819 0
-7790 -7814 7820 0
-7815 7820 0
-7790 -7815 7821 0
-7816 7821 0
-7790 -7816 0
-7791 -7821 0
-7827 18 0
-18 7827 0
-7828 67 0
-67 7828 0
-7829 116 0
-116 7829 0
-7830 165 0
-165 7830 0
-7831 214 0
-214 7831 0
-7832 263 0
-263 7832 0
-7833 312 0
-312 7833 0
-7827 7834 0
-7828 7835 0
-7834 7835 0
-7828 -7834 0
-7829 7836 0
-7835 7836 0
-7829 -7835 0
-7830 7837 0
-7836 7837 0
-7830 -7836 0
-7831 7838 0
-7837 7838 0
-7831 -7837 0
-7832 7839 0
-7838 7839 0
-7832 -7838 0
-7833 -7839 0
-7841 18 19 0
-18 7841 0
-19 7841 0
-7842 67 68 0
-67 7842 0
-68 7842 0
-7843 116 117 0
-116 7843 0
-117 7843 0
-7844 165 166 0
-165 7844 0
-166 7844 0
-7845 214 215 0
-214 7845 0
-215 7845 0
-7846 263 264 0
-263 7846 0
-264 7846 0
-7847 312 313 0
-312 7847 0
-313 7847 0
-7841 7848 0
-7849 0
-7842 7850 0
-7848 7850 0
-7842 -7848 7851 0
-7849 7851 0
-7842 -7849 0
-7843 7852 0
-7850 7852 0
-7843 -7850 7853 0
-7851 7853 0
-7843 -7851 0
-7844 7854 0
-7852 7854 0
-7844 -7852 7855 0
-7853 7855 0
-7844 -7853 0
-7845 7856 0
-7854 7856 0
-7845 -7854 7857 0
-7855 7857 0
-7845 -7855 0
-7846 7858 0
-7856 7858 0
-7846 -7856 7859 0
-7857 7859 0
-7846 -7857 0
-7847 -7859 0
-7862 18 19 20 0
-18 7862 0
-19 7862 0
-20 7862 0
-7863 67 68 69 0
-67 7863 0
-68 7863 0
-69 7863 0
-7864 116 117 118 0
-116 7864 0
-117 7864 0
-118 7864 0
-7865 165 166 167 0
-165 7865 0
-166 7865 0
-167 7865 0
-7866 214 215 216 0
-214 7866 0
-215 7866 0
-216 7866 0
-7867 263 264 265 0
-263 7867 0
-264 7867 0
-265 7867 0
-7868 312 313 314 0
-312 7868 0
-313 7868 0
-314 7868 0
-7862 7869 0
-7870 0
-7871 0
-7863 7872 0
-7869 7872 0
-7863 -7869 7873 0
-7870 7873 0
-7863 -7870 7874 0
-7871 7874 0
-7863 -7871 0
-7864 7875 0
-7872 7875 0
-7864 -7872 7876 0
-7873 7876 0
-7864 -7873 7877 0
-7874 7877 0
-7864 -7874 0
-7865 7878 0
-7875 7878 0
-7865 -7875 7879 0
-7876 7879 0
-7865 -7876 7880 0
-7877 7880 0
-7865 -7877 0
-7866 7881 0
-7878 7881 0
-7866 -7878 7882 0
-7879 7882 0
-7866 -7879 7883 0
-7880 7883 0
-7866 -7880 0
-7867 7884 0
-7881 7884 0
-7867 -7881 7885 0
-7882 7885 0
-7867 -7882 7886 0
-7883 7886 0
-7867 -7883 0
-7868 -7886 0
-7890 18 19 20 21 0
-18 7890 0
-19 7890 0
-20 7890 0
-21 7890 0
-7891 67 68 69 70 0
-67 7891 0
-68 7891 0
-69 7891 0
-70 7891 0
-7892 116 117 118 119 0
-116 7892 0
-117 7892 0
-118 7892 0
-119 7892 0
-7893 165 166 167 168 0
-165 7893 0
-166 7893 0
-167 7893 0
-168 7893 0
-7894 214 215 216 217 0
-214 7894 0
-215 7894 0
-216 7894 0
-217 7894 0
-7895 263 264 265 266 0
-263 7895 0
-264 7895 0
-265 7895 0
-266 7895 0
-7896 312 313 314 315 0
-312 7896 0
-313 7896 0
-314 7896 0
-315 7896 0
-7890 7897 0
-7898 0
-7899 0
-7900 0
-7891 7901 0
-7897 7901 0
-7891 -7897 7902 0
-7898 7902 0
-7891 -7898 7903 0
-7899 7903 0
-7891 -7899 7904 0
-7900 7904 0
-7891 -7900 0
-7892 7905 0
-7901 7905 0
-7892 -7901 7906 0
-7902 7906 0
-7892 -7902 7907 0
-7903 7907 0
-7892 -7903 7908 0
-7904 7908 0
-7892 -7904 0
-7893 7909 0
-7905 7909 0
-7893 -7905 7910 0
-7906 7910 0
-7893 -7906 7911 0
-7907 7911 0
-7893 -7907 7912 0
-7908 7912 0
-7893 -7908 0
-7894 7913 0
-7909 7913 0
-7894 -7909 7914 0
-7910 7914 0
-7894 -7910 7915 0
-7911 7915 0
-7894 -7911 7916 0
-7912 7916 0
-7894 -7912 0
-7895 7917 0
-7913 7917 0
-7895 -7913 7918 0
-7914 7918 0
-7895 -7914 7919 0
-7915 7919 0
-7895 -7915 7920 0
-7916 7920 0
-7895 -7916 0
-7896 -7920 0
-7925 19 0
-19 7925 0
-7926 68 0
-68 7926 0
-7927 117 0
-117 7927 0
-7928 166 0
-166 7928 0
-7929 215 0
-215 7929 0
-7930 264 0
-264 7930 0
-7931 313 0
-313 7931 0
-7925 7932 0
-7926 7933 0
-7932 7933 0
-7926 -7932 0
-7927 7934 0
-7933 7934 0
-7927 -7933 0
-7928 7935 0
-7934 7935 0
-7928 -7934 0
-7929 7936 0
-7935 7936 0
-7929 -7935 0
-7930 7937 0
-7936 7937 0
-7930 -7936 0
-7931 -7937 0
-7939 19 20 0
-19 7939 0
-20 7939 0
-7940 68 69 0
-68 7940 0
-69 7940 0
-7941 117 118 0
-117 7941 0
-118 7941 0
-7942 166 167 0
-166 7942 0
-167 7942 0
-7943 215 216 0
-215 7943 0
-216 7943 0
-7944 264 265 0
-264 7944 0
-265 7944 0
-7945 313 314 0
-313 7945 0
-314 7945 0
-7939 7946 0
-7947 0
-7940 7948 0
-7946 7948 0
-7940 -7946 7949 0
-7947 7949 0
-7940 -7947 0
-7941 7950 0
-7948 7950 0
-7941 -7948 7951 0
-7949 7951 0
-7941 -7949 0
-7942 7952 0
-7950 7952 0
-7942 -7950 7953 0
-7951 7953 0
-7942 -7951 0
-7943 7954 0
-7952 7954 0
-7943 -7952 7955 0
-7953 7955 0
-7943 -7953 0
-7944 7956 0
-7954 7956 0
-7944 -7954 7957 0
-7955 7957 0
-7944 -7955 0
-7945 -7957 0
-7960 19 20 21 0
-19 7960 0
-20 7960 0
-21 7960 0
-7961 68 69 70 0
-68 7961 0
-69 7961 0
-70 7961 0
-7962 117 118 119 0
-117 7962 0
-118 7962 0
-119 7962 0
-7963 166 167 168 0
-166 7963 0
-167 7963 0
-168 7963 0
-7964 215 216 217 0
-215 7964 0
-216 7964 0
-217 7964 0
-7965 264 265 266 0
-264 7965 0
-265 7965 0
-266 7965 0
-7966 313 314 315 0
-313 7966 0
-314 7966 0
-315 7966 0
-7960 7967 0
-7968 0
-7969 0
-7961 7970 0
-7967 7970 0
-7961 -7967 7971 0
-7968 7971 0
-7961 -7968 7972 0
-7969 7972 0
-7961 -7969 0
-7962 7973 0
-7970 7973 0
-7962 -7970 7974 0
-7971 7974 0
-7962 -7971 7975 0
-7972 7975 0
-7962 -7972 0
-7963 7976 0
-7973 7976 0
-7963 -7973 7977 0
-7974 7977 0
-7963 -7974 7978 0
-7975 7978 0
-7963 -7975 0
-7964 7979 0
-7976 7979 0
-7964 -7976 7980 0
-7977 7980 0
-7964 -7977 7981 0
-7978 7981 0
-7964 -7978 0
-7965 7982 0
-7979 7982 0
-7965 -7979 7983 0
-7980 7983 0
-7965 -7980 7984 0
-7981 7984 0
-7965 -7981 0
-7966 -7984 0
-7988 20 0
-20 7988 0
-7989 69 0
-69 7989 0
-7990 118 0
-118 7990 0
-7991 167 0
-167 7991 0
-7992 216 0
-216 7992 0
-7993 265 0
-265 7993 0
-7994 314 0
-314 7994 0
-7988 7995 0
-7989 7996 0
-7995 7996 0
-7989 -7995 0
-7990 7997 0
-7996 7997 0
-7990 -7996 0
-7991 7998 0
-7997 7998 0
-7991 -7997 0
-7992 7999 0
-7998 7999 0
-7992 -7998 0
-7993 8000 0
-7999 8000 0
-7993 -7999 0
-7994 -8000 0
-8002 20 21 0
-20 8002 0
-21 8002 0
-8003 69 70 0
-69 8003 0
-70 8003 0
-8004 118 119 0
-118 8004 0
-119 8004 0
-8005 167 168 0
-167 8005 0
-168 8005 0
-8006 216 217 0
-216 8006 0
-217 8006 0
-8007 265 266 0
-265 8007 0
-266 8007 0
-8008 314 315 0
-314 8008 0
-315 8008 0
-8002 8009 0
-8010 0
-8003 8011 0
-8009 8011 0
-8003 -8009 8012 0
-8010 8012 0
-8003 -8010 0
-8004 8013 0
-8011 8013 0
-8004 -8011 8014 0
-8012 8014 0
-8004 -8012 0
-8005 8015 0
-8013 8015 0
-8005 -8013 8016 0
-8014 8016 0
-8005 -8014 0
-8006 8017 0
-8015 8017 0
-8006 -8015 8018 0
-8016 8018 0
-8006 -8016 0
-8007 8019 0
-8017 8019 0
-8007 -8017 8020 0
-8018 8020 0
-8007 -8018 0
-8008 -8020 0
-8023 21 0
-21 8023 0
-8024 70 0
-70 8024 0
-8025 119 0
-119 8025 0
-8026 168 0
-168 8026 0
-8027 217 0
-217 8027 0
-8028 266 0
-266 8028 0
-8029 315 0
-315 8029 0
-8023 8030 0
-8024 8031 0
-8030 8031 0
-8024 -8030 0
-8025 8032 0
-8031 8032 0
-8025 -8031 0
-8026 8033 0
-8032 8033 0
-8026 -8032 0
-8027 8034 0
-8033 8034 0
-8027 -8033 0
-8028 8035 0
-8034 8035 0
-8028 -8034 0
-8029 -8035 0
-8037 22 0
-22 8037 0
-8038 71 0
-71 8038 0
-8039 120 0
-120 8039 0
-8040 169 0
-169 8040 0
-8041 218 0
-218 8041 0
-8042 267 0
-267 8042 0
-8043 316 0
-316 8043 0
-8037 8044 0
-8038 8045 0
-8044 8045 0
-8038 -8044 0
-8039 8046 0
-8045 8046 0
-8039 -8045 0
-8040 8047 0
-8046 8047 0
-8040 -8046 0
-8041 8048 0
-8047 8048 0
-8041 -8047 0
-8042 8049 0
-8048 8049 0
-8042 -8048 0
-8043 -8049 0
-8051 22 23 0
-22 8051 0
-23 8051 0
-8052 71 72 0
-71 8052 0
-72 8052 0
-8053 120 121 0
-120 8053 0
-121 8053 0
-8054 169 170 0
-169 8054 0
-170 8054 0
-8055 218 219 0
-218 8055 0
-219 8055 0
-8056 267 268 0
-267 8056 0
-268 8056 0
-8057 316 317 0
-316 8057 0
-317 8057 0
-8051 8058 0
-8059 0
-8052 8060 0
-8058 8060 0
-8052 -8058 8061 0
-8059 8061 0
-8052 -8059 0
-8053 8062 0
-8060 8062 0
-8053 -8060 8063 0
-8061 8063 0
-8053 -8061 0
-8054 8064 0
-8062 8064 0
-8054 -8062 8065 0
-8063 8065 0
-8054 -8063 0
-8055 8066 0
-8064 8066 0
-8055 -8064 8067 0
-8065 8067 0
-8055 -8065 0
-8056 8068 0
-8066 8068 0
-8056 -8066 8069 0
-8067 8069 0
-8056 -8067 0
-8057 -8069 0
-8072 22 23 24 0
-22 8072 0
-23 8072 0
-24 8072 0
-8073 71 72 73 0
-71 8073 0
-72 8073 0
-73 8073 0
-8074 120 121 122 0
-120 8074 0
-121 8074 0
-122 8074 0
-8075 169 170 171 0
-169 8075 0
-170 8075 0
-171 8075 0
-8076 218 219 220 0
-218 8076 0
-219 8076 0
-220 8076 0
-8077 267 268 269 0
-267 8077 0
-268 8077 0
-269 8077 0
-8078 316 317 318 0
-316 8078 0
-317 8078 0
-318 8078 0
-8072 8079 0
-8080 0
-8081 0
-8073 8082 0
-8079 8082 0
-8073 -8079 8083 0
-8080 8083 0
-8073 -8080 8084 0
-8081 8084 0
-8073 -8081 0
-8074 8085 0
-8082 8085 0
-8074 -8082 8086 0
-8083 8086 0
-8074 -8083 8087 0
-8084 8087 0
-8074 -8084 0
-8075 8088 0
-8085 8088 0
-8075 -8085 8089 0
-8086 8089 0
-8075 -8086 8090 0
-8087 8090 0
-8075 -8087 0
-8076 8091 0
-8088 8091 0
-8076 -8088 8092 0
-8089 8092 0
-8076 -8089 8093 0
-8090 8093 0
-8076 -8090 0
-8077 8094 0
-8091 8094 0
-8077 -8091 8095 0
-8092 8095 0
-8077 -8092 8096 0
-8093 8096 0
-8077 -8093 0
-8078 -8096 0
-8100 22 23 24 25 0
-22 8100 0
-23 8100 0
-24 8100 0
-25 8100 0
-8101 71 72 73 74 0
-71 8101 0
-72 8101 0
-73 8101 0
-74 8101 0
-8102 120 121 122 123 0
-120 8102 0
-121 8102 0
-122 8102 0
-123 8102 0
-8103 169 170 171 172 0
-169 8103 0
-170 8103 0
-171 8103 0
-172 8103 0
-8104 218 219 220 221 0
-218 8104 0
-219 8104 0
-220 8104 0
-221 8104 0
-8105 267 268 269 270 0
-267 8105 0
-268 8105 0
-269 8105 0
-270 8105 0
-8106 316 317 318 319 0
-316 8106 0
-317 8106 0
-318 8106 0
-319 8106 0
-8100 8107 0
-8108 0
-8109 0
-8110 0
-8101 8111 0
-8107 8111 0
-8101 -8107 8112 0
-8108 8112 0
-8101 -8108 8113 0
-8109 8113 0
-8101 -8109 8114 0
-8110 8114 0
-8101 -8110 0
-8102 8115 0
-8111 8115 0
-8102 -8111 8116 0
-8112 8116 0
-8102 -8112 8117 0
-8113 8117 0
-8102 -8113 8118 0
-8114 8118 0
-8102 -8114 0
-8103 8119 0
-8115 8119 0
-8103 -8115 8120 0
-8116 8120 0
-8103 -8116 8121 0
-8117 8121 0
-8103 -8117 8122 0
-8118 8122 0
-8103 -8118 0
-8104 8123 0
-8119 8123 0
-8104 -8119 8124 0
-8120 8124 0
-8104 -8120 8125 0
-8121 8125 0
-8104 -8121 8126 0
-8122 8126 0
-8104 -8122 0
-8105 8127 0
-8123 8127 0
-8105 -8123 8128 0
-8124 8128 0
-8105 -8124 8129 0
-8125 8129 0
-8105 -8125 8130 0
-8126 8130 0
-8105 -8126 0
-8106 -8130 0
-8135 22 23 24 25 26 0
-22 8135 0
-23 8135 0
-24 8135 0
-25 8135 0
-26 8135 0
-8136 71 72 73 74 75 0
-71 8136 0
-72 8136 0
-73 8136 0
-74 8136 0
-75 8136 0
-8137 120 121 122 123 124 0
-120 8137 0
-121 8137 0
-122 8137 0
-123 8137 0
-124 8137 0
-8138 169 170 171 172 173 0
-169 8138 0
-170 8138 0
-171 8138 0
-172 8138 0
-173 8138 0
-8139 218 219 220 221 222 0
-218 8139 0
-219 8139 0
-220 8139 0
-221 8139 0
-222 8139 0
-8140 267 268 269 270 271 0
-267 8140 0
-268 8140 0
-269 8140 0
-270 8140 0
-271 8140 0
-8141 316 317 318 319 320 0
-316 8141 0
-317 8141 0
-318 8141 0
-319 8141 0
-320 8141 0
-8135 8142 0
-8143 0
-8144 0
-8145 0
-8146 0
-8136 8147 0
-8142 8147 0
-8136 -8142 8148 0
-8143 8148 0
-8136 -8143 8149 0
-8144 8149 0
-8136 -8144 8150 0
-8145 8150 0
-8136 -8145 8151 0
-8146 8151 0
-8136 -8146 0
-8137 8152 0
-8147 8152 0
-8137 -8147 8153 0
-8148 8153 0
-8137 -8148 8154 0
-8149 8154 0
-8137 -8149 8155 0
-8150 8155 0
-8137 -8150 8156 0
-8151 8156 0
-8137 -8151 0
-8138 8157 0
-8152 8157 0
-8138 -8152 8158 0
-8153 8158 0
-8138 -8153 8159 0
-8154 8159 0
-8138 -8154 8160 0
-8155 8160 0
-8138 -8155 8161 0
-8156 8161 0
-8138 -8156 0
-8139 8162 0
-8157 8162 0
-8139 -8157 8163 0
-8158 8163 0
-8139 -8158 8164 0
-8159 8164 0
-8139 -8159 8165 0
-8160 8165 0
-8139 -8160 8166 0
-8161 8166 0
-8139 -8161 0
-8140 8167 0
-8162 8167 0
-8140 -8162 8168 0
-8163 8168 0
-8140 -8163 8169 0
-8164 8169 0
-8140 -8164 8170 0
-8165 8170 0
-8140 -8165 8171 0
-8166 8171 0
-8140 -8166 0
-8141 -8171 0
-8177 22 23 24 25 26 27 0
-22 8177 0
-23 8177 0
-24 8177 0
-25 8177 0
-26 8177 0
-27 8177 0
-8178 71 72 73 74 75 76 0
-71 8178 0
-72 8178 0
-73 8178 0
-74 8178 0
-75 8178 0
-76 8178 0
-8179 120 121 122 123 124 125 0
-120 8179 0
-121 8179 0
-122 8179 0
-123 8179 0
-124 8179 0
-125 8179 0
-8180 169 170 171 172 173 174 0
-169 8180 0
-170 8180 0
-171 8180 0
-172 8180 0
-173 8180 0
-174 8180 0
-8181 218 219 220 221 222 223 0
-218 8181 0
-219 8181 0
-220 8181 0
-221 8181 0
-222 8181 0
-223 8181 0
-8182 267 268 269 270 271 272 0
-267 8182 0
-268 8182 0
-269 8182 0
-270 8182 0
-271 8182 0
-272 8182 0
-8183 316 317 318 319 320 321 0
-316 8183 0
-317 8183 0
-318 8183 0
-319 8183 0
-320 8183 0
-321 8183 0
-8177 8184 0
-8185 0
-8186 0
-8187 0
-8188 0
-8189 0
-8178 8190 0
-8184 8190 0
-8178 -8184 8191 0
-8185 8191 0
-8178 -8185 8192 0
-8186 8192 0
-8178 -8186 8193 0
-8187 8193 0
-8178 -8187 8194 0
-8188 8194 0
-8178 -8188 8195 0
-8189 8195 0
-8178 -8189 0
-8179 8196 0
-8190 8196 0
-8179 -8190 8197 0
-8191 8197 0
-8179 -8191 8198 0
-8192 8198 0
-8179 -8192 8199 0
-8193 8199 0
-8179 -8193 8200 0
-8194 8200 0
-8179 -8194 8201 0
-8195 8201 0
-8179 -8195 0
-8180 8202 0
-8196 8202 0
-8180 -8196 8203 0
-8197 8203 0
-8180 -8197 8204 0
-8198 8204 0
-8180 -8198 8205 0
-8199 8205 0
-8180 -8199 8206 0
-8200 8206 0
-8180 -8200 8207 0
-8201 8207 0
-8180 -8201 0
-8181 8208 0
-8202 8208 0
-8181 -8202 8209 0
-8203 8209 0
-8181 -8203 8210 0
-8204 8210 0
-8181 -8204 8211 0
-8205 8211 0
-8181 -8205 8212 0
-8206 8212 0
-8181 -8206 8213 0
-8207 8213 0
-8181 -8207 0
-8182 8214 0
-8208 8214 0
-8182 -8208 8215 0
-8209 8215 0
-8182 -8209 8216 0
-8210 8216 0
-8182 -8210 8217 0
-8211 8217 0
-8182 -8211 8218 0
-8212 8218 0
-8182 -8212 8219 0
-8213 8219 0
-8182 -8213 0
-8183 -8219 0
-8226 22 23 24 25 26 27 28 0
-22 8226 0
-23 8226 0
-24 8226 0
-25 8226 0
-26 8226 0
-27 8226 0
-28 8226 0
-8227 71 72 73 74 75 76 77 0
-71 8227 0
-72 8227 0
-73 8227 0
-74 8227 0
-75 8227 0
-76 8227 0
-77 8227 0
-8228 120 121 122 123 124 125 126 0
-120 8228 0
-121 8228 0
-122 8228 0
-123 8228 0
-124 8228 0
-125 8228 0
-126 8228 0
-8229 169 170 171 172 173 174 175 0
-169 8229 0
-170 8229 0
-171 8229 0
-172 8229 0
-173 8229 0
-174 8229 0
-175 8229 0
-8230 218 219 220 221 222 223 224 0
-218 8230 0
-219 8230 0
-220 8230 0
-221 8230 0
-222 8230 0
-223 8230 0
-224 8230 0
-8231 267 268 269 270 271 272 273 0
-267 8231 0
-268 8231 0
-269 8231 0
-270 8231 0
-271 8231 0
-272 8231 0
-273 8231 0
-8232 316 317 318 319 320 321 322 0
-316 8232 0
-317 8232 0
-318 8232 0
-319 8232 0
-320 8232 0
-321 8232 0
-322 8232 0
-8233 23 0
-23 8233 0
-8234 72 0
-72 8234 0
-8235 121 0
-121 8235 0
-8236 170 0
-170 8236 0
-8237 219 0
-219 8237 0
-8238 268 0
-268 8238 0
-8239 317 0
-317 8239 0
-8233 8240 0
-8234 8241 0
-8240 8241 0
-8234 -8240 0
-8235 8242 0
-8241 8242 0
-8235 -8241 0
-8236 8243 0
-8242 8243 0
-8236 -8242 0
-8237 8244 0
-8243 8244 0
-8237 -8243 0
-8238 8245 0
-8244 8245 0
-8238 -8244 0
-8239 -8245 0
-8247 23 24 0
-23 8247 0
-24 8247 0
-8248 72 73 0
-72 8248 0
-73 8248 0
-8249 121 122 0
-121 8249 0
-122 8249 0
-8250 170 171 0
-170 8250 0
-171 8250 0
-8251 219 220 0
-219 8251 0
-220 8251 0
-8252 268 269 0
-268 8252 0
-269 8252 0
-8253 317 318 0
-317 8253 0
-318 8253 0
-8247 8254 0
-8255 0
-8248 8256 0
-8254 8256 0
-8248 -8254 8257 0
-8255 8257 0
-8248 -8255 0
-8249 8258 0
-8256 8258 0
-8249 -8256 8259 0
-8257 8259 0
-8249 -8257 0
-8250 8260 0
-8258 8260 0
-8250 -8258 8261 0
-8259 8261 0
-8250 -8259 0
-8251 8262 0
-8260 8262 0
-8251 -8260 8263 0
-8261 8263 0
-8251 -8261 0
-8252 8264 0
-8262 8264 0
-8252 -8262 8265 0
-8263 8265 0
-8252 -8263 0
-8253 -8265 0
-8268 23 24 25 0
-23 8268 0
-24 8268 0
-25 8268 0
-8269 72 73 74 0
-72 8269 0
-73 8269 0
-74 8269 0
-8270 121 122 123 0
-121 8270 0
-122 8270 0
-123 8270 0
-8271 170 171 172 0
-170 8271 0
-171 8271 0
-172 8271 0
-8272 219 220 221 0
-219 8272 0
-220 8272 0
-221 8272 0
-8273 268 269 270 0
-268 8273 0
-269 8273 0
-270 8273 0
-8274 317 318 319 0
-317 8274 0
-318 8274 0
-319 8274 0
-8268 8275 0
-8276 0
-8277 0
-8269 8278 0
-8275 8278 0
-8269 -8275 8279 0
-8276 8279 0
-8269 -8276 8280 0
-8277 8280 0
-8269 -8277 0
-8270 8281 0
-8278 8281 0
-8270 -8278 8282 0
-8279 8282 0
-8270 -8279 8283 0
-8280 8283 0
-8270 -8280 0
-8271 8284 0
-8281 8284 0
-8271 -8281 8285 0
-8282 8285 0
-8271 -8282 8286 0
-8283 8286 0
-8271 -8283 0
-8272 8287 0
-8284 8287 0
-8272 -8284 8288 0
-8285 8288 0
-8272 -8285 8289 0
-8286 8289 0
-8272 -8286 0
-8273 8290 0
-8287 8290 0
-8273 -8287 8291 0
-8288 8291 0
-8273 -8288 8292 0
-8289 8292 0
-8273 -8289 0
-8274 -8292 0
-8296 23 24 25 26 0
-23 8296 0
-24 8296 0
-25 8296 0
-26 8296 0
-8297 72 73 74 75 0
-72 8297 0
-73 8297 0
-74 8297 0
-75 8297 0
-8298 121 122 123 124 0
-121 8298 0
-122 8298 0
-123 8298 0
-124 8298 0
-8299 170 171 172 173 0
-170 8299 0
-171 8299 0
-172 8299 0
-173 8299 0
-8300 219 220 221 222 0
-219 8300 0
-220 8300 0
-221 8300 0
-222 8300 0
-8301 268 269 270 271 0
-268 8301 0
-269 8301 0
-270 8301 0
-271 8301 0
-8302 317 318 319 320 0
-317 8302 0
-318 8302 0
-319 8302 0
-320 8302 0
-8296 8303 0
-8304 0
-8305 0
-8306 0
-8297 8307 0
-8303 8307 0
-8297 -8303 8308 0
-8304 8308 0
-8297 -8304 8309 0
-8305 8309 0
-8297 -8305 8310 0
-8306 8310 0
-8297 -8306 0
-8298 8311 0
-8307 8311 0
-8298 -8307 8312 0
-8308 8312 0
-8298 -8308 8313 0
-8309 8313 0
-8298 -8309 8314 0
-8310 8314 0
-8298 -8310 0
-8299 8315 0
-8311 8315 0
-8299 -8311 8316 0
-8312 8316 0
-8299 -8312 8317 0
-8313 8317 0
-8299 -8313 8318 0
-8314 8318 0
-8299 -8314 0
-8300 8319 0
-8315 8319 0
-8300 -8315 8320 0
-8316 8320 0
-8300 -8316 8321 0
-8317 8321 0
-8300 -8317 8322 0
-8318 8322 0
-8300 -8318 0
-8301 8323 0
-8319 8323 0
-8301 -8319 8324 0
-8320 8324 0
-8301 -8320 8325 0
-8321 8325 0
-8301 -8321 8326 0
-8322 8326 0
-8301 -8322 0
-8302 -8326 0
-8331 23 24 25 26 27 0
-23 8331 0
-24 8331 0
-25 8331 0
-26 8331 0
-27 8331 0
-8332 72 73 74 75 76 0
-72 8332 0
-73 8332 0
-74 8332 0
-75 8332 0
-76 8332 0
-8333 121 122 123 124 125 0
-121 8333 0
-122 8333 0
-123 8333 0
-124 8333 0
-125 8333 0
-8334 170 171 172 173 174 0
-170 8334 0
-171 8334 0
-172 8334 0
-173 8334 0
-174 8334 0
-8335 219 220 221 222 223 0
-219 8335 0
-220 8335 0
-221 8335 0
-222 8335 0
-223 8335 0
-8336 268 269 270 271 272 0
-268 8336 0
-269 8336 0
-270 8336 0
-271 8336 0
-272 8336 0
-8337 317 318 319 320 321 0
-317 8337 0
-318 8337 0
-319 8337 0
-320 8337 0
-321 8337 0
-8331 8338 0
-8339 0
-8340 0
-8341 0
-8342 0
-8332 8343 0
-8338 8343 0
-8332 -8338 8344 0
-8339 8344 0
-8332 -8339 8345 0
-8340 8345 0
-8332 -8340 8346 0
-8341 8346 0
-8332 -8341 8347 0
-8342 8347 0
-8332 -8342 0
-8333 8348 0
-8343 8348 0
-8333 -8343 8349 0
-8344 8349 0
-8333 -8344 8350 0
-8345 8350 0
-8333 -8345 8351 0
-8346 8351 0
-8333 -8346 8352 0
-8347 8352 0
-8333 -8347 0
-8334 8353 0
-8348 8353 0
-8334 -8348 8354 0
-8349 8354 0
-8334 -8349 8355 0
-8350 8355 0
-8334 -8350 8356 0
-8351 8356 0
-8334 -8351 8357 0
-8352 8357 0
-8334 -8352 0
-8335 8358 0
-8353 8358 0
-8335 -8353 8359 0
-8354 8359 0
-8335 -8354 8360 0
-8355 8360 0
-8335 -8355 8361 0
-8356 8361 0
-8335 -8356 8362 0
-8357 8362 0
-8335 -8357 0
-8336 8363 0
-8358 8363 0
-8336 -8358 8364 0
-8359 8364 0
-8336 -8359 8365 0
-8360 8365 0
-8336 -8360 8366 0
-8361 8366 0
-8336 -8361 8367 0
-8362 8367 0
-8336 -8362 0
-8337 -8367 0
-8373 23 24 25 26 27 28 0
-23 8373 0
-24 8373 0
-25 8373 0
-26 8373 0
-27 8373 0
-28 8373 0
-8374 72 73 74 75 76 77 0
-72 8374 0
-73 8374 0
-74 8374 0
-75 8374 0
-76 8374 0
-77 8374 0
-8375 121 122 123 124 125 126 0
-121 8375 0
-122 8375 0
-123 8375 0
-124 8375 0
-125 8375 0
-126 8375 0
-8376 170 171 172 173 174 175 0
-170 8376 0
-171 8376 0
-172 8376 0
-173 8376 0
-174 8376 0
-175 8376 0
-8377 219 220 221 222 223 224 0
-219 8377 0
-220 8377 0
-221 8377 0
-222 8377 0
-223 8377 0
-224 8377 0
-8378 268 269 270 271 272 273 0
-268 8378 0
-269 8378 0
-270 8378 0
-271 8378 0
-272 8378 0
-273 8378 0
-8379 317 318 319 320 321 322 0
-317 8379 0
-318 8379 0
-319 8379 0
-320 8379 0
-321 8379 0
-322 8379 0
-8373 8380 0
-8381 0
-8382 0
-8383 0
-8384 0
-8385 0
-8374 8386 0
-8380 8386 0
-8374 -8380 8387 0
-8381 8387 0
-8374 -8381 8388 0
-8382 8388 0
-8374 -8382 8389 0
-8383 8389 0
-8374 -8383 8390 0
-8384 8390 0
-8374 -8384 8391 0
-8385 8391 0
-8374 -8385 0
-8375 8392 0
-8386 8392 0
-8375 -8386 8393 0
-8387 8393 0
-8375 -8387 8394 0
-8388 8394 0
-8375 -8388 8395 0
-8389 8395 0
-8375 -8389 8396 0
-8390 8396 0
-8375 -8390 8397 0
-8391 8397 0
-8375 -8391 0
-8376 8398 0
-8392 8398 0
-8376 -8392 8399 0
-8393 8399 0
-8376 -8393 8400 0
-8394 8400 0
-8376 -8394 8401 0
-8395 8401 0
-8376 -8395 8402 0
-8396 8402 0
-8376 -8396 8403 0
-8397 8403 0
-8376 -8397 0
-8377 8404 0
-8398 8404 0
-8377 -8398 8405 0
-8399 8405 0
-8377 -8399 8406 0
-8400 8406 0
-8377 -8400 8407 0
-8401 8407 0
-8377 -8401 8408 0
-8402 8408 0
-8377 -8402 8409 0
-8403 8409 0
-8377 -8403 0
-8378 8410 0
-8404 8410 0
-8378 -8404 8411 0
-8405 8411 0
-8378 -8405 8412 0
-8406 8412 0
-8378 -8406 8413 0
-8407 8413 0
-8378 -8407 8414 0
-8408 8414 0
-8378 -8408 8415 0
-8409 8415 0
-8378 -8409 0
-8379 -8415 0
-8422 24 0
-24 8422 0
-8423 73 0
-73 8423 0
-8424 122 0
-122 8424 0
-8425 171 0
-171 8425 0
-8426 220 0
-220 8426 0
-8427 269 0
-269 8427 0
-8428 318 0
-318 8428 0
-8422 8429 0
-8423 8430 0
-8429 8430 0
-8423 -8429 0
-8424 8431 0
-8430 8431 0
-8424 -8430 0
-8425 8432 0
-8431 8432 0
-8425 -8431 0
-8426 8433 0
-8432 8433 0
-8426 -8432 0
-8427 8434 0
-8433 8434 0
-8427 -8433 0
-8428 -8434 0
-8436 24 25 0
-24 8436 0
-25 8436 0
-8437 73 74 0
-73 8437 0
-74 8437 0
-8438 122 123 0
-122 8438 0
-123 8438 0
-8439 171 172 0
-171 8439 0
-172 8439 0
-8440 220 221 0
-220 8440 0
-221 8440 0
-8441 269 270 0
-269 8441 0
-270 8441 0
-8442 318 319 0
-318 8442 0
-319 8442 0
-8436 8443 0
-8444 0
-8437 8445 0
-8443 8445 0
-8437 -8443 8446 0
-8444 8446 0
-8437 -8444 0
-8438 8447 0
-8445 8447 0
-8438 -8445 8448 0
-8446 8448 0
-8438 -8446 0
-8439 8449 0
-8447 8449 0
-8439 -8447 8450 0
-8448 8450 0
-8439 -8448 0
-8440 8451 0
-8449 8451 0
-8440 -8449 8452 0
-8450 8452 0
-8440 -8450 0
-8441 8453 0
-8451 8453 0
-8441 -8451 8454 0
-8452 8454 0
-8441 -8452 0
-8442 -8454 0
-8457 24 25 26 0
-24 8457 0
-25 8457 0
-26 8457 0
-8458 73 74 75 0
-73 8458 0
-74 8458 0
-75 8458 0
-8459 122 123 124 0
-122 8459 0
-123 8459 0
-124 8459 0
-8460 171 172 173 0
-171 8460 0
-172 8460 0
-173 8460 0
-8461 220 221 222 0
-220 8461 0
-221 8461 0
-222 8461 0
-8462 269 270 271 0
-269 8462 0
-270 8462 0
-271 8462 0
-8463 318 319 320 0
-318 8463 0
-319 8463 0
-320 8463 0
-8457 8464 0
-8465 0
-8466 0
-8458 8467 0
-8464 8467 0
-8458 -8464 8468 0
-8465 8468 0
-8458 -8465 8469 0
-8466 8469 0
-8458 -8466 0
-8459 8470 0
-8467 8470 0
-8459 -8467 8471 0
-8468 8471 0
-8459 -8468 8472 0
-8469 8472 0
-8459 -8469 0
-8460 8473 0
-8470 8473 0
-8460 -8470 8474 0
-8471 8474 0
-8460 -8471 8475 0
-8472 8475 0
-8460 -8472 0
-8461 8476 0
-8473 8476 0
-8461 -8473 8477 0
-8474 8477 0
-8461 -8474 8478 0
-8475 8478 0
-8461 -8475 0
-8462 8479 0
-8476 8479 0
-8462 -8476 8480 0
-8477 8480 0
-8462 -8477 8481 0
-8478 8481 0
-8462 -8478 0
-8463 -8481 0
-8485 24 25 26 27 0
-24 8485 0
-25 8485 0
-26 8485 0
-27 8485 0
-8486 73 74 75 76 0
-73 8486 0
-74 8486 0
-75 8486 0
-76 8486 0
-8487 122 123 124 125 0
-122 8487 0
-123 8487 0
-124 8487 0
-125 8487 0
-8488 171 172 173 174 0
-171 8488 0
-172 8488 0
-173 8488 0
-174 8488 0
-8489 220 221 222 223 0
-220 8489 0
-221 8489 0
-222 8489 0
-223 8489 0
-8490 269 270 271 272 0
-269 8490 0
-270 8490 0
-271 8490 0
-272 8490 0
-8491 318 319 320 321 0
-318 8491 0
-319 8491 0
-320 8491 0
-321 8491 0
-8485 8492 0
-8493 0
-8494 0
-8495 0
-8486 8496 0
-8492 8496 0
-8486 -8492 8497 0
-8493 8497 0
-8486 -8493 8498 0
-8494 8498 0
-8486 -8494 8499 0
-8495 8499 0
-8486 -8495 0
-8487 8500 0
-8496 8500 0
-8487 -8496 8501 0
-8497 8501 0
-8487 -8497 8502 0
-8498 8502 0
-8487 -8498 8503 0
-8499 8503 0
-8487 -8499 0
-8488 8504 0
-8500 8504 0
-8488 -8500 8505 0
-8501 8505 0
-8488 -8501 8506 0
-8502 8506 0
-8488 -8502 8507 0
-8503 8507 0
-8488 -8503 0
-8489 8508 0
-8504 8508 0
-8489 -8504 8509 0
-8505 8509 0
-8489 -8505 8510 0
-8506 8510 0
-8489 -8506 8511 0
-8507 8511 0
-8489 -8507 0
-8490 8512 0
-8508 8512 0
-8490 -8508 8513 0
-8509 8513 0
-8490 -8509 8514 0
-8510 8514 0
-8490 -8510 8515 0
-8511 8515 0
-8490 -8511 0
-8491 -8515 0
-8520 24 25 26 27 28 0
-24 8520 0
-25 8520 0
-26 8520 0
-27 8520 0
-28 8520 0
-8521 73 74 75 76 77 0
-73 8521 0
-74 8521 0
-75 8521 0
-76 8521 0
-77 8521 0
-8522 122 123 124 125 126 0
-122 8522 0
-123 8522 0
-124 8522 0
-125 8522 0
-126 8522 0
-8523 171 172 173 174 175 0
-171 8523 0
-172 8523 0
-173 8523 0
-174 8523 0
-175 8523 0
-8524 220 221 222 223 224 0
-220 8524 0
-221 8524 0
-222 8524 0
-223 8524 0
-224 8524 0
-8525 269 270 271 272 273 0
-269 8525 0
-270 8525 0
-271 8525 0
-272 8525 0
-273 8525 0
-8526 318 319 320 321 322 0
-318 8526 0
-319 8526 0
-320 8526 0
-321 8526 0
-322 8526 0
-8520 8527 0
-8528 0
-8529 0
-8530 0
-8531 0
-8521 8532 0
-8527 8532 0
-8521 -8527 8533 0
-8528 8533 0
-8521 -8528 8534 0
-8529 8534 0
-8521 -8529 8535 0
-8530 8535 0
-8521 -8530 8536 0
-8531 8536 0
-8521 -8531 0
-8522 8537 0
-8532 8537 0
-8522 -8532 8538 0
-8533 8538 0
-8522 -8533 8539 0
-8534 8539 0
-8522 -8534 8540 0
-8535 8540 0
-8522 -8535 8541 0
-8536 8541 0
-8522 -8536 0
-8523 8542 0
-8537 8542 0
-8523 -8537 8543 0
-8538 8543 0
-8523 -8538 8544 0
-8539 8544 0
-8523 -8539 8545 0
-8540 8545 0
-8523 -8540 8546 0
-8541 8546 0
-8523 -8541 0
-8524 8547 0
-8542 8547 0
-8524 -8542 8548 0
-8543 8548 0
-8524 -8543 8549 0
-8544 8549 0
-8524 -8544 8550 0
-8545 8550 0
-8524 -8545 8551 0
-8546 8551 0
-8524 -8546 0
-8525 8552 0
-8547 8552 0
-8525 -8547 8553 0
-8548 8553 0
-8525 -8548 8554 0
-8549 8554 0
-8525 -8549 8555 0
-8550 8555 0
-8525 -8550 8556 0
-8551 8556 0
-8525 -8551 0
-8526 -8556 0
-8562 25 0
-25 8562 0
-8563 74 0
-74 8563 0
-8564 123 0
-123 8564 0
-8565 172 0
-172 8565 0
-8566 221 0
-221 8566 0
-8567 270 0
-270 8567 0
-8568 319 0
-319 8568 0
-8562 8569 0
-8563 8570 0
-8569 8570 0
-8563 -8569 0
-8564 8571 0
-8570 8571 0
-8564 -8570 0
-8565 8572 0
-8571 8572 0
-8565 -8571 0
-8566 8573 0
-8572 8573 0
-8566 -8572 0
-8567 8574 0
-8573 8574 0
-8567 -8573 0
-8568 -8574 0
-8576 25 26 0
-25 8576 0
-26 8576 0
-8577 74 75 0
-74 8577 0
-75 8577 0
-8578 123 124 0
-123 8578 0
-124 8578 0
-8579 172 173 0
-172 8579 0
-173 8579 0
-8580 221 222 0
-221 8580 0
-222 8580 0
-8581 270 271 0
-270 8581 0
-271 8581 0
-8582 319 320 0
-319 8582 0
-320 8582 0
-8576 8583 0
-8584 0
-8577 8585 0
-8583 8585 0
-8577 -8583 8586 0
-8584 8586 0
-8577 -8584 0
-8578 8587 0
-8585 8587 0
-8578 -8585 8588 0
-8586 8588 0
-8578 -8586 0
-8579 8589 0
-8587 8589 0
-8579 -8587 8590 0
-8588 8590 0
-8579 -8588 0
-8580 8591 0
-8589 8591 0
-8580 -8589 8592 0
-8590 8592 0
-8580 -8590 0
-8581 8593 0
-8591 8593 0
-8581 -8591 8594 0
-8592 8594 0
-8581 -8592 0
-8582 -8594 0
-8597 25 26 27 0
-25 8597 0
-26 8597 0
-27 8597 0
-8598 74 75 76 0
-74 8598 0
-75 8598 0
-76 8598 0
-8599 123 124 125 0
-123 8599 0
-124 8599 0
-125 8599 0
-8600 172 173 174 0
-172 8600 0
-173 8600 0
-174 8600 0
-8601 221 222 223 0
-221 8601 0
-222 8601 0
-223 8601 0
-8602 270 271 272 0
-270 8602 0
-271 8602 0
-272 8602 0
-8603 319 320 321 0
-319 8603 0
-320 8603 0
-321 8603 0
-8597 8604 0
-8605 0
-8606 0
-8598 8607 0
-8604 8607 0
-8598 -8604 8608 0
-8605 8608 0
-8598 -8605 8609 0
-8606 8609 0
-8598 -8606 0
-8599 8610 0
-8607 8610 0
-8599 -8607 8611 0
-8608 8611 0
-8599 -8608 8612 0
-8609 8612 0
-8599 -8609 0
-8600 8613 0
-8610 8613 0
-8600 -8610 8614 0
-8611 8614 0
-8600 -8611 8615 0
-8612 8615 0
-8600 -8612 0
-8601 8616 0
-8613 8616 0
-8601 -8613 8617 0
-8614 8617 0
-8601 -8614 8618 0
-8615 8618 0
-8601 -8615 0
-8602 8619 0
-8616 8619 0
-8602 -8616 8620 0
-8617 8620 0
-8602 -8617 8621 0
-8618 8621 0
-8602 -8618 0
-8603 -8621 0
-8625 25 26 27 28 0
-25 8625 0
-26 8625 0
-27 8625 0
-28 8625 0
-8626 74 75 76 77 0
-74 8626 0
-75 8626 0
-76 8626 0
-77 8626 0
-8627 123 124 125 126 0
-123 8627 0
-124 8627 0
-125 8627 0
-126 8627 0
-8628 172 173 174 175 0
-172 8628 0
-173 8628 0
-174 8628 0
-175 8628 0
-8629 221 222 223 224 0
-221 8629 0
-222 8629 0
-223 8629 0
-224 8629 0
-8630 270 271 272 273 0
-270 8630 0
-271 8630 0
-272 8630 0
-273 8630 0
-8631 319 320 321 322 0
-319 8631 0
-320 8631 0
-321 8631 0
-322 8631 0
-8625 8632 0
-8633 0
-8634 0
-8635 0
-8626 8636 0
-8632 8636 0
-8626 -8632 8637 0
-8633 8637 0
-8626 -8633 8638 0
-8634 8638 0
-8626 -8634 8639 0
-8635 8639 0
-8626 -8635 0
-8627 8640 0
-8636 8640 0
-8627 -8636 8641 0
-8637 8641 0
-8627 -8637 8642 0
-8638 8642 0
-8627 -8638 8643 0
-8639 8643 0
-8627 -8639 0
-8628 8644 0
-8640 8644 0
-8628 -8640 8645 0
-8641 8645 0
-8628 -8641 8646 0
-8642 8646 0
-8628 -8642 8647 0
-8643 8647 0
-8628 -8643 0
-8629 8648 0
-8644 8648 0
-8629 -8644 8649 0
-8645 8649 0
-8629 -8645 8650 0
-8646 8650 0
-8629 -8646 8651 0
-8647 8651 0
-8629 -8647 0
-8630 8652 0
-8648 8652 0
-8630 -8648 8653 0
-8649 8653 0
-8630 -8649 8654 0
-8650 8654 0
-8630 -8650 8655 0
-8651 8655 0
-8630 -8651 0
-8631 -8655 0
-8660 26 0
-26 8660 0
-8661 75 0
-75 8661 0
-8662 124 0
-124 8662 0
-8663 173 0
-173 8663 0
-8664 222 0
-222 8664 0
-8665 271 0
-271 8665 0
-8666 320 0
-320 8666 0
-8660 8667 0
-8661 8668 0
-8667 8668 0
-8661 -8667 0
-8662 8669 0
-8668 8669 0
-8662 -8668 0
-8663 8670 0
-8669 8670 0
-8663 -8669 0
-8664 8671 0
-8670 8671 0
-8664 -8670 0
-8665 8672 0
-8671 8672 0
-8665 -8671 0
-8666 -8672 0
-8674 26 27 0
-26 8674 0
-27 8674 0
-8675 75 76 0
-75 8675 0
-76 8675 0
-8676 124 125 0
-124 8676 0
-125 8676 0
-8677 173 174 0
-173 8677 0
-174 8677 0
-8678 222 223 0
-222 8678 0
-223 8678 0
-8679 271 272 0
-271 8679 0
-272 8679 0
-8680 320 321 0
-320 8680 0
-321 8680 0
-8674 8681 0
-8682 0
-8675 8683 0
-8681 8683 0
-8675 -8681 8684 0
-8682 8684 0
-8675 -8682 0
-8676 8685 0
-8683 8685 0
-8676 -8683 8686 0
-8684 8686 0
-8676 -8684 0
-8677 8687 0
-8685 8687 0
-8677 -8685 8688 0
-8686 8688 0
-8677 -8686 0
-8678 8689 0
-8687 8689 0
-8678 -8687 8690 0
-8688 8690 0
-8678 -8688 0
-8679 8691 0
-8689 8691 0
-8679 -8689 8692 0
-8690 8692 0
-8679 -8690 0
-8680 -8692 0
-8695 26 27 28 0
-26 8695 0
-27 8695 0
-28 8695 0
-8696 75 76 77 0
-75 8696 0
-76 8696 0
-77 8696 0
-8697 124 125 126 0
-124 8697 0
-125 8697 0
-126 8697 0
-8698 173 174 175 0
-173 8698 0
-174 8698 0
-175 8698 0
-8699 222 223 224 0
-222 8699 0
-223 8699 0
-224 8699 0
-8700 271 272 273 0
-271 8700 0
-272 8700 0
-273 8700 0
-8701 320 321 322 0
-320 8701 0
-321 8701 0
-322 8701 0
-8695 8702 0
-8703 0
-8704 0
-8696 8705 0
-8702 8705 0
-8696 -8702 8706 0
-8703 8706 0
-8696 -8703 8707 0
-8704 8707 0
-8696 -8704 0
-8697 8708 0
-8705 8708 0
-8697 -8705 8709 0
-8706 8709 0
-8697 -8706 8710 0
-8707 8710 0
-8697 -8707 0
-8698 8711 0
-8708 8711 0
-8698 -8708 8712 0
-8709 8712 0
-8698 -8709 8713 0
-8710 8713 0
-8698 -8710 0
-8699 8714 0
-8711 8714 0
-8699 -8711 8715 0
-8712 8715 0
-8699 -8712 8716 0
-8713 8716 0
-8699 -8713 0
-8700 8717 0
-8714 8717 0
-8700 -8714 8718 0
-8715 8718 0
-8700 -8715 8719 0
-8716 8719 0
-8700 -8716 0
-8701 -8719 0
-8723 27 0
-27 8723 0
-8724 76 0
-76 8724 0
-8725 125 0
-125 8725 0
-8726 174 0
-174 8726 0
-8727 223 0
-223 8727 0
-8728 272 0
-272 8728 0
-8729 321 0
-321 8729 0
-8723 8730 0
-8724 8731 0
-8730 8731 0
-8724 -8730 0
-8725 8732 0
-8731 8732 0
-8725 -8731 0
-8726 8733 0
-8732 8733 0
-8726 -8732 0
-8727 8734 0
-8733 8734 0
-8727 -8733 0
-8728 8735 0
-8734 8735 0
-8728 -8734 0
-8729 -8735 0
-8737 27 28 0
-27 8737 0
-28 8737 0
-8738 76 77 0
-76 8738 0
-77 8738 0
-8739 125 126 0
-125 8739 0
-126 8739 0
-8740 174 175 0
-174 8740 0
-175 8740 0
-8741 223 224 0
-223 8741 0
-224 8741 0
-8742 272 273 0
-272 8742 0
-273 8742 0
-8743 321 322 0
-321 8743 0
-322 8743 0
-8737 8744 0
-8745 0
-8738 8746 0
-8744 8746 0
-8738 -8744 8747 0
-8745 8747 0
-8738 -8745 0
-8739 8748 0
-8746 8748 0
-8739 -8746 8749 0
-8747 8749 0
-8739 -8747 0
-8740 8750 0
-8748 8750 0
-8740 -8748 8751 0
-8749 8751 0
-8740 -8749 0
-8741 8752 0
-8750 8752 0
-8741 -8750 8753 0
-8751 8753 0
-8741 -8751 0
-8742 8754 0
-8752 8754 0
-8742 -8752 8755 0
-8753 8755 0
-8742 -8753 0
-8743 -8755 0
-8758 28 0
-28 8758 0
-8759 77 0
-77 8759 0
-8760 126 0
-126 8760 0
-8761 175 0
-175 8761 0
-8762 224 0
-224 8762 0
-8763 273 0
-273 8763 0
-8764 322 0
-322 8764 0
-8758 8765 0
-8759 8766 0
-8765 8766 0
-8759 -8765 0
-8760 8767 0
-8766 8767 0
-8760 -8766 0
-8761 8768 0
-8767 8768 0
-8761 -8767 0
-8762 8769 0
-8768 8769 0
-8762 -8768 0
-8763 8770 0
-8769 8770 0
-8763 -8769 0
-8764 -8770 0
-8772 29 0
-29 8772 0
-8773 78 0
-78 8773 0
-8774 127 0
-127 8774 0
-8775 176 0
-176 8775 0
-8776 225 0
-225 8776 0
-8777 274 0
-274 8777 0
-8778 323 0
-323 8778 0
-8772 8779 0
-8773 8780 0
-8779 8780 0
-8773 -8779 0
-8774 8781 0
-8780 8781 0
-8774 -8780 0
-8775 8782 0
-8781 8782 0
-8775 -8781 0
-8776 8783 0
-8782 8783 0
-8776 -8782 0
-8777 8784 0
-8783 8784 0
-8777 -8783 0
-8778 -8784 0
-8786 29 30 0
-29 8786 0
-30 8786 0
-8787 78 79 0
-78 8787 0
-79 8787 0
-8788 127 128 0
-127 8788 0
-128 8788 0
-8789 176 177 0
-176 8789 0
-177 8789 0
-8790 225 226 0
-225 8790 0
-226 8790 0
-8791 274 275 0
-274 8791 0
-275 8791 0
-8792 323 324 0
-323 8792 0
-324 8792 0
-8786 8793 0
-8794 0
-8787 8795 0
-8793 8795 0
-8787 -8793 8796 0
-8794 8796 0
-8787 -8794 0
-8788 8797 0
-8795 8797 0
-8788 -8795 8798 0
-8796 8798 0
-8788 -8796 0
-8789 8799 0
-8797 8799 0
-8789 -8797 8800 0
-8798 8800 0
-8789 -8798 0
-8790 8801 0
-8799 8801 0
-8790 -8799 8802 0
-8800 8802 0
-8790 -8800 0
-8791 8803 0
-8801 8803 0
-8791 -8801 8804 0
-8802 8804 0
-8791 -8802 0
-8792 -8804 0
-8807 29 30 31 0
-29 8807 0
-30 8807 0
-31 8807 0
-8808 78 79 80 0
-78 8808 0
-79 8808 0
-80 8808 0
-8809 127 128 129 0
-127 8809 0
-128 8809 0
-129 8809 0
-8810 176 177 178 0
-176 8810 0
-177 8810 0
-178 8810 0
-8811 225 226 227 0
-225 8811 0
-226 8811 0
-227 8811 0
-8812 274 275 276 0
-274 8812 0
-275 8812 0
-276 8812 0
-8813 323 324 325 0
-323 8813 0
-324 8813 0
-325 8813 0
-8807 8814 0
-8815 0
-8816 0
-8808 8817 0
-8814 8817 0
-8808 -8814 8818 0
-8815 8818 0
-8808 -8815 8819 0
-8816 8819 0
-8808 -8816 0
-8809 8820 0
-8817 8820 0
-8809 -8817 8821 0
-8818 8821 0
-8809 -8818 8822 0
-8819 8822 0
-8809 -8819 0
-8810 8823 0
-8820 8823 0
-8810 -8820 8824 0
-8821 8824 0
-8810 -8821 8825 0
-8822 8825 0
-8810 -8822 0
-8811 8826 0
-8823 8826 0
-8811 -8823 8827 0
-8824 8827 0
-8811 -8824 8828 0
-8825 8828 0
-8811 -8825 0
-8812 8829 0
-8826 8829 0
-8812 -8826 8830 0
-8827 8830 0
-8812 -8827 8831 0
-8828 8831 0
-8812 -8828 0
-8813 -8831 0
-8835 29 30 31 32 0
-29 8835 0
-30 8835 0
-31 8835 0
-32 8835 0
-8836 78 79 80 81 0
-78 8836 0
-79 8836 0
-80 8836 0
-81 8836 0
-8837 127 128 129 130 0
-127 8837 0
-128 8837 0
-129 8837 0
-130 8837 0
-8838 176 177 178 179 0
-176 8838 0
-177 8838 0
-178 8838 0
-179 8838 0
-8839 225 226 227 228 0
-225 8839 0
-226 8839 0
-227 8839 0
-228 8839 0
-8840 274 275 276 277 0
-274 8840 0
-275 8840 0
-276 8840 0
-277 8840 0
-8841 323 324 325 326 0
-323 8841 0
-324 8841 0
-325 8841 0
-326 8841 0
-8835 8842 0
-8843 0
-8844 0
-8845 0
-8836 8846 0
-8842 8846 0
-8836 -8842 8847 0
-8843 8847 0
-8836 -8843 8848 0
-8844 8848 0
-8836 -8844 8849 0
-8845 8849 0
-8836 -8845 0
-8837 8850 0
-8846 8850 0
-8837 -8846 8851 0
-8847 8851 0
-8837 -8847 8852 0
-8848 8852 0
-8837 -8848 8853 0
-8849 8853 0
-8837 -8849 0
-8838 8854 0
-8850 8854 0
-8838 -8850 8855 0
-8851 8855 0
-8838 -8851 8856 0
-8852 8856 0
-8838 -8852 8857 0
-8853 8857 0
-8838 -8853 0
-8839 8858 0
-8854 8858 0
-8839 -8854 8859 0
-8855 8859 0
-8839 -8855 8860 0
-8856 8860 0
-8839 -8856 8861 0
-8857 8861 0
-8839 -8857 0
-8840 8862 0
-8858 8862 0
-8840 -8858 8863 0
-8859 8863 0
-8840 -8859 8864 0
-8860 8864 0
-8840 -8860 8865 0
-8861 8865 0
-8840 -8861 0
-8841 -8865 0
-8870 29 30 31 32 33 0
-29 8870 0
-30 8870 0
-31 8870 0
-32 8870 0
-33 8870 0
-8871 78 79 80 81 82 0
-78 8871 0
-79 8871 0
-80 8871 0
-81 8871 0
-82 8871 0
-8872 127 128 129 130 131 0
-127 8872 0
-128 8872 0
-129 8872 0
-130 8872 0
-131 8872 0
-8873 176 177 178 179 180 0
-176 8873 0
-177 8873 0
-178 8873 0
-179 8873 0
-180 8873 0
-8874 225 226 227 228 229 0
-225 8874 0
-226 8874 0
-227 8874 0
-228 8874 0
-229 8874 0
-8875 274 275 276 277 278 0
-274 8875 0
-275 8875 0
-276 8875 0
-277 8875 0
-278 8875 0
-8876 323 324 325 326 327 0
-323 8876 0
-324 8876 0
-325 8876 0
-326 8876 0
-327 8876 0
-8870 8877 0
-8878 0
-8879 0
-8880 0
-8881 0
-8871 8882 0
-8877 8882 0
-8871 -8877 8883 0
-8878 8883 0
-8871 -8878 8884 0
-8879 8884 0
-8871 -8879 8885 0
-8880 8885 0
-8871 -8880 8886 0
-8881 8886 0
-8871 -8881 0
-8872 8887 0
-8882 8887 0
-8872 -8882 8888 0
-8883 8888 0
-8872 -8883 8889 0
-8884 8889 0
-8872 -8884 8890 0
-8885 8890 0
-8872 -8885 8891 0
-8886 8891 0
-8872 -8886 0
-8873 8892 0
-8887 8892 0
-8873 -8887 8893 0
-8888 8893 0
-8873 -8888 8894 0
-8889 8894 0
-8873 -8889 8895 0
-8890 8895 0
-8873 -8890 8896 0
-8891 8896 0
-8873 -8891 0
-8874 8897 0
-8892 8897 0
-8874 -8892 8898 0
-8893 8898 0
-8874 -8893 8899 0
-8894 8899 0
-8874 -8894 8900 0
-8895 8900 0
-8874 -8895 8901 0
-8896 8901 0
-8874 -8896 0
-8875 8902 0
-8897 8902 0
-8875 -8897 8903 0
-8898 8903 0
-8875 -8898 8904 0
-8899 8904 0
-8875 -8899 8905 0
-8900 8905 0
-8875 -8900 8906 0
-8901 8906 0
-8875 -8901 0
-8876 -8906 0
-8912 29 30 31 32 33 34 0
-29 8912 0
-30 8912 0
-31 8912 0
-32 8912 0
-33 8912 0
-34 8912 0
-8913 78 79 80 81 82 83 0
-78 8913 0
-79 8913 0
-80 8913 0
-81 8913 0
-82 8913 0
-83 8913 0
-8914 127 128 129 130 131 132 0
-127 8914 0
-128 8914 0
-129 8914 0
-130 8914 0
-131 8914 0
-132 8914 0
-8915 176 177 178 179 180 181 0
-176 8915 0
-177 8915 0
-178 8915 0
-179 8915 0
-180 8915 0
-181 8915 0
-8916 225 226 227 228 229 230 0
-225 8916 0
-226 8916 0
-227 8916 0
-228 8916 0
-229 8916 0
-230 8916 0
-8917 274 275 276 277 278 279 0
-274 8917 0
-275 8917 0
-276 8917 0
-277 8917 0
-278 8917 0
-279 8917 0
-8918 323 324 325 326 327 328 0
-323 8918 0
-324 8918 0
-325 8918 0
-326 8918 0
-327 8918 0
-328 8918 0
-8912 8919 0
-8920 0
-8921 0
-8922 0
-8923 0
-8924 0
-8913 8925 0
-8919 8925 0
-8913 -8919 8926 0
-8920 8926 0
-8913 -8920 8927 0
-8921 8927 0
-8913 -8921 8928 0
-8922 8928 0
-8913 -8922 8929 0
-8923 8929 0
-8913 -8923 8930 0
-8924 8930 0
-8913 -8924 0
-8914 8931 0
-8925 8931 0
-8914 -8925 8932 0
-8926 8932 0
-8914 -8926 8933 0
-8927 8933 0
-8914 -8927 8934 0
-8928 8934 0
-8914 -8928 8935 0
-8929 8935 0
-8914 -8929 8936 0
-8930 8936 0
-8914 -8930 0
-8915 8937 0
-8931 8937 0
-8915 -8931 8938 0
-8932 8938 0
-8915 -8932 8939 0
-8933 8939 0
-8915 -8933 8940 0
-8934 8940 0
-8915 -8934 8941 0
-8935 8941 0
-8915 -8935 8942 0
-8936 8942 0
-8915 -8936 0
-8916 8943 0
-8937 8943 0
-8916 -8937 8944 0
-8938 8944 0
-8916 -8938 8945 0
-8939 8945 0
-8916 -8939 8946 0
-8940 8946 0
-8916 -8940 8947 0
-8941 8947 0
-8916 -8941 8948 0
-8942 8948 0
-8916 -8942 0
-8917 8949 0
-8943 8949 0
-8917 -8943 8950 0
-8944 8950 0
-8917 -8944 8951 0
-8945 8951 0
-8917 -8945 8952 0
-8946 8952 0
-8917 -8946 8953 0
-8947 8953 0
-8917 -8947 8954 0
-8948 8954 0
-8917 -8948 0
-8918 -8954 0
-8961 29 30 31 32 33 34 35 0
-29 8961 0
-30 8961 0
-31 8961 0
-32 8961 0
-33 8961 0
-34 8961 0
-35 8961 0
-8962 78 79 80 81 82 83 84 0
-78 8962 0
-79 8962 0
-80 8962 0
-81 8962 0
-82 8962 0
-83 8962 0
-84 8962 0
-8963 127 128 129 130 131 132 133 0
-127 8963 0
-128 8963 0
-129 8963 0
-130 8963 0
-131 8963 0
-132 8963 0
-133 8963 0
-8964 176 177 178 179 180 181 182 0
-176 8964 0
-177 8964 0
-178 8964 0
-179 8964 0
-180 8964 0
-181 8964 0
-182 8964 0
-8965 225 226 227 228 229 230 231 0
-225 8965 0
-226 8965 0
-227 8965 0
-228 8965 0
-229 8965 0
-230 8965 0
-231 8965 0
-8966 274 275 276 277 278 279 280 0
-274 8966 0
-275 8966 0
-276 8966 0
-277 8966 0
-278 8966 0
-279 8966 0
-280 8966 0
-8967 323 324 325 326 327 328 329 0
-323 8967 0
-324 8967 0
-325 8967 0
-326 8967 0
-327 8967 0
-328 8967 0
-329 8967 0
-8968 30 0
-30 8968 0
-8969 79 0
-79 8969 0
-8970 128 0
-128 8970 0
-8971 177 0
-177 8971 0
-8972 226 0
-226 8972 0
-8973 275 0
-275 8973 0
-8974 324 0
-324 8974 0
-8968 8975 0
-8969 8976 0
-8975 8976 0
-8969 -8975 0
-8970 8977 0
-8976 8977 0
-8970 -8976 0
-8971 8978 0
-8977 8978 0
-8971 -8977 0
-8972 8979 0
-8978 8979 0
-8972 -8978 0
-8973 8980 0
-8979 8980 0
-8973 -8979 0
-8974 -8980 0
-8982 30 31 0
-30 8982 0
-31 8982 0
-8983 79 80 0
-79 8983 0
-80 8983 0
-8984 128 129 0
-128 8984 0
-129 8984 0
-8985 177 178 0
-177 8985 0
-178 8985 0
-8986 226 227 0
-226 8986 0
-227 8986 0
-8987 275 276 0
-275 8987 0
-276 8987 0
-8988 324 325 0
-324 8988 0
-325 8988 0
-8982 8989 0
-8990 0
-8983 8991 0
-8989 8991 0
-8983 -8989 8992 0
-8990 8992 0
-8983 -8990 0
-8984 8993 0
-8991 8993 0
-8984 -8991 8994 0
-8992 8994 0
-8984 -8992 0
-8985 8995 0
-8993 8995 0
-8985 -8993 8996 0
-8994 8996 0
-8985 -8994 0
-8986 8997 0
-8995 8997 0
-8986 -8995 8998 0
-8996 8998 0
-8986 -8996 0
-8987 8999 0
-8997 8999 0
-8987 -8997 9000 0
-8998 9000 0
-8987 -8998 0
-8988 -9000 0
-9003 30 31 32 0
-30 9003 0
-31 9003 0
-32 9003 0
-9004 79 80 81 0
-79 9004 0
-80 9004 0
-81 9004 0
-9005 128 129 130 0
-128 9005 0
-129 9005 0
-130 9005 0
-9006 177 178 179 0
-177 9006 0
-178 9006 0
-179 9006 0
-9007 226 227 228 0
-226 9007 0
-227 9007 0
-228 9007 0
-9008 275 276 277 0
-275 9008 0
-276 9008 0
-277 9008 0
-9009 324 325 326 0
-324 9009 0
-325 9009 0
-326 9009 0
-9003 9010 0
-9011 0
-9012 0
-9004 9013 0
-9010 9013 0
-9004 -9010 9014 0
-9011 9014 0
-9004 -9011 9015 0
-9012 9015 0
-9004 -9012 0
-9005 9016 0
-9013 9016 0
-9005 -9013 9017 0
-9014 9017 0
-9005 -9014 9018 0
-9015 9018 0
-9005 -9015 0
-9006 9019 0
-9016 9019 0
-9006 -9016 9020 0
-9017 9020 0
-9006 -9017 9021 0
-9018 9021 0
-9006 -9018 0
-9007 9022 0
-9019 9022 0
-9007 -9019 9023 0
-9020 9023 0
-9007 -9020 9024 0
-9021 9024 0
-9007 -9021 0
-9008 9025 0
-9022 9025 0
-9008 -9022 9026 0
-9023 9026 0
-9008 -9023 9027 0
-9024 9027 0
-9008 -9024 0
-9009 -9027 0
-9031 30 31 32 33 0
-30 9031 0
-31 9031 0
-32 9031 0
-33 9031 0
-9032 79 80 81 82 0
-79 9032 0
-80 9032 0
-81 9032 0
-82 9032 0
-9033 128 129 130 131 0
-128 9033 0
-129 9033 0
-130 9033 0
-131 9033 0
-9034 177 178 179 180 0
-177 9034 0
-178 9034 0
-179 9034 0
-180 9034 0
-9035 226 227 228 229 0
-226 9035 0
-227 9035 0
-228 9035 0
-229 9035 0
-9036 275 276 277 278 0
-275 9036 0
-276 9036 0
-277 9036 0
-278 9036 0
-9037 324 325 326 327 0
-324 9037 0
-325 9037 0
-326 9037 0
-327 9037 0
-9031 9038 0
-9039 0
-9040 0
-9041 0
-9032 9042 0
-9038 9042 0
-9032 -9038 9043 0
-9039 9043 0
-9032 -9039 9044 0
-9040 9044 0
-9032 -9040 9045 0
-9041 9045 0
-9032 -9041 0
-9033 9046 0
-9042 9046 0
-9033 -9042 9047 0
-9043 9047 0
-9033 -9043 9048 0
-9044 9048 0
-9033 -9044 9049 0
-9045 9049 0
-9033 -9045 0
-9034 9050 0
-9046 9050 0
-9034 -9046 9051 0
-9047 9051 0
-9034 -9047 9052 0
-9048 9052 0
-9034 -9048 9053 0
-9049 9053 0
-9034 -9049 0
-9035 9054 0
-9050 9054 0
-9035 -9050 9055 0
-9051 9055 0
-9035 -9051 9056 0
-9052 9056 0
-9035 -9052 9057 0
-9053 9057 0
-9035 -9053 0
-9036 9058 0
-9054 9058 0
-9036 -9054 9059 0
-9055 9059 0
-9036 -9055 9060 0
-9056 9060 0
-9036 -9056 9061 0
-9057 9061 0
-9036 -9057 0
-9037 -9061 0
-9066 30 31 32 33 34 0
-30 9066 0
-31 9066 0
-32 9066 0
-33 9066 0
-34 9066 0
-9067 79 80 81 82 83 0
-79 9067 0
-80 9067 0
-81 9067 0
-82 9067 0
-83 9067 0
-9068 128 129 130 131 132 0
-128 9068 0
-129 9068 0
-130 9068 0
-131 9068 0
-132 9068 0
-9069 177 178 179 180 181 0
-177 9069 0
-178 9069 0
-179 9069 0
-180 9069 0
-181 9069 0
-9070 226 227 228 229 230 0
-226 9070 0
-227 9070 0
-228 9070 0
-229 9070 0
-230 9070 0
-9071 275 276 277 278 279 0
-275 9071 0
-276 9071 0
-277 9071 0
-278 9071 0
-279 9071 0
-9072 324 325 326 327 328 0
-324 9072 0
-325 9072 0
-326 9072 0
-327 9072 0
-328 9072 0
-9066 9073 0
-9074 0
-9075 0
-9076 0
-9077 0
-9067 9078 0
-9073 9078 0
-9067 -9073 9079 0
-9074 9079 0
-9067 -9074 9080 0
-9075 9080 0
-9067 -9075 9081 0
-9076 9081 0
-9067 -9076 9082 0
-9077 9082 0
-9067 -9077 0
-9068 9083 0
-9078 9083 0
-9068 -9078 9084 0
-9079 9084 0
-9068 -9079 9085 0
-9080 9085 0
-9068 -9080 9086 0
-9081 9086 0
-9068 -9081 9087 0
-9082 9087 0
-9068 -9082 0
-9069 9088 0
-9083 9088 0
-9069 -9083 9089 0
-9084 9089 0
-9069 -9084 9090 0
-9085 9090 0
-9069 -9085 9091 0
-9086 9091 0
-9069 -9086 9092 0
-9087 9092 0
-9069 -9087 0
-9070 9093 0
-9088 9093 0
-9070 -9088 9094 0
-9089 9094 0
-9070 -9089 9095 0
-9090 9095 0
-9070 -9090 9096 0
-9091 9096 0
-9070 -9091 9097 0
-9092 9097 0
-9070 -9092 0
-9071 9098 0
-9093 9098 0
-9071 -9093 9099 0
-9094 9099 0
-9071 -9094 9100 0
-9095 9100 0
-9071 -9095 9101 0
-9096 9101 0
-9071 -9096 9102 0
-9097 9102 0
-9071 -9097 0
-9072 -9102 0
-9108 30 31 32 33 34 35 0
-30 9108 0
-31 9108 0
-32 9108 0
-33 9108 0
-34 9108 0
-35 9108 0
-9109 79 80 81 82 83 84 0
-79 9109 0
-80 9109 0
-81 9109 0
-82 9109 0
-83 9109 0
-84 9109 0
-9110 128 129 130 131 132 133 0
-128 9110 0
-129 9110 0
-130 9110 0
-131 9110 0
-132 9110 0
-133 9110 0
-9111 177 178 179 180 181 182 0
-177 9111 0
-178 9111 0
-179 9111 0
-180 9111 0
-181 9111 0
-182 9111 0
-9112 226 227 228 229 230 231 0
-226 9112 0
-227 9112 0
-228 9112 0
-229 9112 0
-230 9112 0
-231 9112 0
-9113 275 276 277 278 279 280 0
-275 9113 0
-276 9113 0
-277 9113 0
-278 9113 0
-279 9113 0
-280 9113 0
-9114 324 325 326 327 328 329 0
-324 9114 0
-325 9114 0
-326 9114 0
-327 9114 0
-328 9114 0
-329 9114 0
-9108 9115 0
-9116 0
-9117 0
-9118 0
-9119 0
-9120 0
-9109 9121 0
-9115 9121 0
-9109 -9115 9122 0
-9116 9122 0
-9109 -9116 9123 0
-9117 9123 0
-9109 -9117 9124 0
-9118 9124 0
-9109 -9118 9125 0
-9119 9125 0
-9109 -9119 9126 0
-9120 9126 0
-9109 -9120 0
-9110 9127 0
-9121 9127 0
-9110 -9121 9128 0
-9122 9128 0
-9110 -9122 9129 0
-9123 9129 0
-9110 -9123 9130 0
-9124 9130 0
-9110 -9124 9131 0
-9125 9131 0
-9110 -9125 9132 0
-9126 9132 0
-9110 -9126 0
-9111 9133 0
-9127 9133 0
-9111 -9127 9134 0
-9128 9134 0
-9111 -9128 9135 0
-9129 9135 0
-9111 -9129 9136 0
-9130 9136 0
-9111 -9130 9137 0
-9131 9137 0
-9111 -9131 9138 0
-9132 9138 0
-9111 -9132 0
-9112 9139 0
-9133 9139 0
-9112 -9133 9140 0
-9134 9140 0
-9112 -9134 9141 0
-9135 9141 0
-9112 -9135 9142 0
-9136 9142 0
-9112 -9136 9143 0
-9137 9143 0
-9112 -9137 9144 0
-9138 9144 0
-9112 -9138 0
-9113 9145 0
-9139 9145 0
-9113 -9139 9146 0
-9140 9146 0
-9113 -9140 9147 0
-9141 9147 0
-9113 -9141 9148 0
-9142 9148 0
-9113 -9142 9149 0
-9143 9149 0
-9113 -9143 9150 0
-9144 9150 0
-9113 -9144 0
-9114 -9150 0
-9157 31 0
-31 9157 0
-9158 80 0
-80 9158 0
-9159 129 0
-129 9159 0
-9160 178 0
-178 9160 0
-9161 227 0
-227 9161 0
-9162 276 0
-276 9162 0
-9163 325 0
-325 9163 0
-9157 9164 0
-9158 9165 0
-9164 9165 0
-9158 -9164 0
-9159 9166 0
-9165 9166 0
-9159 -9165 0
-9160 9167 0
-9166 9167 0
-9160 -9166 0
-9161 9168 0
-9167 9168 0
-9161 -9167 0
-9162 9169 0
-9168 9169 0
-9162 -9168 0
-9163 -9169 0
-9171 31 32 0
-31 9171 0
-32 9171 0
-9172 80 81 0
-80 9172 0
-81 9172 0
-9173 129 130 0
-129 9173 0
-130 9173 0
-9174 178 179 0
-178 9174 0
-179 9174 0
-9175 227 228 0
-227 9175 0
-228 9175 0
-9176 276 277 0
-276 9176 0
-277 9176 0
-9177 325 326 0
-325 9177 0
-326 9177 0
-9171 9178 0
-9179 0
-9172 9180 0
-9178 9180 0
-9172 -9178 9181 0
-9179 9181 0
-9172 -9179 0
-9173 9182 0
-9180 9182 0
-9173 -9180 9183 0
-9181 9183 0
-9173 -9181 0
-9174 9184 0
-9182 9184 0
-9174 -9182 9185 0
-9183 9185 0
-9174 -9183 0
-9175 9186 0
-9184 9186 0
-9175 -9184 9187 0
-9185 9187 0
-9175 -9185 0
-9176 9188 0
-9186 9188 0
-9176 -9186 9189 0
-9187 9189 0
-9176 -9187 0
-9177 -9189 0
-9192 31 32 33 0
-31 9192 0
-32 9192 0
-33 9192 0
-9193 80 81 82 0
-80 9193 0
-81 9193 0
-82 9193 0
-9194 129 130 131 0
-129 9194 0
-130 9194 0
-131 9194 0
-9195 178 179 180 0
-178 9195 0
-179 9195 0
-180 9195 0
-9196 227 228 229 0
-227 9196 0
-228 9196 0
-229 9196 0
-9197 276 277 278 0
-276 9197 0
-277 9197 0
-278 9197 0
-9198 325 326 327 0
-325 9198 0
-326 9198 0
-327 9198 0
-9192 9199 0
-9200 0
-9201 0
-9193 9202 0
-9199 9202 0
-9193 -9199 9203 0
-9200 9203 0
-9193 -9200 9204 0
-9201 9204 0
-9193 -9201 0
-9194 9205 0
-9202 9205 0
-9194 -9202 9206 0
-9203 9206 0
-9194 -9203 9207 0
-9204 9207 0
-9194 -9204 0
-9195 9208 0
-9205 9208 0
-9195 -9205 9209 0
-9206 9209 0
-9195 -9206 9210 0
-9207 9210 0
-9195 -9207 0
-9196 9211 0
-9208 9211 0
-9196 -9208 9212 0
-9209 9212 0
-9196 -9209 9213 0
-9210 9213 0
-9196 -9210 0
-9197 9214 0
-9211 9214 0
-9197 -9211 9215 0
-9212 9215 0
-9197 -9212 9216 0
-9213 9216 0
-9197 -9213 0
-9198 -9216 0
-9220 31 32 33 34 0
-31 9220 0
-32 9220 0
-33 9220 0
-34 9220 0
-9221 80 81 82 83 0
-80 9221 0
-81 9221 0
-82 9221 0
-83 9221 0
-9222 129 130 131 132 0
-129 9222 0
-130 9222 0
-131 9222 0
-132 9222 0
-9223 178 179 180 181 0
-178 9223 0
-179 9223 0
-180 9223 0
-181 9223 0
-9224 227 228 229 230 0
-227 9224 0
-228 9224 0
-229 9224 0
-230 9224 0
-9225 276 277 278 279 0
-276 9225 0
-277 9225 0
-278 9225 0
-279 9225 0
-9226 325 326 327 328 0
-325 9226 0
-326 9226 0
-327 9226 0
-328 9226 0
-9220 9227 0
-9228 0
-9229 0
-9230 0
-9221 9231 0
-9227 9231 0
-9221 -9227 9232 0
-9228 9232 0
-9221 -9228 9233 0
-9229 9233 0
-9221 -9229 9234 0
-9230 9234 0
-9221 -9230 0
-9222 9235 0
-9231 9235 0
-9222 -9231 9236 0
-9232 9236 0
-9222 -9232 9237 0
-9233 9237 0
-9222 -9233 9238 0
-9234 9238 0
-9222 -9234 0
-9223 9239 0
-9235 9239 0
-9223 -9235 9240 0
-9236 9240 0
-9223 -9236 9241 0
-9237 9241 0
-9223 -9237 9242 0
-9238 9242 0
-9223 -9238 0
-9224 9243 0
-9239 9243 0
-9224 -9239 9244 0
-9240 9244 0
-9224 -9240 9245 0
-9241 9245 0
-9224 -9241 9246 0
-9242 9246 0
-9224 -9242 0
-9225 9247 0
-9243 9247 0
-9225 -9243 9248 0
-9244 9248 0
-9225 -9244 9249 0
-9245 9249 0
-9225 -9245 9250 0
-9246 9250 0
-9225 -9246 0
-9226 -9250 0
-9255 31 32 33 34 35 0
-31 9255 0
-32 9255 0
-33 9255 0
-34 9255 0
-35 9255 0
-9256 80 81 82 83 84 0
-80 9256 0
-81 9256 0
-82 9256 0
-83 9256 0
-84 9256 0
-9257 129 130 131 132 133 0
-129 9257 0
-130 9257 0
-131 9257 0
-132 9257 0
-133 9257 0
-9258 178 179 180 181 182 0
-178 9258 0
-179 9258 0
-180 9258 0
-181 9258 0
-182 9258 0
-9259 227 228 229 230 231 0
-227 9259 0
-228 9259 0
-229 9259 0
-230 9259 0
-231 9259 0
-9260 276 277 278 279 280 0
-276 9260 0
-277 9260 0
-278 9260 0
-279 9260 0
-280 9260 0
-9261 325 326 327 328 329 0
-325 9261 0
-326 9261 0
-327 9261 0
-328 9261 0
-329 9261 0
-9255 9262 0
-9263 0
-9264 0
-9265 0
-9266 0
-9256 9267 0
-9262 9267 0
-9256 -9262 9268 0
-9263 9268 0
-9256 -9263 9269 0
-9264 9269 0
-9256 -9264 9270 0
-9265 9270 0
-9256 -9265 9271 0
-9266 9271 0
-9256 -9266 0
-9257 9272 0
-9267 9272 0
-9257 -9267 9273 0
-9268 9273 0
-9257 -9268 9274 0
-9269 9274 0
-9257 -9269 9275 0
-9270 9275 0
-9257 -9270 9276 0
-9271 9276 0
-9257 -9271 0
-9258 9277 0
-9272 9277 0
-9258 -9272 9278 0
-9273 9278 0
-9258 -9273 9279 0
-9274 9279 0
-9258 -9274 9280 0
-9275 9280 0
-9258 -9275 9281 0
-9276 9281 0
-9258 -9276 0
-9259 9282 0
-9277 9282 0
-9259 -9277 9283 0
-9278 9283 0
-9259 -9278 9284 0
-9279 9284 0
-9259 -9279 9285 0
-9280 9285 0
-9259 -9280 9286 0
-9281 9286 0
-9259 -9281 0
-9260 9287 0
-9282 9287 0
-9260 -9282 9288 0
-9283 9288 0
-9260 -9283 9289 0
-9284 9289 0
-9260 -9284 9290 0
-9285 9290 0
-9260 -9285 9291 0
-9286 9291 0
-9260 -9286 0
-9261 -9291 0
-9297 32 0
-32 9297 0
-9298 81 0
-81 9298 0
-9299 130 0
-130 9299 0
-9300 179 0
-179 9300 0
-9301 228 0
-228 9301 0
-9302 277 0
-277 9302 0
-9303 326 0
-326 9303 0
-9297 9304 0
-9298 9305 0
-9304 9305 0
-9298 -9304 0
-9299 9306 0
-9305 9306 0
-9299 -9305 0
-9300 9307 0
-9306 9307 0
-9300 -9306 0
-9301 9308 0
-9307 9308 0
-9301 -9307 0
-9302 9309 0
-9308 9309 0
-9302 -9308 0
-9303 -9309 0
-9311 32 33 0
-32 9311 0
-33 9311 0
-9312 81 82 0
-81 9312 0
-82 9312 0
-9313 130 131 0
-130 9313 0
-131 9313 0
-9314 179 180 0
-179 9314 0
-180 9314 0
-9315 228 229 0
-228 9315 0
-229 9315 0
-9316 277 278 0
-277 9316 0
-278 9316 0
-9317 326 327 0
-326 9317 0
-327 9317 0
-9311 9318 0
-9319 0
-9312 9320 0
-9318 9320 0
-9312 -9318 9321 0
-9319 9321 0
-9312 -9319 0
-9313 9322 0
-9320 9322 0
-9313 -9320 9323 0
-9321 9323 0
-9313 -9321 0
-9314 9324 0
-9322 9324 0
-9314 -9322 9325 0
-9323 9325 0
-9314 -9323 0
-9315 9326 0
-9324 9326 0
-9315 -9324 9327 0
-9325 9327 0
-9315 -9325 0
-9316 9328 0
-9326 9328 0
-9316 -9326 9329 0
-9327 9329 0
-9316 -9327 0
-9317 -9329 0
-9332 32 33 34 0
-32 9332 0
-33 9332 0
-34 9332 0
-9333 81 82 83 0
-81 9333 0
-82 9333 0
-83 9333 0
-9334 130 131 132 0
-130 9334 0
-131 9334 0
-132 9334 0
-9335 179 180 181 0
-179 9335 0
-180 9335 0
-181 9335 0
-9336 228 229 230 0
-228 9336 0
-229 9336 0
-230 9336 0
-9337 277 278 279 0
-277 9337 0
-278 9337 0
-279 9337 0
-9338 326 327 328 0
-326 9338 0
-327 9338 0
-328 9338 0
-9332 9339 0
-9340 0
-9341 0
-9333 9342 0
-9339 9342 0
-9333 -9339 9343 0
-9340 9343 0
-9333 -9340 9344 0
-9341 9344 0
-9333 -9341 0
-9334 9345 0
-9342 9345 0
-9334 -9342 9346 0
-9343 9346 0
-9334 -9343 9347 0
-9344 9347 0
-9334 -9344 0
-9335 9348 0
-9345 9348 0
-9335 -9345 9349 0
-9346 9349 0
-9335 -9346 9350 0
-9347 9350 0
-9335 -9347 0
-9336 9351 0
-9348 9351 0
-9336 -9348 9352 0
-9349 9352 0
-9336 -9349 9353 0
-9350 9353 0
-9336 -9350 0
-9337 9354 0
-9351 9354 0
-9337 -9351 9355 0
-9352 9355 0
-9337 -9352 9356 0
-9353 9356 0
-9337 -9353 0
-9338 -9356 0
-9360 32 33 34 35 0
-32 9360 0
-33 9360 0
-34 9360 0
-35 9360 0
-9361 81 82 83 84 0
-81 9361 0
-82 9361 0
-83 9361 0
-84 9361 0
-9362 130 131 132 133 0
-130 9362 0
-131 9362 0
-132 9362 0
-133 9362 0
-9363 179 180 181 182 0
-179 9363 0
-180 9363 0
-181 9363 0
-182 9363 0
-9364 228 229 230 231 0
-228 9364 0
-229 9364 0
-230 9364 0
-231 9364 0
-9365 277 278 279 280 0
-277 9365 0
-278 9365 0
-279 9365 0
-280 9365 0
-9366 326 327 328 329 0
-326 9366 0
-327 9366 0
-328 9366 0
-329 9366 0
-9360 9367 0
-9368 0
-9369 0
-9370 0
-9361 9371 0
-9367 9371 0
-9361 -9367 9372 0
-9368 9372 0
-9361 -9368 9373 0
-9369 9373 0
-9361 -9369 9374 0
-9370 9374 0
-9361 -9370 0
-9362 9375 0
-9371 9375 0
-9362 -9371 9376 0
-9372 9376 0
-9362 -9372 9377 0
-9373 9377 0
-9362 -9373 9378 0
-9374 9378 0
-9362 -9374 0
-9363 9379 0
-9375 9379 0
-9363 -9375 9380 0
-9376 9380 0
-9363 -9376 9381 0
-9377 9381 0
-9363 -9377 9382 0
-9378 9382 0
-9363 -9378 0
-9364 9383 0
-9379 9383 0
-9364 -9379 9384 0
-9380 9384 0
-9364 -9380 9385 0
-9381 9385 0
-9364 -9381 9386 0
-9382 9386 0
-9364 -9382 0
-9365 9387 0
-9383 9387 0
-9365 -9383 9388 0
-9384 9388 0
-9365 -9384 9389 0
-9385 9389 0
-9365 -9385 9390 0
-9386 9390 0
-9365 -9386 0
-9366 -9390 0
-9395 33 0
-33 9395 0
-9396 82 0
-82 9396 0
-9397 131 0
-131 9397 0
-9398 180 0
-180 9398 0
-9399 229 0
-229 9399 0
-9400 278 0
-278 9400 0
-9401 327 0
-327 9401 0
-9395 9402 0
-9396 9403 0
-9402 9403 0
-9396 -9402 0
-9397 9404 0
-9403 9404 0
-9397 -9403 0
-9398 9405 0
-9404 9405 0
-9398 -9404 0
-9399 9406 0
-9405 9406 0
-9399 -9405 0
-9400 9407 0
-9406 9407 0
-9400 -9406 0
-9401 -9407 0
-9409 33 34 0
-33 9409 0
-34 9409 0
-9410 82 83 0
-82 9410 0
-83 9410 0
-9411 131 132 0
-131 9411 0
-132 9411 0
-9412 180 181 0
-180 9412 0
-181 9412 0
-9413 229 230 0
-229 9413 0
-230 9413 0
-9414 278 279 0
-278 9414 0
-279 9414 0
-9415 327 328 0
-327 9415 0
-328 9415 0
-9409 9416 0
-9417 0
-9410 9418 0
-9416 9418 0
-9410 -9416 9419 0
-9417 9419 0
-9410 -9417 0
-9411 9420 0
-9418 9420 0
-9411 -9418 9421 0
-9419 9421 0
-9411 -9419 0
-9412 9422 0
-9420 9422 0
-9412 -9420 9423 0
-9421 9423 0
-9412 -9421 0
-9413 9424 0
-9422 9424 0
-9413 -9422 9425 0
-9423 9425 0
-9413 -9423 0
-9414 9426 0
-9424 9426 0
-9414 -9424 9427 0
-9425 9427 0
-9414 -9425 0
-9415 -9427 0
-9430 33 34 35 0
-33 9430 0
-34 9430 0
-35 9430 0
-9431 82 83 84 0
-82 9431 0
-83 9431 0
-84 9431 0
-9432 131 132 133 0
-131 9432 0
-132 9432 0
-133 9432 0
-9433 180 181 182 0
-180 9433 0
-181 9433 0
-182 9433 0
-9434 229 230 231 0
-229 9434 0
-230 9434 0
-231 9434 0
-9435 278 279 280 0
-278 9435 0
-279 9435 0
-280 9435 0
-9436 327 328 329 0
-327 9436 0
-328 9436 0
-329 9436 0
-9430 9437 0
-9438 0
-9439 0
-9431 9440 0
-9437 9440 0
-9431 -9437 9441 0
-9438 9441 0
-9431 -9438 9442 0
-9439 9442 0
-9431 -9439 0
-9432 9443 0
-9440 9443 0
-9432 -9440 9444 0
-9441 9444 0
-9432 -9441 9445 0
-9442 9445 0
-9432 -9442 0
-9433 9446 0
-9443 9446 0
-9433 -9443 9447 0
-9444 9447 0
-9433 -9444 9448 0
-9445 9448 0
-9433 -9445 0
-9434 9449 0
-9446 9449 0
-9434 -9446 9450 0
-9447 9450 0
-9434 -9447 9451 0
-9448 9451 0
-9434 -9448 0
-9435 9452 0
-9449 9452 0
-9435 -9449 9453 0
-9450 9453 0
-9435 -9450 9454 0
-9451 9454 0
-9435 -9451 0
-9436 -9454 0
-9458 34 0
-34 9458 0
-9459 83 0
-83 9459 0
-9460 132 0
-132 9460 0
-9461 181 0
-181 9461 0
-9462 230 0
-230 9462 0
-9463 279 0
-279 9463 0
-9464 328 0
-328 9464 0
-9458 9465 0
-9459 9466 0
-9465 9466 0
-9459 -9465 0
-9460 9467 0
-9466 9467 0
-9460 -9466 0
-9461 9468 0
-9467 9468 0
-9461 -9467 0
-9462 9469 0
-9468 9469 0
-9462 -9468 0
-9463 9470 0
-9469 9470 0
-9463 -9469 0
-9464 -9470 0
-9472 34 35 0
-34 9472 0
-35 9472 0
-9473 83 84 0
-83 9473 0
-84 9473 0
-9474 132 133 0
-132 9474 0
-133 9474 0
-9475 181 182 0
-181 9475 0
-182 9475 0
-9476 230 231 0
-230 9476 0
-231 9476 0
-9477 279 280 0
-279 9477 0
-280 9477 0
-9478 328 329 0
-328 9478 0
-329 9478 0
-9472 9479 0
-9480 0
-9473 9481 0
-9479 9481 0
-9473 -9479 9482 0
-9480 9482 0
-9473 -9480 0
-9474 9483 0
-9481 9483 0
-9474 -9481 9484 0
-9482 9484 0
-9474 -9482 0
-9475 9485 0
-9483 9485 0
-9475 -9483 9486 0
-9484 9486 0
-9475 -9484 0
-9476 9487 0
-9485 9487 0
-9476 -9485 9488 0
-9486 9488 0
-9476 -9486 0
-9477 9489 0
-9487 9489 0
-9477 -9487 9490 0
-9488 9490 0
-9477 -9488 0
-9478 -9490 0
-9493 35 0
-35 9493 0
-9494 84 0
-84 9494 0
-9495 133 0
-133 9495 0
-9496 182 0
-182 9496 0
-9497 231 0
-231 9497 0
-9498 280 0
-280 9498 0
-9499 329 0
-329 9499 0
-9493 9500 0
-9494 9501 0
-9500 9501 0
-9494 -9500 0
-9495 9502 0
-9501 9502 0
-9495 -9501 0
-9496 9503 0
-9502 9503 0
-9496 -9502 0
-9497 9504 0
-9503 9504 0
-9497 -9503 0
-9498 9505 0
-9504 9505 0
-9498 -9504 0
-9499 -9505 0
-9507 36 0
-36 9507 0
-9508 85 0
-85 9508 0
-9509 134 0
-134 9509 0
-9510 183 0
-183 9510 0
-9511 232 0
-232 9511 0
-9512 281 0
-281 9512 0
-9513 330 0
-330 9513 0
-9507 9514 0
-9508 9515 0
-9514 9515 0
-9508 -9514 0
-9509 9516 0
-9515 9516 0
-9509 -9515 0
-9510 9517 0
-9516 9517 0
-9510 -9516 0
-9511 9518 0
-9517 9518 0
-9511 -9517 0
-9512 9519 0
-9518 9519 0
-9512 -9518 0
-9513 -9519 0
-9521 36 37 0
-36 9521 0
-37 9521 0
-9522 85 86 0
-85 9522 0
-86 9522 0
-9523 134 135 0
-134 9523 0
-135 9523 0
-9524 183 184 0
-183 9524 0
-184 9524 0
-9525 232 233 0
-232 9525 0
-233 9525 0
-9526 281 282 0
-281 9526 0
-282 9526 0
-9527 330 331 0
-330 9527 0
-331 9527 0
-9521 9528 0
-9529 0
-9522 9530 0
-9528 9530 0
-9522 -9528 9531 0
-9529 9531 0
-9522 -9529 0
-9523 9532 0
-9530 9532 0
-9523 -9530 9533 0
-9531 9533 0
-9523 -9531 0
-9524 9534 0
-9532 9534 0
-9524 -9532 9535 0
-9533 9535 0
-9524 -9533 0
-9525 9536 0
-9534 9536 0
-9525 -9534 9537 0
-9535 9537 0
-9525 -9535 0
-9526 9538 0
-9536 9538 0
-9526 -9536 9539 0
-9537 9539 0
-9526 -9537 0
-9527 -9539 0
-9542 36 37 38 0
-36 9542 0
-37 9542 0
-38 9542 0
-9543 85 86 87 0
-85 9543 0
-86 9543 0
-87 9543 0
-9544 134 135 136 0
-134 9544 0
-135 9544 0
-136 9544 0
-9545 183 184 185 0
-183 9545 0
-184 9545 0
-185 9545 0
-9546 232 233 234 0
-232 9546 0
-233 9546 0
-234 9546 0
-9547 281 282 283 0
-281 9547 0
-282 9547 0
-283 9547 0
-9548 330 331 332 0
-330 9548 0
-331 9548 0
-332 9548 0
-9542 9549 0
-9550 0
-9551 0
-9543 9552 0
-9549 9552 0
-9543 -9549 9553 0
-9550 9553 0
-9543 -9550 9554 0
-9551 9554 0
-9543 -9551 0
-9544 9555 0
-9552 9555 0
-9544 -9552 9556 0
-9553 9556 0
-9544 -9553 9557 0
-9554 9557 0
-9544 -9554 0
-9545 9558 0
-9555 9558 0
-9545 -9555 9559 0
-9556 9559 0
-9545 -9556 9560 0
-9557 9560 0
-9545 -9557 0
-9546 9561 0
-9558 9561 0
-9546 -9558 9562 0
-9559 9562 0
-9546 -9559 9563 0
-9560 9563 0
-9546 -9560 0
-9547 9564 0
-9561 9564 0
-9547 -9561 9565 0
-9562 9565 0
-9547 -9562 9566 0
-9563 9566 0
-9547 -9563 0
-9548 -9566 0
-9570 36 37 38 39 0
-36 9570 0
-37 9570 0
-38 9570 0
-39 9570 0
-9571 85 86 87 88 0
-85 9571 0
-86 9571 0
-87 9571 0
-88 9571 0
-9572 134 135 136 137 0
-134 9572 0
-135 9572 0
-136 9572 0
-137 9572 0
-9573 183 184 185 186 0
-183 9573 0
-184 9573 0
-185 9573 0
-186 9573 0
-9574 232 233 234 235 0
-232 9574 0
-233 9574 0
-234 9574 0
-235 9574 0
-9575 281 282 283 284 0
-281 9575 0
-282 9575 0
-283 9575 0
-284 9575 0
-9576 330 331 332 333 0
-330 9576 0
-331 9576 0
-332 9576 0
-333 9576 0
-9570 9577 0
-9578 0
-9579 0
-9580 0
-9571 9581 0
-9577 9581 0
-9571 -9577 9582 0
-9578 9582 0
-9571 -9578 9583 0
-9579 9583 0
-9571 -9579 9584 0
-9580 9584 0
-9571 -9580 0
-9572 9585 0
-9581 9585 0
-9572 -9581 9586 0
-9582 9586 0
-9572 -9582 9587 0
-9583 9587 0
-9572 -9583 9588 0
-9584 9588 0
-9572 -9584 0
-9573 9589 0
-9585 9589 0
-9573 -9585 9590 0
-9586 9590 0
-9573 -9586 9591 0
-9587 9591 0
-9573 -9587 9592 0
-9588 9592 0
-9573 -9588 0
-9574 9593 0
-9589 9593 0
-9574 -9589 9594 0
-9590 9594 0
-9574 -9590 9595 0
-9591 9595 0
-9574 -9591 9596 0
-9592 9596 0
-9574 -9592 0
-9575 9597 0
-9593 9597 0
-9575 -9593 9598 0
-9594 9598 0
-9575 -9594 9599 0
-9595 9599 0
-9575 -9595 9600 0
-9596 9600 0
-9575 -9596 0
-9576 -9600 0
-9605 36 37 38 39 40 0
-36 9605 0
-37 9605 0
-38 9605 0
-39 9605 0
-40 9605 0
-9606 85 86 87 88 89 0
-85 9606 0
-86 9606 0
-87 9606 0
-88 9606 0
-89 9606 0
-9607 134 135 136 137 138 0
-134 9607 0
-135 9607 0
-136 9607 0
-137 9607 0
-138 9607 0
-9608 183 184 185 186 187 0
-183 9608 0
-184 9608 0
-185 9608 0
-186 9608 0
-187 9608 0
-9609 232 233 234 235 236 0
-232 9609 0
-233 9609 0
-234 9609 0
-235 9609 0
-236 9609 0
-9610 281 282 283 284 285 0
-281 9610 0
-282 9610 0
-283 9610 0
-284 9610 0
-285 9610 0
-9611 330 331 332 333 334 0
-330 9611 0
-331 9611 0
-332 9611 0
-333 9611 0
-334 9611 0
-9605 9612 0
-9613 0
-9614 0
-9615 0
-9616 0
-9606 9617 0
-9612 9617 0
-9606 -9612 9618 0
-9613 9618 0
-9606 -9613 9619 0
-9614 9619 0
-9606 -9614 9620 0
-9615 9620 0
-9606 -9615 9621 0
-9616 9621 0
-9606 -9616 0
-9607 9622 0
-9617 9622 0
-9607 -9617 9623 0
-9618 9623 0
-9607 -9618 9624 0
-9619 9624 0
-9607 -9619 9625 0
-9620 9625 0
-9607 -9620 9626 0
-9621 9626 0
-9607 -9621 0
-9608 9627 0
-9622 9627 0
-9608 -9622 9628 0
-9623 9628 0
-9608 -9623 9629 0
-9624 9629 0
-9608 -9624 9630 0
-9625 9630 0
-9608 -9625 9631 0
-9626 9631 0
-9608 -9626 0
-9609 9632 0
-9627 9632 0
-9609 -9627 9633 0
-9628 9633 0
-9609 -9628 9634 0
-9629 9634 0
-9609 -9629 9635 0
-9630 9635 0
-9609 -9630 9636 0
-9631 9636 0
-9609 -9631 0
-9610 9637 0
-9632 9637 0
-9610 -9632 9638 0
-9633 9638 0
-9610 -9633 9639 0
-9634 9639 0
-9610 -9634 9640 0
-9635 9640 0
-9610 -9635 9641 0
-9636 9641 0
-9610 -9636 0
-9611 -9641 0
-9647 36 37 38 39 40 41 0
-36 9647 0
-37 9647 0
-38 9647 0
-39 9647 0
-40 9647 0
-41 9647 0
-9648 85 86 87 88 89 90 0
-85 9648 0
-86 9648 0
-87 9648 0
-88 9648 0
-89 9648 0
-90 9648 0
-9649 134 135 136 137 138 139 0
-134 9649 0
-135 9649 0
-136 9649 0
-137 9649 0
-138 9649 0
-139 9649 0
-9650 183 184 185 186 187 188 0
-183 9650 0
-184 9650 0
-185 9650 0
-186 9650 0
-187 9650 0
-188 9650 0
-9651 232 233 234 235 236 237 0
-232 9651 0
-233 9651 0
-234 9651 0
-235 9651 0
-236 9651 0
-237 9651 0
-9652 281 282 283 284 285 286 0
-281 9652 0
-282 9652 0
-283 9652 0
-284 9652 0
-285 9652 0
-286 9652 0
-9653 330 331 332 333 334 335 0
-330 9653 0
-331 9653 0
-332 9653 0
-333 9653 0
-334 9653 0
-335 9653 0
-9647 9654 0
-9655 0
-9656 0
-9657 0
-9658 0
-9659 0
-9648 9660 0
-9654 9660 0
-9648 -9654 9661 0
-9655 9661 0
-9648 -9655 9662 0
-9656 9662 0
-9648 -9656 9663 0
-9657 9663 0
-9648 -9657 9664 0
-9658 9664 0
-9648 -9658 9665 0
-9659 9665 0
-9648 -9659 0
-9649 9666 0
-9660 9666 0
-9649 -9660 9667 0
-9661 9667 0
-9649 -9661 9668 0
-9662 9668 0
-9649 -9662 9669 0
-9663 9669 0
-9649 -9663 9670 0
-9664 9670 0
-9649 -9664 9671 0
-9665 9671 0
-9649 -9665 0
-9650 9672 0
-9666 9672 0
-9650 -9666 9673 0
-9667 9673 0
-9650 -9667 9674 0
-9668 9674 0
-9650 -9668 9675 0
-9669 9675 0
-9650 -9669 9676 0
-9670 9676 0
-9650 -9670 9677 0
-9671 9677 0
-9650 -9671 0
-9651 9678 0
-9672 9678 0
-9651 -9672 9679 0
-9673 9679 0
-9651 -9673 9680 0
-9674 9680 0
-9651 -9674 9681 0
-9675 9681 0
-9651 -9675 9682 0
-9676 9682 0
-9651 -9676 9683 0
-9677 9683 0
-9651 -9677 0
-9652 9684 0
-9678 9684 0
-9652 -9678 9685 0
-9679 9685 0
-9652 -9679 9686 0
-9680 9686 0
-9652 -9680 9687 0
-9681 9687 0
-9652 -9681 9688 0
-9682 9688 0
-9652 -9682 9689 0
-9683 9689 0
-9652 -9683 0
-9653 -9689 0
-9696 36 37 38 39 40 41 42 0
-36 9696 0
-37 9696 0
-38 9696 0
-39 9696 0
-40 9696 0
-41 9696 0
-42 9696 0
-9697 85 86 87 88 89 90 91 0
-85 9697 0
-86 9697 0
-87 9697 0
-88 9697 0
-89 9697 0
-90 9697 0
-91 9697 0
-9698 134 135 136 137 138 139 140 0
-134 9698 0
-135 9698 0
-136 9698 0
-137 9698 0
-138 9698 0
-139 9698 0
-140 9698 0
-9699 183 184 185 186 187 188 189 0
-183 9699 0
-184 9699 0
-185 9699 0
-186 9699 0
-187 9699 0
-188 9699 0
-189 9699 0
-9700 232 233 234 235 236 237 238 0
-232 9700 0
-233 9700 0
-234 9700 0
-235 9700 0
-236 9700 0
-237 9700 0
-238 9700 0
-9701 281 282 283 284 285 286 287 0
-281 9701 0
-282 9701 0
-283 9701 0
-284 9701 0
-285 9701 0
-286 9701 0
-287 9701 0
-9702 330 331 332 333 334 335 336 0
-330 9702 0
-331 9702 0
-332 9702 0
-333 9702 0
-334 9702 0
-335 9702 0
-336 9702 0
-9703 37 0
-37 9703 0
-9704 86 0
-86 9704 0
-9705 135 0
-135 9705 0
-9706 184 0
-184 9706 0
-9707 233 0
-233 9707 0
-9708 282 0
-282 9708 0
-9709 331 0
-331 9709 0
-9703 9710 0
-9704 9711 0
-9710 9711 0
-9704 -9710 0
-9705 9712 0
-9711 9712 0
-9705 -9711 0
-9706 9713 0
-9712 9713 0
-9706 -9712 0
-9707 9714 0
-9713 9714 0
-9707 -9713 0
-9708 9715 0
-9714 9715 0
-9708 -9714 0
-9709 -9715 0
-9717 37 38 0
-37 9717 0
-38 9717 0
-9718 86 87 0
-86 9718 0
-87 9718 0
-9719 135 136 0
-135 9719 0
-136 9719 0
-9720 184 185 0
-184 9720 0
-185 9720 0
-9721 233 234 0
-233 9721 0
-234 9721 0
-9722 282 283 0
-282 9722 0
-283 9722 0
-9723 331 332 0
-331 9723 0
-332 9723 0
-9717 9724 0
-9725 0
-9718 9726 0
-9724 9726 0
-9718 -9724 9727 0
-9725 9727 0
-9718 -9725 0
-9719 9728 0
-9726 9728 0
-9719 -9726 9729 0
-9727 9729 0
-9719 -9727 0
-9720 9730 0
-9728 9730 0
-9720 -9728 9731 0
-9729 9731 0
-9720 -9729 0
-9721 9732 0
-9730 9732 0
-9721 -9730 9733 0
-9731 9733 0
-9721 -9731 0
-9722 9734 0
-9732 9734 0
-9722 -9732 9735 0
-9733 9735 0
-9722 -9733 0
-9723 -9735 0
-9738 37 38 39 0
-37 9738 0
-38 9738 0
-39 9738 0
-9739 86 87 88 0
-86 9739 0
-87 9739 0
-88 9739 0
-9740 135 136 137 0
-135 9740 0
-136 9740 0
-137 9740 0
-9741 184 185 186 0
-184 9741 0
-185 9741 0
-186 9741 0
-9742 233 234 235 0
-233 9742 0
-234 9742 0
-235 9742 0
-9743 282 283 284 0
-282 9743 0
-283 9743 0
-284 9743 0
-9744 331 332 333 0
-331 9744 0
-332 9744 0
-333 9744 0
-9738 9745 0
-9746 0
-9747 0
-9739 9748 0
-9745 9748 0
-9739 -9745 9749 0
-9746 9749 0
-9739 -9746 9750 0
-9747 9750 0
-9739 -9747 0
-9740 9751 0
-9748 9751 0
-9740 -9748 9752 0
-9749 9752 0
-9740 -9749 9753 0
-9750 9753 0
-9740 -9750 0
-9741 9754 0
-9751 9754 0
-9741 -9751 9755 0
-9752 9755 0
-9741 -9752 9756 0
-9753 9756 0
-9741 -9753 0
-9742 9757 0
-9754 9757 0
-9742 -9754 9758 0
-9755 9758 0
-9742 -9755 9759 0
-9756 9759 0
-9742 -9756 0
-9743 9760 0
-9757 9760 0
-9743 -9757 9761 0
-9758 9761 0
-9743 -9758 9762 0
-9759 9762 0
-9743 -9759 0
-9744 -9762 0
-9766 37 38 39 40 0
-37 9766 0
-38 9766 0
-39 9766 0
-40 9766 0
-9767 86 87 88 89 0
-86 9767 0
-87 9767 0
-88 9767 0
-89 9767 0
-9768 135 136 137 138 0
-135 9768 0
-136 9768 0
-137 9768 0
-138 9768 0
-9769 184 185 186 187 0
-184 9769 0
-185 9769 0
-186 9769 0
-187 9769 0
-9770 233 234 235 236 0
-233 9770 0
-234 9770 0
-235 9770 0
-236 9770 0
-9771 282 283 284 285 0
-282 9771 0
-283 9771 0
-284 9771 0
-285 9771 0
-9772 331 332 333 334 0
-331 9772 0
-332 9772 0
-333 9772 0
-334 9772 0
-9766 9773 0
-9774 0
-9775 0
-9776 0
-9767 9777 0
-9773 9777 0
-9767 -9773 9778 0
-9774 9778 0
-9767 -9774 9779 0
-9775 9779 0
-9767 -9775 9780 0
-9776 9780 0
-9767 -9776 0
-9768 9781 0
-9777 9781 0
-9768 -9777 9782 0
-9778 9782 0
-9768 -9778 9783 0
-9779 9783 0
-9768 -9779 9784 0
-9780 9784 0
-9768 -9780 0
-9769 9785 0
-9781 9785 0
-9769 -9781 9786 0
-9782 9786 0
-9769 -9782 9787 0
-9783 9787 0
-9769 -9783 9788 0
-9784 9788 0
-9769 -9784 0
-9770 9789 0
-9785 9789 0
-9770 -9785 9790 0
-9786 9790 0
-9770 -9786 9791 0
-9787 9791 0
-9770 -9787 9792 0
-9788 9792 0
-9770 -9788 0
-9771 9793 0
-9789 9793 0
-9771 -9789 9794 0
-9790 9794 0
-9771 -9790 9795 0
-9791 9795 0
-9771 -9791 9796 0
-9792 9796 0
-9771 -9792 0
-9772 -9796 0
-9801 37 38 39 40 41 0
-37 9801 0
-38 9801 0
-39 9801 0
-40 9801 0
-41 9801 0
-9802 86 87 88 89 90 0
-86 9802 0
-87 9802 0
-88 9802 0
-89 9802 0
-90 9802 0
-9803 135 136 137 138 139 0
-135 9803 0
-136 9803 0
-137 9803 0
-138 9803 0
-139 9803 0
-9804 184 185 186 187 188 0
-184 9804 0
-185 9804 0
-186 9804 0
-187 9804 0
-188 9804 0
-9805 233 234 235 236 237 0
-233 9805 0
-234 9805 0
-235 9805 0
-236 9805 0
-237 9805 0
-9806 282 283 284 285 286 0
-282 9806 0
-283 9806 0
-284 9806 0
-285 9806 0
-286 9806 0
-9807 331 332 333 334 335 0
-331 9807 0
-332 9807 0
-333 9807 0
-334 9807 0
-335 9807 0
-9801 9808 0
-9809 0
-9810 0
-9811 0
-9812 0
-9802 9813 0
-9808 9813 0
-9802 -9808 9814 0
-9809 9814 0
-9802 -9809 9815 0
-9810 9815 0
-9802 -9810 9816 0
-9811 9816 0
-9802 -9811 9817 0
-9812 9817 0
-9802 -9812 0
-9803 9818 0
-9813 9818 0
-9803 -9813 9819 0
-9814 9819 0
-9803 -9814 9820 0
-9815 9820 0
-9803 -9815 9821 0
-9816 9821 0
-9803 -9816 9822 0
-9817 9822 0
-9803 -9817 0
-9804 9823 0
-9818 9823 0
-9804 -9818 9824 0
-9819 9824 0
-9804 -9819 9825 0
-9820 9825 0
-9804 -9820 9826 0
-9821 9826 0
-9804 -9821 9827 0
-9822 9827 0
-9804 -9822 0
-9805 9828 0
-9823 9828 0
-9805 -9823 9829 0
-9824 9829 0
-9805 -9824 9830 0
-9825 9830 0
-9805 -9825 9831 0
-9826 9831 0
-9805 -9826 9832 0
-9827 9832 0
-9805 -9827 0
-9806 9833 0
-9828 9833 0
-9806 -9828 9834 0
-9829 9834 0
-9806 -9829 9835 0
-9830 9835 0
-9806 -9830 9836 0
-9831 9836 0
-9806 -9831 9837 0
-9832 9837 0
-9806 -9832 0
-9807 -9837 0
-9843 37 38 39 40 41 42 0
-37 9843 0
-38 9843 0
-39 9843 0
-40 9843 0
-41 9843 0
-42 9843 0
-9844 86 87 88 89 90 91 0
-86 9844 0
-87 9844 0
-88 9844 0
-89 9844 0
-90 9844 0
-91 9844 0
-9845 135 136 137 138 139 140 0
-135 9845 0
-136 9845 0
-137 9845 0
-138 9845 0
-139 9845 0
-140 9845 0
-9846 184 185 186 187 188 189 0
-184 9846 0
-185 9846 0
-186 9846 0
-187 9846 0
-188 9846 0
-189 9846 0
-9847 233 234 235 236 237 238 0
-233 9847 0
-234 9847 0
-235 9847 0
-236 9847 0
-237 9847 0
-238 9847 0
-9848 282 283 284 285 286 287 0
-282 9848 0
-283 9848 0
-284 9848 0
-285 9848 0
-286 9848 0
-287 9848 0
-9849 331 332 333 334 335 336 0
-331 9849 0
-332 9849 0
-333 9849 0
-334 9849 0
-335 9849 0
-336 9849 0
-9843 9850 0
-9851 0
-9852 0
-9853 0
-9854 0
-9855 0
-9844 9856 0
-9850 9856 0
-9844 -9850 9857 0
-9851 9857 0
-9844 -9851 9858 0
-9852 9858 0
-9844 -9852 9859 0
-9853 9859 0
-9844 -9853 9860 0
-9854 9860 0
-9844 -9854 9861 0
-9855 9861 0
-9844 -9855 0
-9845 9862 0
-9856 9862 0
-9845 -9856 9863 0
-9857 9863 0
-9845 -9857 9864 0
-9858 9864 0
-9845 -9858 9865 0
-9859 9865 0
-9845 -9859 9866 0
-9860 9866 0
-9845 -9860 9867 0
-9861 9867 0
-9845 -9861 0
-9846 9868 0
-9862 9868 0
-9846 -9862 9869 0
-9863 9869 0
-9846 -9863 9870 0
-9864 9870 0
-9846 -9864 9871 0
-9865 9871 0
-9846 -9865 9872 0
-9866 9872 0
-9846 -9866 9873 0
-9867 9873 0
-9846 -9867 0
-9847 9874 0
-9868 9874 0
-9847 -9868 9875 0
-9869 9875 0
-9847 -9869 9876 0
-9870 9876 0
-9847 -9870 9877 0
-9871 9877 0
-9847 -9871 9878 0
-9872 9878 0
-9847 -9872 9879 0
-9873 9879 0
-9847 -9873 0
-9848 9880 0
-9874 9880 0
-9848 -9874 9881 0
-9875 9881 0
-9848 -9875 9882 0
-9876 9882 0
-9848 -9876 9883 0
-9877 9883 0
-9848 -9877 9884 0
-9878 9884 0
-9848 -9878 9885 0
-9879 9885 0
-9848 -9879 0
-9849 -9885 0
-9892 38 0
-38 9892 0
-9893 87 0
-87 9893 0
-9894 136 0
-136 9894 0
-9895 185 0
-185 9895 0
-9896 234 0
-234 9896 0
-9897 283 0
-283 9897 0
-9898 332 0
-332 9898 0
-9892 9899 0
-9893 9900 0
-9899 9900 0
-9893 -9899 0
-9894 9901 0
-9900 9901 0
-9894 -9900 0
-9895 9902 0
-9901 9902 0
-9895 -9901 0
-9896 9903 0
-9902 9903 0
-9896 -9902 0
-9897 9904 0
-9903 9904 0
-9897 -9903 0
-9898 -9904 0
-9906 38 39 0
-38 9906 0
-39 9906 0
-9907 87 88 0
-87 9907 0
-88 9907 0
-9908 136 137 0
-136 9908 0
-137 9908 0
-9909 185 186 0
-185 9909 0
-186 9909 0
-9910 234 235 0
-234 9910 0
-235 9910 0
-9911 283 284 0
-283 9911 0
-284 9911 0
-9912 332 333 0
-332 9912 0
-333 9912 0
-9906 9913 0
-9914 0
-9907 9915 0
-9913 9915 0
-9907 -9913 9916 0
-9914 9916 0
-9907 -9914 0
-9908 9917 0
-9915 9917 0
-9908 -9915 9918 0
-9916 9918 0
-9908 -9916 0
-9909 9919 0
-9917 9919 0
-9909 -9917 9920 0
-9918 9920 0
-9909 -9918 0
-9910 9921 0
-9919 9921 0
-9910 -9919 9922 0
-9920 9922 0
-9910 -9920 0
-9911 9923 0
-9921 9923 0
-9911 -9921 9924 0
-9922 9924 0
-9911 -9922 0
-9912 -9924 0
-9927 38 39 40 0
-38 9927 0
-39 9927 0
-40 9927 0
-9928 87 88 89 0
-87 9928 0
-88 9928 0
-89 9928 0
-9929 136 137 138 0
-136 9929 0
-137 9929 0
-138 9929 0
-9930 185 186 187 0
-185 9930 0
-186 9930 0
-187 9930 0
-9931 234 235 236 0
-234 9931 0
-235 9931 0
-236 9931 0
-9932 283 284 285 0
-283 9932 0
-284 9932 0
-285 9932 0
-9933 332 333 334 0
-332 9933 0
-333 9933 0
-334 9933 0
-9927 9934 0
-9935 0
-9936 0
-9928 9937 0
-9934 9937 0
-9928 -9934 9938 0
-9935 9938 0
-9928 -9935 9939 0
-9936 9939 0
-9928 -9936 0
-9929 9940 0
-9937 9940 0
-9929 -9937 9941 0
-9938 9941 0
-9929 -9938 9942 0
-9939 9942 0
-9929 -9939 0
-9930 9943 0
-9940 9943 0
-9930 -9940 9944 0
-9941 9944 0
-9930 -9941 9945 0
-9942 9945 0
-9930 -9942 0
-9931 9946 0
-9943 9946 0
-9931 -9943 9947 0
-9944 9947 0
-9931 -9944 9948 0
-9945 9948 0
-9931 -9945 0
-9932 9949 0
-9946 9949 0
-9932 -9946 9950 0
-9947 9950 0
-9932 -9947 9951 0
-9948 9951 0
-9932 -9948 0
-9933 -9951 0
-9955 38 39 40 41 0
-38 9955 0
-39 9955 0
-40 9955 0
-41 9955 0
-9956 87 88 89 90 0
-87 9956 0
-88 9956 0
-89 9956 0
-90 9956 0
-9957 136 137 138 139 0
-136 9957 0
-137 9957 0
-138 9957 0
-139 9957 0
-9958 185 186 187 188 0
-185 9958 0
-186 9958 0
-187 9958 0
-188 9958 0
-9959 234 235 236 237 0
-234 9959 0
-235 9959 0
-236 9959 0
-237 9959 0
-9960 283 284 285 286 0
-283 9960 0
-284 9960 0
-285 9960 0
-286 9960 0
-9961 332 333 334 335 0
-332 9961 0
-333 9961 0
-334 9961 0
-335 9961 0
-9955 9962 0
-9963 0
-9964 0
-9965 0
-9956 9966 0
-9962 9966 0
-9956 -9962 9967 0
-9963 9967 0
-9956 -9963 9968 0
-9964 9968 0
-9956 -9964 9969 0
-9965 9969 0
-9956 -9965 0
-9957 9970 0
-9966 9970 0
-9957 -9966 9971 0
-9967 9971 0
-9957 -9967 9972 0
-9968 9972 0
-9957 -9968 9973 0
-9969 9973 0
-9957 -9969 0
-9958 9974 0
-9970 9974 0
-9958 -9970 9975 0
-9971 9975 0
-9958 -9971 9976 0
-9972 9976 0
-9958 -9972 9977 0
-9973 9977 0
-9958 -9973 0
-9959 9978 0
-9974 9978 0
-9959 -9974 9979 0
-9975 9979 0
-9959 -9975 9980 0
-9976 9980 0
-9959 -9976 9981 0
-9977 9981 0
-9959 -9977 0
-9960 9982 0
-9978 9982 0
-9960 -9978 9983 0
-9979 9983 0
-9960 -9979 9984 0
-9980 9984 0
-9960 -9980 9985 0
-9981 9985 0
-9960 -9981 0
-9961 -9985 0
-9990 38 39 40 41 42 0
-38 9990 0
-39 9990 0
-40 9990 0
-41 9990 0
-42 9990 0
-9991 87 88 89 90 91 0
-87 9991 0
-88 9991 0
-89 9991 0
-90 9991 0
-91 9991 0
-9992 136 137 138 139 140 0
-136 9992 0
-137 9992 0
-138 9992 0
-139 9992 0
-140 9992 0
-9993 185 186 187 188 189 0
-185 9993 0
-186 9993 0
-187 9993 0
-188 9993 0
-189 9993 0
-9994 234 235 236 237 238 0
-234 9994 0
-235 9994 0
-236 9994 0
-237 9994 0
-238 9994 0
-9995 283 284 285 286 287 0
-283 9995 0
-284 9995 0
-285 9995 0
-286 9995 0
-287 9995 0
-9996 332 333 334 335 336 0
-332 9996 0
-333 9996 0
-334 9996 0
-335 9996 0
-336 9996 0
-9990 9997 0
-9998 0
-9999 0
-10000 0
-10001 0
-9991 10002 0
-9997 10002 0
-9991 -9997 10003 0
-9998 10003 0
-9991 -9998 10004 0
-9999 10004 0
-9991 -9999 10005 0
-10000 10005 0
-9991 -10000 10006 0
-10001 10006 0
-9991 -10001 0
-9992 10007 0
-10002 10007 0
-9992 -10002 10008 0
-10003 10008 0
-9992 -10003 10009 0
-10004 10009 0
-9992 -10004 10010 0
-10005 10010 0
-9992 -10005 10011 0
-10006 10011 0
-9992 -10006 0
-9993 10012 0
-10007 10012 0
-9993 -10007 10013 0
-10008 10013 0
-9993 -10008 10014 0
-10009 10014 0
-9993 -10009 10015 0
-10010 10015 0
-9993 -10010 10016 0
-10011 10016 0
-9993 -10011 0
-9994 10017 0
-10012 10017 0
-9994 -10012 10018 0
-10013 10018 0
-9994 -10013 10019 0
-10014 10019 0
-9994 -10014 10020 0
-10015 10020 0
-9994 -10015 10021 0
-10016 10021 0
-9994 -10016 0
-9995 10022 0
-10017 10022 0
-9995 -10017 10023 0
-10018 10023 0
-9995 -10018 10024 0
-10019 10024 0
-9995 -10019 10025 0
-10020 10025 0
-9995 -10020 10026 0
-10021 10026 0
-9995 -10021 0
-9996 -10026 0
-10032 39 0
-39 10032 0
-10033 88 0
-88 10033 0
-10034 137 0
-137 10034 0
-10035 186 0
-186 10035 0
-10036 235 0
-235 10036 0
-10037 284 0
-284 10037 0
-10038 333 0
-333 10038 0
-10032 10039 0
-10033 10040 0
-10039 10040 0
-10033 -10039 0
-10034 10041 0
-10040 10041 0
-10034 -10040 0
-10035 10042 0
-10041 10042 0
-10035 -10041 0
-10036 10043 0
-10042 10043 0
-10036 -10042 0
-10037 10044 0
-10043 10044 0
-10037 -10043 0
-10038 -10044 0
-10046 39 40 0
-39 10046 0
-40 10046 0
-10047 88 89 0
-88 10047 0
-89 10047 0
-10048 137 138 0
-137 10048 0
-138 10048 0
-10049 186 187 0
-186 10049 0
-187 10049 0
-10050 235 236 0
-235 10050 0
-236 10050 0
-10051 284 285 0
-284 10051 0
-285 10051 0
-10052 333 334 0
-333 10052 0
-334 10052 0
-10046 10053 0
-10054 0
-10047 10055 0
-10053 10055 0
-10047 -10053 10056 0
-10054 10056 0
-10047 -10054 0
-10048 10057 0
-10055 10057 0
-10048 -10055 10058 0
-10056 10058 0
-10048 -10056 0
-10049 10059 0
-10057 10059 0
-10049 -10057 10060 0
-10058 10060 0
-10049 -10058 0
-10050 10061 0
-10059 10061 0
-10050 -10059 10062 0
-10060 10062 0
-10050 -10060 0
-10051 10063 0
-10061 10063 0
-10051 -10061 10064 0
-10062 10064 0
-10051 -10062 0
-10052 -10064 0
-10067 39 40 41 0
-39 10067 0
-40 10067 0
-41 10067 0
-10068 88 89 90 0
-88 10068 0
-89 10068 0
-90 10068 0
-10069 137 138 139 0
-137 10069 0
-138 10069 0
-139 10069 0
-10070 186 187 188 0
-186 10070 0
-187 10070 0
-188 10070 0
-10071 235 236 237 0
-235 10071 0
-236 10071 0
-237 10071 0
-10072 284 285 286 0
-284 10072 0
-285 10072 0
-286 10072 0
-10073 333 334 335 0
-333 10073 0
-334 10073 0
-335 10073 0
-10067 10074 0
-10075 0
-10076 0
-10068 10077 0
-10074 10077 0
-10068 -10074 10078 0
-10075 10078 0
-10068 -10075 10079 0
-10076 10079 0
-10068 -10076 0
-10069 10080 0
-10077 10080 0
-10069 -10077 10081 0
-10078 10081 0
-10069 -10078 10082 0
-10079 10082 0
-10069 -10079 0
-10070 10083 0
-10080 10083 0
-10070 -10080 10084 0
-10081 10084 0
-10070 -10081 10085 0
-10082 10085 0
-10070 -10082 0
-10071 10086 0
-10083 10086 0
-10071 -10083 10087 0
-10084 10087 0
-10071 -10084 10088 0
-10085 10088 0
-10071 -10085 0
-10072 10089 0
-10086 10089 0
-10072 -10086 10090 0
-10087 10090 0
-10072 -10087 10091 0
-10088 10091 0
-10072 -10088 0
-10073 -10091 0
-10095 39 40 41 42 0
-39 10095 0
-40 10095 0
-41 10095 0
-42 10095 0
-10096 88 89 90 91 0
-88 10096 0
-89 10096 0
-90 10096 0
-91 10096 0
-10097 137 138 139 140 0
-137 10097 0
-138 10097 0
-139 10097 0
-140 10097 0
-10098 186 187 188 189 0
-186 10098 0
-187 10098 0
-188 10098 0
-189 10098 0
-10099 235 236 237 238 0
-235 10099 0
-236 10099 0
-237 10099 0
-238 10099 0
-10100 284 285 286 287 0
-284 10100 0
-285 10100 0
-286 10100 0
-287 10100 0
-10101 333 334 335 336 0
-333 10101 0
-334 10101 0
-335 10101 0
-336 10101 0
-10095 10102 0
-10103 0
-10104 0
-10105 0
-10096 10106 0
-10102 10106 0
-10096 -10102 10107 0
-10103 10107 0
-10096 -10103 10108 0
-10104 10108 0
-10096 -10104 10109 0
-10105 10109 0
-10096 -10105 0
-10097 10110 0
-10106 10110 0
-10097 -10106 10111 0
-10107 10111 0
-10097 -10107 10112 0
-10108 10112 0
-10097 -10108 10113 0
-10109 10113 0
-10097 -10109 0
-10098 10114 0
-10110 10114 0
-10098 -10110 10115 0
-10111 10115 0
-10098 -10111 10116 0
-10112 10116 0
-10098 -10112 10117 0
-10113 10117 0
-10098 -10113 0
-10099 10118 0
-10114 10118 0
-10099 -10114 10119 0
-10115 10119 0
-10099 -10115 10120 0
-10116 10120 0
-10099 -10116 10121 0
-10117 10121 0
-10099 -10117 0
-10100 10122 0
-10118 10122 0
-10100 -10118 10123 0
-10119 10123 0
-10100 -10119 10124 0
-10120 10124 0
-10100 -10120 10125 0
-10121 10125 0
-10100 -10121 0
-10101 -10125 0
-10130 40 0
-40 10130 0
-10131 89 0
-89 10131 0
-10132 138 0
-138 10132 0
-10133 187 0
-187 10133 0
-10134 236 0
-236 10134 0
-10135 285 0
-285 10135 0
-10136 334 0
-334 10136 0
-10130 10137 0
-10131 10138 0
-10137 10138 0
-10131 -10137 0
-10132 10139 0
-10138 10139 0
-10132 -10138 0
-10133 10140 0
-10139 10140 0
-10133 -10139 0
-10134 10141 0
-10140 10141 0
-10134 -10140 0
-10135 10142 0
-10141 10142 0
-10135 -10141 0
-10136 -10142 0
-10144 40 41 0
-40 10144 0
-41 10144 0
-10145 89 90 0
-89 10145 0
-90 10145 0
-10146 138 139 0
-138 10146 0
-139 10146 0
-10147 187 188 0
-187 10147 0
-188 10147 0
-10148 236 237 0
-236 10148 0
-237 10148 0
-10149 285 286 0
-285 10149 0
-286 10149 0
-10150 334 335 0
-334 10150 0
-335 10150 0
-10144 10151 0
-10152 0
-10145 10153 0
-10151 10153 0
-10145 -10151 10154 0
-10152 10154 0
-10145 -10152 0
-10146 10155 0
-10153 10155 0
-10146 -10153 10156 0
-10154 10156 0
-10146 -10154 0
-10147 10157 0
-10155 10157 0
-10147 -10155 10158 0
-10156 10158 0
-10147 -10156 0
-10148 10159 0
-10157 10159 0
-10148 -10157 10160 0
-10158 10160 0
-10148 -10158 0
-10149 10161 0
-10159 10161 0
-10149 -10159 10162 0
-10160 10162 0
-10149 -10160 0
-10150 -10162 0
-10165 40 41 42 0
-40 10165 0
-41 10165 0
-42 10165 0
-10166 89 90 91 0
-89 10166 0
-90 10166 0
-91 10166 0
-10167 138 139 140 0
-138 10167 0
-139 10167 0
-140 10167 0
-10168 187 188 189 0
-187 10168 0
-188 10168 0
-189 10168 0
-10169 236 237 238 0
-236 10169 0
-237 10169 0
-238 10169 0
-10170 285 286 287 0
-285 10170 0
-286 10170 0
-287 10170 0
-10171 334 335 336 0
-334 10171 0
-335 10171 0
-336 10171 0
-10165 10172 0
-10173 0
-10174 0
-10166 10175 0
-10172 10175 0
-10166 -10172 10176 0
-10173 10176 0
-10166 -10173 10177 0
-10174 10177 0
-10166 -10174 0
-10167 10178 0
-10175 10178 0
-10167 -10175 10179 0
-10176 10179 0
-10167 -10176 10180 0
-10177 10180 0
-10167 -10177 0
-10168 10181 0
-10178 10181 0
-10168 -10178 10182 0
-10179 10182 0
-10168 -10179 10183 0
-10180 10183 0
-10168 -10180 0
-10169 10184 0
-10181 10184 0
-10169 -10181 10185 0
-10182 10185 0
-10169 -10182 10186 0
-10183 10186 0
-10169 -10183 0
-10170 10187 0
-10184 10187 0
-10170 -10184 10188 0
-10185 10188 0
-10170 -10185 10189 0
-10186 10189 0
-10170 -10186 0
-10171 -10189 0
-10193 41 0
-41 10193 0
-10194 90 0
-90 10194 0
-10195 139 0
-139 10195 0
-10196 188 0
-188 10196 0
-10197 237 0
-237 10197 0
-10198 286 0
-286 10198 0
-10199 335 0
-335 10199 0
-10193 10200 0
-10194 10201 0
-10200 10201 0
-10194 -10200 0
-10195 10202 0
-10201 10202 0
-10195 -10201 0
-10196 10203 0
-10202 10203 0
-10196 -10202 0
-10197 10204 0
-10203 10204 0
-10197 -10203 0
-10198 10205 0
-10204 10205 0
-10198 -10204 0
-10199 -10205 0
-10207 41 42 0
-41 10207 0
-42 10207 0
-10208 90 91 0
-90 10208 0
-91 10208 0
-10209 139 140 0
-139 10209 0
-140 10209 0
-10210 188 189 0
-188 10210 0
-189 10210 0
-10211 237 238 0
-237 10211 0
-238 10211 0
-10212 286 287 0
-286 10212 0
-287 10212 0
-10213 335 336 0
-335 10213 0
-336 10213 0
-10207 10214 0
-10215 0
-10208 10216 0
-10214 10216 0
-10208 -10214 10217 0
-10215 10217 0
-10208 -10215 0
-10209 10218 0
-10216 10218 0
-10209 -10216 10219 0
-10217 10219 0
-10209 -10217 0
-10210 10220 0
-10218 10220 0
-10210 -10218 10221 0
-10219 10221 0
-10210 -10219 0
-10211 10222 0
-10220 10222 0
-10211 -10220 10223 0
-10221 10223 0
-10211 -10221 0
-10212 10224 0
-10222 10224 0
-10212 -10222 10225 0
-10223 10225 0
-10212 -10223 0
-10213 -10225 0
-10228 42 0
-42 10228 0
-10229 91 0
-91 10229 0
-10230 140 0
-140 10230 0
-10231 189 0
-189 10231 0
-10232 238 0
-238 10232 0
-10233 287 0
-287 10233 0
-10234 336 0
-336 10234 0
-10228 10235 0
-10229 10236 0
-10235 10236 0
-10229 -10235 0
-10230 10237 0
-10236 10237 0
-10230 -10236 0
-10231 10238 0
-10237 10238 0
-10231 -10237 0
-10232 10239 0
-10238 10239 0
-10232 -10238 0
-10233 10240 0
-10239 10240 0
-10233 -10239 0
-10234 -10240 0
-10242 43 0
-43 10242 0
-10243 92 0
-92 10243 0
-10244 141 0
-141 10244 0
-10245 190 0
-190 10245 0
-10246 239 0
-239 10246 0
-10247 288 0
-288 10247 0
-10248 337 0
-337 10248 0
-10242 10249 0
-10243 10250 0
-10249 10250 0
-10243 -10249 0
-10244 10251 0
-10250 10251 0
-10244 -10250 0
-10245 10252 0
-10251 10252 0
-10245 -10251 0
-10246 10253 0
-10252 10253 0
-10246 -10252 0
-10247 10254 0
-10253 10254 0
-10247 -10253 0
-10248 -10254 0
-10256 43 44 0
-43 10256 0
-44 10256 0
-10257 92 93 0
-92 10257 0
-93 10257 0
-10258 141 142 0
-141 10258 0
-142 10258 0
-10259 190 191 0
-190 10259 0
-191 10259 0
-10260 239 240 0
-239 10260 0
-240 10260 0
-10261 288 289 0
-288 10261 0
-289 10261 0
-10262 337 338 0
-337 10262 0
-338 10262 0
-10256 10263 0
-10264 0
-10257 10265 0
-10263 10265 0
-10257 -10263 10266 0
-10264 10266 0
-10257 -10264 0
-10258 10267 0
-10265 10267 0
-10258 -10265 10268 0
-10266 10268 0
-10258 -10266 0
-10259 10269 0
-10267 10269 0
-10259 -10267 10270 0
-10268 10270 0
-10259 -10268 0
-10260 10271 0
-10269 10271 0
-10260 -10269 10272 0
-10270 10272 0
-10260 -10270 0
-10261 10273 0
-10271 10273 0
-10261 -10271 10274 0
-10272 10274 0
-10261 -10272 0
-10262 -10274 0
-10277 43 44 45 0
-43 10277 0
-44 10277 0
-45 10277 0
-10278 92 93 94 0
-92 10278 0
-93 10278 0
-94 10278 0
-10279 141 142 143 0
-141 10279 0
-142 10279 0
-143 10279 0
-10280 190 191 192 0
-190 10280 0
-191 10280 0
-192 10280 0
-10281 239 240 241 0
-239 10281 0
-240 10281 0
-241 10281 0
-10282 288 289 290 0
-288 10282 0
-289 10282 0
-290 10282 0
-10283 337 338 339 0
-337 10283 0
-338 10283 0
-339 10283 0
-10277 10284 0
-10285 0
-10286 0
-10278 10287 0
-10284 10287 0
-10278 -10284 10288 0
-10285 10288 0
-10278 -10285 10289 0
-10286 10289 0
-10278 -10286 0
-10279 10290 0
-10287 10290 0
-10279 -10287 10291 0
-10288 10291 0
-10279 -10288 10292 0
-10289 10292 0
-10279 -10289 0
-10280 10293 0
-10290 10293 0
-10280 -10290 10294 0
-10291 10294 0
-10280 -10291 10295 0
-10292 10295 0
-10280 -10292 0
-10281 10296 0
-10293 10296 0
-10281 -10293 10297 0
-10294 10297 0
-10281 -10294 10298 0
-10295 10298 0
-10281 -10295 0
-10282 10299 0
-10296 10299 0
-10282 -10296 10300 0
-10297 10300 0
-10282 -10297 10301 0
-10298 10301 0
-10282 -10298 0
-10283 -10301 0
-10305 43 44 45 46 0
-43 10305 0
-44 10305 0
-45 10305 0
-46 10305 0
-10306 92 93 94 95 0
-92 10306 0
-93 10306 0
-94 10306 0
-95 10306 0
-10307 141 142 143 144 0
-141 10307 0
-142 10307 0
-143 10307 0
-144 10307 0
-10308 190 191 192 193 0
-190 10308 0
-191 10308 0
-192 10308 0
-193 10308 0
-10309 239 240 241 242 0
-239 10309 0
-240 10309 0
-241 10309 0
-242 10309 0
-10310 288 289 290 291 0
-288 10310 0
-289 10310 0
-290 10310 0
-291 10310 0
-10311 337 338 339 340 0
-337 10311 0
-338 10311 0
-339 10311 0
-340 10311 0
-10305 10312 0
-10313 0
-10314 0
-10315 0
-10306 10316 0
-10312 10316 0
-10306 -10312 10317 0
-10313 10317 0
-10306 -10313 10318 0
-10314 10318 0
-10306 -10314 10319 0
-10315 10319 0
-10306 -10315 0
-10307 10320 0
-10316 10320 0
-10307 -10316 10321 0
-10317 10321 0
-10307 -10317 10322 0
-10318 10322 0
-10307 -10318 10323 0
-10319 10323 0
-10307 -10319 0
-10308 10324 0
-10320 10324 0
-10308 -10320 10325 0
-10321 10325 0
-10308 -10321 10326 0
-10322 10326 0
-10308 -10322 10327 0
-10323 10327 0
-10308 -10323 0
-10309 10328 0
-10324 10328 0
-10309 -10324 10329 0
-10325 10329 0
-10309 -10325 10330 0
-10326 10330 0
-10309 -10326 10331 0
-10327 10331 0
-10309 -10327 0
-10310 10332 0
-10328 10332 0
-10310 -10328 10333 0
-10329 10333 0
-10310 -10329 10334 0
-10330 10334 0
-10310 -10330 10335 0
-10331 10335 0
-10310 -10331 0
-10311 -10335 0
-10340 43 44 45 46 47 0
-43 10340 0
-44 10340 0
-45 10340 0
-46 10340 0
-47 10340 0
-10341 92 93 94 95 96 0
-92 10341 0
-93 10341 0
-94 10341 0
-95 10341 0
-96 10341 0
-10342 141 142 143 144 145 0
-141 10342 0
-142 10342 0
-143 10342 0
-144 10342 0
-145 10342 0
-10343 190 191 192 193 194 0
-190 10343 0
-191 10343 0
-192 10343 0
-193 10343 0
-194 10343 0
-10344 239 240 241 242 243 0
-239 10344 0
-240 10344 0
-241 10344 0
-242 10344 0
-243 10344 0
-10345 288 289 290 291 292 0
-288 10345 0
-289 10345 0
-290 10345 0
-291 10345 0
-292 10345 0
-10346 337 338 339 340 341 0
-337 10346 0
-338 10346 0
-339 10346 0
-340 10346 0
-341 10346 0
-10340 10347 0
-10348 0
-10349 0
-10350 0
-10351 0
-10341 10352 0
-10347 10352 0
-10341 -10347 10353 0
-10348 10353 0
-10341 -10348 10354 0
-10349 10354 0
-10341 -10349 10355 0
-10350 10355 0
-10341 -10350 10356 0
-10351 10356 0
-10341 -10351 0
-10342 10357 0
-10352 10357 0
-10342 -10352 10358 0
-10353 10358 0
-10342 -10353 10359 0
-10354 10359 0
-10342 -10354 10360 0
-10355 10360 0
-10342 -10355 10361 0
-10356 10361 0
-10342 -10356 0
-10343 10362 0
-10357 10362 0
-10343 -10357 10363 0
-10358 10363 0
-10343 -10358 10364 0
-10359 10364 0
-10343 -10359 10365 0
-10360 10365 0
-10343 -10360 10366 0
-10361 10366 0
-10343 -10361 0
-10344 10367 0
-10362 10367 0
-10344 -10362 10368 0
-10363 10368 0
-10344 -10363 10369 0
-10364 10369 0
-10344 -10364 10370 0
-10365 10370 0
-10344 -10365 10371 0
-10366 10371 0
-10344 -10366 0
-10345 10372 0
-10367 10372 0
-10345 -10367 10373 0
-10368 10373 0
-10345 -10368 10374 0
-10369 10374 0
-10345 -10369 10375 0
-10370 10375 0
-10345 -10370 10376 0
-10371 10376 0
-10345 -10371 0
-10346 -10376 0
-10382 43 44 45 46 47 48 0
-43 10382 0
-44 10382 0
-45 10382 0
-46 10382 0
-47 10382 0
-48 10382 0
-10383 92 93 94 95 96 97 0
-92 10383 0
-93 10383 0
-94 10383 0
-95 10383 0
-96 10383 0
-97 10383 0
-10384 141 142 143 144 145 146 0
-141 10384 0
-142 10384 0
-143 10384 0
-144 10384 0
-145 10384 0
-146 10384 0
-10385 190 191 192 193 194 195 0
-190 10385 0
-191 10385 0
-192 10385 0
-193 10385 0
-194 10385 0
-195 10385 0
-10386 239 240 241 242 243 244 0
-239 10386 0
-240 10386 0
-241 10386 0
-242 10386 0
-243 10386 0
-244 10386 0
-10387 288 289 290 291 292 293 0
-288 10387 0
-289 10387 0
-290 10387 0
-291 10387 0
-292 10387 0
-293 10387 0
-10388 337 338 339 340 341 342 0
-337 10388 0
-338 10388 0
-339 10388 0
-340 10388 0
-341 10388 0
-342 10388 0
-10382 10389 0
-10390 0
-10391 0
-10392 0
-10393 0
-10394 0
-10383 10395 0
-10389 10395 0
-10383 -10389 10396 0
-10390 10396 0
-10383 -10390 10397 0
-10391 10397 0
-10383 -10391 10398 0
-10392 10398 0
-10383 -10392 10399 0
-10393 10399 0
-10383 -10393 10400 0
-10394 10400 0
-10383 -10394 0
-10384 10401 0
-10395 10401 0
-10384 -10395 10402 0
-10396 10402 0
-10384 -10396 10403 0
-10397 10403 0
-10384 -10397 10404 0
-10398 10404 0
-10384 -10398 10405 0
-10399 10405 0
-10384 -10399 10406 0
-10400 10406 0
-10384 -10400 0
-10385 10407 0
-10401 10407 0
-10385 -10401 10408 0
-10402 10408 0
-10385 -10402 10409 0
-10403 10409 0
-10385 -10403 10410 0
-10404 10410 0
-10385 -10404 10411 0
-10405 10411 0
-10385 -10405 10412 0
-10406 10412 0
-10385 -10406 0
-10386 10413 0
-10407 10413 0
-10386 -10407 10414 0
-10408 10414 0
-10386 -10408 10415 0
-10409 10415 0
-10386 -10409 10416 0
-10410 10416 0
-10386 -10410 10417 0
-10411 10417 0
-10386 -10411 10418 0
-10412 10418 0
-10386 -10412 0
-10387 10419 0
-10413 10419 0
-10387 -10413 10420 0
-10414 10420 0
-10387 -10414 10421 0
-10415 10421 0
-10387 -10415 10422 0
-10416 10422 0
-10387 -10416 10423 0
-10417 10423 0
-10387 -10417 10424 0
-10418 10424 0
-10387 -10418 0
-10388 -10424 0
-10431 43 44 45 46 47 48 49 0
-43 10431 0
-44 10431 0
-45 10431 0
-46 10431 0
-47 10431 0
-48 10431 0
-49 10431 0
-10432 92 93 94 95 96 97 98 0
-92 10432 0
-93 10432 0
-94 10432 0
-95 10432 0
-96 10432 0
-97 10432 0
-98 10432 0
-10433 141 142 143 144 145 146 147 0
-141 10433 0
-142 10433 0
-143 10433 0
-144 10433 0
-145 10433 0
-146 10433 0
-147 10433 0
-10434 190 191 192 193 194 195 196 0
-190 10434 0
-191 10434 0
-192 10434 0
-193 10434 0
-194 10434 0
-195 10434 0
-196 10434 0
-10435 239 240 241 242 243 244 245 0
-239 10435 0
-240 10435 0
-241 10435 0
-242 10435 0
-243 10435 0
-244 10435 0
-245 10435 0
-10436 288 289 290 291 292 293 294 0
-288 10436 0
-289 10436 0
-290 10436 0
-291 10436 0
-292 10436 0
-293 10436 0
-294 10436 0
-10437 337 338 339 340 341 342 343 0
-337 10437 0
-338 10437 0
-339 10437 0
-340 10437 0
-341 10437 0
-342 10437 0
-343 10437 0
-10438 44 0
-44 10438 0
-10439 93 0
-93 10439 0
-10440 142 0
-142 10440 0
-10441 191 0
-191 10441 0
-10442 240 0
-240 10442 0
-10443 289 0
-289 10443 0
-10444 338 0
-338 10444 0
-10438 10445 0
-10439 10446 0
-10445 10446 0
-10439 -10445 0
-10440 10447 0
-10446 10447 0
-10440 -10446 0
-10441 10448 0
-10447 10448 0
-10441 -10447 0
-10442 10449 0
-10448 10449 0
-10442 -10448 0
-10443 10450 0
-10449 10450 0
-10443 -10449 0
-10444 -10450 0
-10452 44 45 0
-44 10452 0
-45 10452 0
-10453 93 94 0
-93 10453 0
-94 10453 0
-10454 142 143 0
-142 10454 0
-143 10454 0
-10455 191 192 0
-191 10455 0
-192 10455 0
-10456 240 241 0
-240 10456 0
-241 10456 0
-10457 289 290 0
-289 10457 0
-290 10457 0
-10458 338 339 0
-338 10458 0
-339 10458 0
-10452 10459 0
-10460 0
-10453 10461 0
-10459 10461 0
-10453 -10459 10462 0
-10460 10462 0
-10453 -10460 0
-10454 10463 0
-10461 10463 0
-10454 -10461 10464 0
-10462 10464 0
-10454 -10462 0
-10455 10465 0
-10463 10465 0
-10455 -10463 10466 0
-10464 10466 0
-10455 -10464 0
-10456 10467 0
-10465 10467 0
-10456 -10465 10468 0
-10466 10468 0
-10456 -10466 0
-10457 10469 0
-10467 10469 0
-10457 -10467 10470 0
-10468 10470 0
-10457 -10468 0
-10458 -10470 0
-10473 44 45 46 0
-44 10473 0
-45 10473 0
-46 10473 0
-10474 93 94 95 0
-93 10474 0
-94 10474 0
-95 10474 0
-10475 142 143 144 0
-142 10475 0
-143 10475 0
-144 10475 0
-10476 191 192 193 0
-191 10476 0
-192 10476 0
-193 10476 0
-10477 240 241 242 0
-240 10477 0
-241 10477 0
-242 10477 0
-10478 289 290 291 0
-289 10478 0
-290 10478 0
-291 10478 0
-10479 338 339 340 0
-338 10479 0
-339 10479 0
-340 10479 0
-10473 10480 0
-10481 0
-10482 0
-10474 10483 0
-10480 10483 0
-10474 -10480 10484 0
-10481 10484 0
-10474 -10481 10485 0
-10482 10485 0
-10474 -10482 0
-10475 10486 0
-10483 10486 0
-10475 -10483 10487 0
-10484 10487 0
-10475 -10484 10488 0
-10485 10488 0
-10475 -10485 0
-10476 10489 0
-10486 10489 0
-10476 -10486 10490 0
-10487 10490 0
-10476 -10487 10491 0
-10488 10491 0
-10476 -10488 0
-10477 10492 0
-10489 10492 0
-10477 -10489 10493 0
-10490 10493 0
-10477 -10490 10494 0
-10491 10494 0
-10477 -10491 0
-10478 10495 0
-10492 10495 0
-10478 -10492 10496 0
-10493 10496 0
-10478 -10493 10497 0
-10494 10497 0
-10478 -10494 0
-10479 -10497 0
-10501 44 45 46 47 0
-44 10501 0
-45 10501 0
-46 10501 0
-47 10501 0
-10502 93 94 95 96 0
-93 10502 0
-94 10502 0
-95 10502 0
-96 10502 0
-10503 142 143 144 145 0
-142 10503 0
-143 10503 0
-144 10503 0
-145 10503 0
-10504 191 192 193 194 0
-191 10504 0
-192 10504 0
-193 10504 0
-194 10504 0
-10505 240 241 242 243 0
-240 10505 0
-241 10505 0
-242 10505 0
-243 10505 0
-10506 289 290 291 292 0
-289 10506 0
-290 10506 0
-291 10506 0
-292 10506 0
-10507 338 339 340 341 0
-338 10507 0
-339 10507 0
-340 10507 0
-341 10507 0
-10501 10508 0
-10509 0
-10510 0
-10511 0
-10502 10512 0
-10508 10512 0
-10502 -10508 10513 0
-10509 10513 0
-10502 -10509 10514 0
-10510 10514 0
-10502 -10510 10515 0
-10511 10515 0
-10502 -10511 0
-10503 10516 0
-10512 10516 0
-10503 -10512 10517 0
-10513 10517 0
-10503 -10513 10518 0
-10514 10518 0
-10503 -10514 10519 0
-10515 10519 0
-10503 -10515 0
-10504 10520 0
-10516 10520 0
-10504 -10516 10521 0
-10517 10521 0
-10504 -10517 10522 0
-10518 10522 0
-10504 -10518 10523 0
-10519 10523 0
-10504 -10519 0
-10505 10524 0
-10520 10524 0
-10505 -10520 10525 0
-10521 10525 0
-10505 -10521 10526 0
-10522 10526 0
-10505 -10522 10527 0
-10523 10527 0
-10505 -10523 0
-10506 10528 0
-10524 10528 0
-10506 -10524 10529 0
-10525 10529 0
-10506 -10525 10530 0
-10526 10530 0
-10506 -10526 10531 0
-10527 10531 0
-10506 -10527 0
-10507 -10531 0
-10536 44 45 46 47 48 0
-44 10536 0
-45 10536 0
-46 10536 0
-47 10536 0
-48 10536 0
-10537 93 94 95 96 97 0
-93 10537 0
-94 10537 0
-95 10537 0
-96 10537 0
-97 10537 0
-10538 142 143 144 145 146 0
-142 10538 0
-143 10538 0
-144 10538 0
-145 10538 0
-146 10538 0
-10539 191 192 193 194 195 0
-191 10539 0
-192 10539 0
-193 10539 0
-194 10539 0
-195 10539 0
-10540 240 241 242 243 244 0
-240 10540 0
-241 10540 0
-242 10540 0
-243 10540 0
-244 10540 0
-10541 289 290 291 292 293 0
-289 10541 0
-290 10541 0
-291 10541 0
-292 10541 0
-293 10541 0
-10542 338 339 340 341 342 0
-338 10542 0
-339 10542 0
-340 10542 0
-341 10542 0
-342 10542 0
-10536 10543 0
-10544 0
-10545 0
-10546 0
-10547 0
-10537 10548 0
-10543 10548 0
-10537 -10543 10549 0
-10544 10549 0
-10537 -10544 10550 0
-10545 10550 0
-10537 -10545 10551 0
-10546 10551 0
-10537 -10546 10552 0
-10547 10552 0
-10537 -10547 0
-10538 10553 0
-10548 10553 0
-10538 -10548 10554 0
-10549 10554 0
-10538 -10549 10555 0
-10550 10555 0
-10538 -10550 10556 0
-10551 10556 0
-10538 -10551 10557 0
-10552 10557 0
-10538 -10552 0
-10539 10558 0
-10553 10558 0
-10539 -10553 10559 0
-10554 10559 0
-10539 -10554 10560 0
-10555 10560 0
-10539 -10555 10561 0
-10556 10561 0
-10539 -10556 10562 0
-10557 10562 0
-10539 -10557 0
-10540 10563 0
-10558 10563 0
-10540 -10558 10564 0
-10559 10564 0
-10540 -10559 10565 0
-10560 10565 0
-10540 -10560 10566 0
-10561 10566 0
-10540 -10561 10567 0
-10562 10567 0
-10540 -10562 0
-10541 10568 0
-10563 10568 0
-10541 -10563 10569 0
-10564 10569 0
-10541 -10564 10570 0
-10565 10570 0
-10541 -10565 10571 0
-10566 10571 0
-10541 -10566 10572 0
-10567 10572 0
-10541 -10567 0
-10542 -10572 0
-10578 44 45 46 47 48 49 0
-44 10578 0
-45 10578 0
-46 10578 0
-47 10578 0
-48 10578 0
-49 10578 0
-10579 93 94 95 96 97 98 0
-93 10579 0
-94 10579 0
-95 10579 0
-96 10579 0
-97 10579 0
-98 10579 0
-10580 142 143 144 145 146 147 0
-142 10580 0
-143 10580 0
-144 10580 0
-145 10580 0
-146 10580 0
-147 10580 0
-10581 191 192 193 194 195 196 0
-191 10581 0
-192 10581 0
-193 10581 0
-194 10581 0
-195 10581 0
-196 10581 0
-10582 240 241 242 243 244 245 0
-240 10582 0
-241 10582 0
-242 10582 0
-243 10582 0
-244 10582 0
-245 10582 0
-10583 289 290 291 292 293 294 0
-289 10583 0
-290 10583 0
-291 10583 0
-292 10583 0
-293 10583 0
-294 10583 0
-10584 338 339 340 341 342 343 0
-338 10584 0
-339 10584 0
-340 10584 0
-341 10584 0
-342 10584 0
-343 10584 0
-10578 10585 0
-10586 0
-10587 0
-10588 0
-10589 0
-10590 0
-10579 10591 0
-10585 10591 0
-10579 -10585 10592 0
-10586 10592 0
-10579 -10586 10593 0
-10587 10593 0
-10579 -10587 10594 0
-10588 10594 0
-10579 -10588 10595 0
-10589 10595 0
-10579 -10589 10596 0
-10590 10596 0
-10579 -10590 0
-10580 10597 0
-10591 10597 0
-10580 -10591 10598 0
-10592 10598 0
-10580 -10592 10599 0
-10593 10599 0
-10580 -10593 10600 0
-10594 10600 0
-10580 -10594 10601 0
-10595 10601 0
-10580 -10595 10602 0
-10596 10602 0
-10580 -10596 0
-10581 10603 0
-10597 10603 0
-10581 -10597 10604 0
-10598 10604 0
-10581 -10598 10605 0
-10599 10605 0
-10581 -10599 10606 0
-10600 10606 0
-10581 -10600 10607 0
-10601 10607 0
-10581 -10601 10608 0
-10602 10608 0
-10581 -10602 0
-10582 10609 0
-10603 10609 0
-10582 -10603 10610 0
-10604 10610 0
-10582 -10604 10611 0
-10605 10611 0
-10582 -10605 10612 0
-10606 10612 0
-10582 -10606 10613 0
-10607 10613 0
-10582 -10607 10614 0
-10608 10614 0
-10582 -10608 0
-10583 10615 0
-10609 10615 0
-10583 -10609 10616 0
-10610 10616 0
-10583 -10610 10617 0
-10611 10617 0
-10583 -10611 10618 0
-10612 10618 0
-10583 -10612 10619 0
-10613 10619 0
-10583 -10613 10620 0
-10614 10620 0
-10583 -10614 0
-10584 -10620 0
-10627 45 0
-45 10627 0
-10628 94 0
-94 10628 0
-10629 143 0
-143 10629 0
-10630 192 0
-192 10630 0
-10631 241 0
-241 10631 0
-10632 290 0
-290 10632 0
-10633 339 0
-339 10633 0
-10627 10634 0
-10628 10635 0
-10634 10635 0
-10628 -10634 0
-10629 10636 0
-10635 10636 0
-10629 -10635 0
-10630 10637 0
-10636 10637 0
-10630 -10636 0
-10631 10638 0
-10637 10638 0
-10631 -10637 0
-10632 10639 0
-10638 10639 0
-10632 -10638 0
-10633 -10639 0
-10641 45 46 0
-45 10641 0
-46 10641 0
-10642 94 95 0
-94 10642 0
-95 10642 0
-10643 143 144 0
-143 10643 0
-144 10643 0
-10644 192 193 0
-192 10644 0
-193 10644 0
-10645 241 242 0
-241 10645 0
-242 10645 0
-10646 290 291 0
-290 10646 0
-291 10646 0
-10647 339 340 0
-339 10647 0
-340 10647 0
-10641 10648 0
-10649 0
-10642 10650 0
-10648 10650 0
-10642 -10648 10651 0
-10649 10651 0
-10642 -10649 0
-10643 10652 0
-10650 10652 0
-10643 -10650 10653 0
-10651 10653 0
-10643 -10651 0
-10644 10654 0
-10652 10654 0
-10644 -10652 10655 0
-10653 10655 0
-10644 -10653 0
-10645 10656 0
-10654 10656 0
-10645 -10654 10657 0
-10655 10657 0
-10645 -10655 0
-10646 10658 0
-10656 10658 0
-10646 -10656 10659 0
-10657 10659 0
-10646 -10657 0
-10647 -10659 0
-10662 45 46 47 0
-45 10662 0
-46 10662 0
-47 10662 0
-10663 94 95 96 0
-94 10663 0
-95 10663 0
-96 10663 0
-10664 143 144 145 0
-143 10664 0
-144 10664 0
-145 10664 0
-10665 192 193 194 0
-192 10665 0
-193 10665 0
-194 10665 0
-10666 241 242 243 0
-241 10666 0
-242 10666 0
-243 10666 0
-10667 290 291 292 0
-290 10667 0
-291 10667 0
-292 10667 0
-10668 339 340 341 0
-339 10668 0
-340 10668 0
-341 10668 0
-10662 10669 0
-10670 0
-10671 0
-10663 10672 0
-10669 10672 0
-10663 -10669 10673 0
-10670 10673 0
-10663 -10670 10674 0
-10671 10674 0
-10663 -10671 0
-10664 10675 0
-10672 10675 0
-10664 -10672 10676 0
-10673 10676 0
-10664 -10673 10677 0
-10674 10677 0
-10664 -10674 0
-10665 10678 0
-10675 10678 0
-10665 -10675 10679 0
-10676 10679 0
-10665 -10676 10680 0
-10677 10680 0
-10665 -10677 0
-10666 10681 0
-10678 10681 0
-10666 -10678 10682 0
-10679 10682 0
-10666 -10679 10683 0
-10680 10683 0
-10666 -10680 0
-10667 10684 0
-10681 10684 0
-10667 -10681 10685 0
-10682 10685 0
-10667 -10682 10686 0
-10683 10686 0
-10667 -10683 0
-10668 -10686 0
-10690 45 46 47 48 0
-45 10690 0
-46 10690 0
-47 10690 0
-48 10690 0
-10691 94 95 96 97 0
-94 10691 0
-95 10691 0
-96 10691 0
-97 10691 0
-10692 143 144 145 146 0
-143 10692 0
-144 10692 0
-145 10692 0
-146 10692 0
-10693 192 193 194 195 0
-192 10693 0
-193 10693 0
-194 10693 0
-195 10693 0
-10694 241 242 243 244 0
-241 10694 0
-242 10694 0
-243 10694 0
-244 10694 0
-10695 290 291 292 293 0
-290 10695 0
-291 10695 0
-292 10695 0
-293 10695 0
-10696 339 340 341 342 0
-339 10696 0
-340 10696 0
-341 10696 0
-342 10696 0
-10690 10697 0
-10698 0
-10699 0
-10700 0
-10691 10701 0
-10697 10701 0
-10691 -10697 10702 0
-10698 10702 0
-10691 -10698 10703 0
-10699 10703 0
-10691 -10699 10704 0
-10700 10704 0
-10691 -10700 0
-10692 10705 0
-10701 10705 0
-10692 -10701 10706 0
-10702 10706 0
-10692 -10702 10707 0
-10703 10707 0
-10692 -10703 10708 0
-10704 10708 0
-10692 -10704 0
-10693 10709 0
-10705 10709 0
-10693 -10705 10710 0
-10706 10710 0
-10693 -10706 10711 0
-10707 10711 0
-10693 -10707 10712 0
-10708 10712 0
-10693 -10708 0
-10694 10713 0
-10709 10713 0
-10694 -10709 10714 0
-10710 10714 0
-10694 -10710 10715 0
-10711 10715 0
-10694 -10711 10716 0
-10712 10716 0
-10694 -10712 0
-10695 10717 0
-10713 10717 0
-10695 -10713 10718 0
-10714 10718 0
-10695 -10714 10719 0
-10715 10719 0
-10695 -10715 10720 0
-10716 10720 0
-10695 -10716 0
-10696 -10720 0
-10725 45 46 47 48 49 0
-45 10725 0
-46 10725 0
-47 10725 0
-48 10725 0
-49 10725 0
-10726 94 95 96 97 98 0
-94 10726 0
-95 10726 0
-96 10726 0
-97 10726 0
-98 10726 0
-10727 143 144 145 146 147 0
-143 10727 0
-144 10727 0
-145 10727 0
-146 10727 0
-147 10727 0
-10728 192 193 194 195 196 0
-192 10728 0
-193 10728 0
-194 10728 0
-195 10728 0
-196 10728 0
-10729 241 242 243 244 245 0
-241 10729 0
-242 10729 0
-243 10729 0
-244 10729 0
-245 10729 0
-10730 290 291 292 293 294 0
-290 10730 0
-291 10730 0
-292 10730 0
-293 10730 0
-294 10730 0
-10731 339 340 341 342 343 0
-339 10731 0
-340 10731 0
-341 10731 0
-342 10731 0
-343 10731 0
-10725 10732 0
-10733 0
-10734 0
-10735 0
-10736 0
-10726 10737 0
-10732 10737 0
-10726 -10732 10738 0
-10733 10738 0
-10726 -10733 10739 0
-10734 10739 0
-10726 -10734 10740 0
-10735 10740 0
-10726 -10735 10741 0
-10736 10741 0
-10726 -10736 0
-10727 10742 0
-10737 10742 0
-10727 -10737 10743 0
-10738 10743 0
-10727 -10738 10744 0
-10739 10744 0
-10727 -10739 10745 0
-10740 10745 0
-10727 -10740 10746 0
-10741 10746 0
-10727 -10741 0
-10728 10747 0
-10742 10747 0
-10728 -10742 10748 0
-10743 10748 0
-10728 -10743 10749 0
-10744 10749 0
-10728 -10744 10750 0
-10745 10750 0
-10728 -10745 10751 0
-10746 10751 0
-10728 -10746 0
-10729 10752 0
-10747 10752 0
-10729 -10747 10753 0
-10748 10753 0
-10729 -10748 10754 0
-10749 10754 0
-10729 -10749 10755 0
-10750 10755 0
-10729 -10750 10756 0
-10751 10756 0
-10729 -10751 0
-10730 10757 0
-10752 10757 0
-10730 -10752 10758 0
-10753 10758 0
-10730 -10753 10759 0
-10754 10759 0
-10730 -10754 10760 0
-10755 10760 0
-10730 -10755 10761 0
-10756 10761 0
-10730 -10756 0
-10731 -10761 0
-10767 46 0
-46 10767 0
-10768 95 0
-95 10768 0
-10769 144 0
-144 10769 0
-10770 193 0
-193 10770 0
-10771 242 0
-242 10771 0
-10772 291 0
-291 10772 0
-10773 340 0
-340 10773 0
-10767 10774 0
-10768 10775 0
-10774 10775 0
-10768 -10774 0
-10769 10776 0
-10775 10776 0
-10769 -10775 0
-10770 10777 0
-10776 10777 0
-10770 -10776 0
-10771 10778 0
-10777 10778 0
-10771 -10777 0
-10772 10779 0
-10778 10779 0
-10772 -10778 0
-10773 -10779 0
-10781 46 47 0
-46 10781 0
-47 10781 0
-10782 95 96 0
-95 10782 0
-96 10782 0
-10783 144 145 0
-144 10783 0
-145 10783 0
-10784 193 194 0
-193 10784 0
-194 10784 0
-10785 242 243 0
-242 10785 0
-243 10785 0
-10786 291 292 0
-291 10786 0
-292 10786 0
-10787 340 341 0
-340 10787 0
-341 10787 0
-10781 10788 0
-10789 0
-10782 10790 0
-10788 10790 0
-10782 -10788 10791 0
-10789 10791 0
-10782 -10789 0
-10783 10792 0
-10790 10792 0
-10783 -10790 10793 0
-10791 10793 0
-10783 -10791 0
-10784 10794 0
-10792 10794 0
-10784 -10792 10795 0
-10793 10795 0
-10784 -10793 0
-10785 10796 0
-10794 10796 0
-10785 -10794 10797 0
-10795 10797 0
-10785 -10795 0
-10786 10798 0
-10796 10798 0
-10786 -10796 10799 0
-10797 10799 0
-10786 -10797 0
-10787 -10799 0
-10802 46 47 48 0
-46 10802 0
-47 10802 0
-48 10802 0
-10803 95 96 97 0
-95 10803 0
-96 10803 0
-97 10803 0
-10804 144 145 146 0
-144 10804 0
-145 10804 0
-146 10804 0
-10805 193 194 195 0
-193 10805 0
-194 10805 0
-195 10805 0
-10806 242 243 244 0
-242 10806 0
-243 10806 0
-244 10806 0
-10807 291 292 293 0
-291 10807 0
-292 10807 0
-293 10807 0
-10808 340 341 342 0
-340 10808 0
-341 10808 0
-342 10808 0
-10802 10809 0
-10810 0
-10811 0
-10803 10812 0
-10809 10812 0
-10803 -10809 10813 0
-10810 10813 0
-10803 -10810 10814 0
-10811 10814 0
-10803 -10811 0
-10804 10815 0
-10812 10815 0
-10804 -10812 10816 0
-10813 10816 0
-10804 -10813 10817 0
-10814 10817 0
-10804 -10814 0
-10805 10818 0
-10815 10818 0
-10805 -10815 10819 0
-10816 10819 0
-10805 -10816 10820 0
-10817 10820 0
-10805 -10817 0
-10806 10821 0
-10818 10821 0
-10806 -10818 10822 0
-10819 10822 0
-10806 -10819 10823 0
-10820 10823 0
-10806 -10820 0
-10807 10824 0
-10821 10824 0
-10807 -10821 10825 0
-10822 10825 0
-10807 -10822 10826 0
-10823 10826 0
-10807 -10823 0
-10808 -10826 0
-10830 46 47 48 49 0
-46 10830 0
-47 10830 0
-48 10830 0
-49 10830 0
-10831 95 96 97 98 0
-95 10831 0
-96 10831 0
-97 10831 0
-98 10831 0
-10832 144 145 146 147 0
-144 10832 0
-145 10832 0
-146 10832 0
-147 10832 0
-10833 193 194 195 196 0
-193 10833 0
-194 10833 0
-195 10833 0
-196 10833 0
-10834 242 243 244 245 0
-242 10834 0
-243 10834 0
-244 10834 0
-245 10834 0
-10835 291 292 293 294 0
-291 10835 0
-292 10835 0
-293 10835 0
-294 10835 0
-10836 340 341 342 343 0
-340 10836 0
-341 10836 0
-342 10836 0
-343 10836 0
-10830 10837 0
-10838 0
-10839 0
-10840 0
-10831 10841 0
-10837 10841 0
-10831 -10837 10842 0
-10838 10842 0
-10831 -10838 10843 0
-10839 10843 0
-10831 -10839 10844 0
-10840 10844 0
-10831 -10840 0
-10832 10845 0
-10841 10845 0
-10832 -10841 10846 0
-10842 10846 0
-10832 -10842 10847 0
-10843 10847 0
-10832 -10843 10848 0
-10844 10848 0
-10832 -10844 0
-10833 10849 0
-10845 10849 0
-10833 -10845 10850 0
-10846 10850 0
-10833 -10846 10851 0
-10847 10851 0
-10833 -10847 10852 0
-10848 10852 0
-10833 -10848 0
-10834 10853 0
-10849 10853 0
-10834 -10849 10854 0
-10850 10854 0
-10834 -10850 10855 0
-10851 10855 0
-10834 -10851 10856 0
-10852 10856 0
-10834 -10852 0
-10835 10857 0
-10853 10857 0
-10835 -10853 10858 0
-10854 10858 0
-10835 -10854 10859 0
-10855 10859 0
-10835 -10855 10860 0
-10856 10860 0
-10835 -10856 0
-10836 -10860 0
-10865 47 0
-47 10865 0
-10866 96 0
-96 10866 0
-10867 145 0
-145 10867 0
-10868 194 0
-194 10868 0
-10869 243 0
-243 10869 0
-10870 292 0
-292 10870 0
-10871 341 0
-341 10871 0
-10865 10872 0
-10866 10873 0
-10872 10873 0
-10866 -10872 0
-10867 10874 0
-10873 10874 0
-10867 -10873 0
-10868 10875 0
-10874 10875 0
-10868 -10874 0
-10869 10876 0
-10875 10876 0
-10869 -10875 0
-10870 10877 0
-10876 10877 0
-10870 -10876 0
-10871 -10877 0
-10879 47 48 0
-47 10879 0
-48 10879 0
-10880 96 97 0
-96 10880 0
-97 10880 0
-10881 145 146 0
-145 10881 0
-146 10881 0
-10882 194 195 0
-194 10882 0
-195 10882 0
-10883 243 244 0
-243 10883 0
-244 10883 0
-10884 292 293 0
-292 10884 0
-293 10884 0
-10885 341 342 0
-341 10885 0
-342 10885 0
-10879 10886 0
-10887 0
-10880 10888 0
-10886 10888 0
-10880 -10886 10889 0
-10887 10889 0
-10880 -10887 0
-10881 10890 0
-10888 10890 0
-10881 -10888 10891 0
-10889 10891 0
-10881 -10889 0
-10882 10892 0
-10890 10892 0
-10882 -10890 10893 0
-10891 10893 0
-10882 -10891 0
-10883 10894 0
-10892 10894 0
-10883 -10892 10895 0
-10893 10895 0
-10883 -10893 0
-10884 10896 0
-10894 10896 0
-10884 -10894 10897 0
-10895 10897 0
-10884 -10895 0
-10885 -10897 0
-10900 47 48 49 0
-47 10900 0
-48 10900 0
-49 10900 0
-10901 96 97 98 0
-96 10901 0
-97 10901 0
-98 10901 0
-10902 145 146 147 0
-145 10902 0
-146 10902 0
-147 10902 0
-10903 194 195 196 0
-194 10903 0
-195 10903 0
-196 10903 0
-10904 243 244 245 0
-243 10904 0
-244 10904 0
-245 10904 0
-10905 292 293 294 0
-292 10905 0
-293 10905 0
-294 10905 0
-10906 341 342 343 0
-341 10906 0
-342 10906 0
-343 10906 0
-10900 10907 0
-10908 0
-10909 0
-10901 10910 0
-10907 10910 0
-10901 -10907 10911 0
-10908 10911 0
-10901 -10908 10912 0
-10909 10912 0
-10901 -10909 0
-10902 10913 0
-10910 10913 0
-10902 -10910 10914 0
-10911 10914 0
-10902 -10911 10915 0
-10912 10915 0
-10902 -10912 0
-10903 10916 0
-10913 10916 0
-10903 -10913 10917 0
-10914 10917 0
-10903 -10914 10918 0
-10915 10918 0
-10903 -10915 0
-10904 10919 0
-10916 10919 0
-10904 -10916 10920 0
-10917 10920 0
-10904 -10917 10921 0
-10918 10921 0
-10904 -10918 0
-10905 10922 0
-10919 10922 0
-10905 -10919 10923 0
-10920 10923 0
-10905 -10920 10924 0
-10921 10924 0
-10905 -10921 0
-10906 -10924 0
-10928 48 0
-48 10928 0
-10929 97 0
-97 10929 0
-10930 146 0
-146 10930 0
-10931 195 0
-195 10931 0
-10932 244 0
-244 10932 0
-10933 293 0
-293 10933 0
-10934 342 0
-342 10934 0
-10928 10935 0
-10929 10936 0
-10935 10936 0
-10929 -10935 0
-10930 10937 0
-10936 10937 0
-10930 -10936 0
-10931 10938 0
-10937 10938 0
-10931 -10937 0
-10932 10939 0
-10938 10939 0
-10932 -10938 0
-10933 10940 0
-10939 10940 0
-10933 -10939 0
-10934 -10940 0
-10942 48 49 0
-48 10942 0
-49 10942 0
-10943 97 98 0
-97 10943 0
-98 10943 0
-10944 146 147 0
-146 10944 0
-147 10944 0
-10945 195 196 0
-195 10945 0
-196 10945 0
-10946 244 245 0
-244 10946 0
-245 10946 0
-10947 293 294 0
-293 10947 0
-294 10947 0
-10948 342 343 0
-342 10948 0
-343 10948 0
-10942 10949 0
-10950 0
-10943 10951 0
-10949 10951 0
-10943 -10949 10952 0
-10950 10952 0
-10943 -10950 0
-10944 10953 0
-10951 10953 0
-10944 -10951 10954 0
-10952 10954 0
-10944 -10952 0
-10945 10955 0
-10953 10955 0
-10945 -10953 10956 0
-10954 10956 0
-10945 -10954 0
-10946 10957 0
-10955 10957 0
-10946 -10955 10958 0
-10956 10958 0
-10946 -10956 0
-10947 10959 0
-10957 10959 0
-10947 -10957 10960 0
-10958 10960 0
-10947 -10958 0
-10948 -10960 0
-10963 49 0
-49 10963 0
-10964 98 0
-98 10964 0
-10965 147 0
-147 10965 0
-10966 196 0
-196 10966 0
-10967 245 0
-245 10967 0
-10968 294 0
-294 10968 0
-10969 343 0
-343 10969 0
-10963 10970 0
-10964 10971 0
-10970 10971 0
-10964 -10970 0
-10965 10972 0
-10971 10972 0
-10965 -10971 0
-10966 10973 0
-10972 10973 0
-10966 -10972 0
-10967 10974 0
-10973 10974 0
-10967 -10973 0
-10968 10975 0
-10974 10975 0
-10968 -10974 0
-10969 -10975 0
-10977 36 0
-36 10977 0
-10978 92 0
-92 10978 0
-10977 10979 0
-10978 -10979 0
-10981 36 37 0
-36 10981 0
-37 10981 0
-10982 92 93 0
-92 10982 0
-93 10982 0
-10983 37 0
-37 10983 0
-10984 93 0
-93 10984 0
-10983 10985 0
-10984 -10985 0
-10987 37 38 0
-37 10987 0
-38 10987 0
-10988 93 94 0
-93 10988 0
-94 10988 0
-10989 38 0
-38 10989 0
-10990 94 0
-94 10990 0
-10989 10991 0
-10990 -10991 0
-10993 38 39 0
-38 10993 0
-39 10993 0
-10994 94 95 0
-94 10994 0
-95 10994 0
-10995 39 0
-39 10995 0
-10996 95 0
-95 10996 0
-10995 10997 0
-10996 -10997 0
-10999 39 40 0
-39 10999 0
-40 10999 0
-11000 95 96 0
-95 11000 0
-96 11000 0
-11001 40 0
-40 11001 0
-11002 96 0
-96 11002 0
-11001 11003 0
-11002 -11003 0
-11005 40 41 0
-40 11005 0
-41 11005 0
-11006 96 97 0
-96 11006 0
-97 11006 0
-11007 41 0
-41 11007 0
-11008 97 0
-97 11008 0
-11007 11009 0
-11008 -11009 0
-11011 41 42 0
-41 11011 0
-42 11011 0
-11012 97 98 0
-97 11012 0
-98 11012 0
-11013 42 0
-42 11013 0
-11014 98 0
-98 11014 0
-11013 11015 0
-11014 -11015 0
-11017 29 0
-29 11017 0
-11018 85 0
-85 11018 0
-11019 141 0
-141 11019 0
-11017 11020 0
-11018 11021 0
-11020 11021 0
-11018 -11020 0
-11019 -11021 0
-11023 29 30 0
-29 11023 0
-30 11023 0
-11024 85 86 0
-85 11024 0
-86 11024 0
-11025 141 142 0
-141 11025 0
-142 11025 0
-11023 11026 0
-11027 0
-11024 11028 0
-11026 11028 0
-11024 -11026 11029 0
-11027 11029 0
-11024 -11027 0
-11025 -11029 0
-11032 29 30 31 0
-29 11032 0
-30 11032 0
-31 11032 0
-11033 85 86 87 0
-85 11033 0
-86 11033 0
-87 11033 0
-11034 141 142 143 0
-141 11034 0
-142 11034 0
-143 11034 0
-11035 30 0
-30 11035 0
-11036 86 0
-86 11036 0
-11037 142 0
-142 11037 0
-11035 11038 0
-11036 11039 0
-11038 11039 0
-11036 -11038 0
-11037 -11039 0
-11041 30 31 0
-30 11041 0
-31 11041 0
-11042 86 87 0
-86 11042 0
-87 11042 0
-11043 142 143 0
-142 11043 0
-143 11043 0
-11041 11044 0
-11045 0
-11042 11046 0
-11044 11046 0
-11042 -11044 11047 0
-11045 11047 0
-11042 -11045 0
-11043 -11047 0
-11050 30 31 32 0
-30 11050 0
-31 11050 0
-32 11050 0
-11051 86 87 88 0
-86 11051 0
-87 11051 0
-88 11051 0
-11052 142 143 144 0
-142 11052 0
-143 11052 0
-144 11052 0
-11053 31 0
-31 11053 0
-11054 87 0
-87 11054 0
-11055 143 0
-143 11055 0
-11053 11056 0
-11054 11057 0
-11056 11057 0
-11054 -11056 0
-11055 -11057 0
-11059 31 32 0
-31 11059 0
-32 11059 0
-11060 87 88 0
-87 11060 0
-88 11060 0
-11061 143 144 0
-143 11061 0
-144 11061 0
-11059 11062 0
-11063 0
-11060 11064 0
-11062 11064 0
-11060 -11062 11065 0
-11063 11065 0
-11060 -11063 0
-11061 -11065 0
-11068 31 32 33 0
-31 11068 0
-32 11068 0
-33 11068 0
-11069 87 88 89 0
-87 11069 0
-88 11069 0
-89 11069 0
-11070 143 144 145 0
-143 11070 0
-144 11070 0
-145 11070 0
-11071 32 0
-32 11071 0
-11072 88 0
-88 11072 0
-11073 144 0
-144 11073 0
-11071 11074 0
-11072 11075 0
-11074 11075 0
-11072 -11074 0
-11073 -11075 0
-11077 32 33 0
-32 11077 0
-33 11077 0
-11078 88 89 0
-88 11078 0
-89 11078 0
-11079 144 145 0
-144 11079 0
-145 11079 0
-11077 11080 0
-11081 0
-11078 11082 0
-11080 11082 0
-11078 -11080 11083 0
-11081 11083 0
-11078 -11081 0
-11079 -11083 0
-11086 32 33 34 0
-32 11086 0
-33 11086 0
-34 11086 0
-11087 88 89 90 0
-88 11087 0
-89 11087 0
-90 11087 0
-11088 144 145 146 0
-144 11088 0
-145 11088 0
-146 11088 0
-11089 33 0
-33 11089 0
-11090 89 0
-89 11090 0
-11091 145 0
-145 11091 0
-11089 11092 0
-11090 11093 0
-11092 11093 0
-11090 -11092 0
-11091 -11093 0
-11095 33 34 0
-33 11095 0
-34 11095 0
-11096 89 90 0
-89 11096 0
-90 11096 0
-11097 145 146 0
-145 11097 0
-146 11097 0
-11095 11098 0
-11099 0
-11096 11100 0
-11098 11100 0
-11096 -11098 11101 0
-11099 11101 0
-11096 -11099 0
-11097 -11101 0
-11104 33 34 35 0
-33 11104 0
-34 11104 0
-35 11104 0
-11105 89 90 91 0
-89 11105 0
-90 11105 0
-91 11105 0
-11106 145 146 147 0
-145 11106 0
-146 11106 0
-147 11106 0
-11107 34 0
-34 11107 0
-11108 90 0
-90 11108 0
-11109 146 0
-146 11109 0
-11107 11110 0
-11108 11111 0
-11110 11111 0
-11108 -11110 0
-11109 -11111 0
-11113 34 35 0
-34 11113 0
-35 11113 0
-11114 90 91 0
-90 11114 0
-91 11114 0
-11115 146 147 0
-146 11115 0
-147 11115 0
-11113 11116 0
-11117 0
-11114 11118 0
-11116 11118 0
-11114 -11116 11119 0
-11117 11119 0
-11114 -11117 0
-11115 -11119 0
-11122 35 0
-35 11122 0
-11123 91 0
-91 11123 0
-11124 147 0
-147 11124 0
-11122 11125 0
-11123 11126 0
-11125 11126 0
-11123 -11125 0
-11124 -11126 0
-11128 22 0
-22 11128 0
-11129 78 0
-78 11129 0
-11130 134 0
-134 11130 0
-11131 190 0
-190 11131 0
-11128 11132 0
-11129 11133 0
-11132 11133 0
-11129 -11132 0
-11130 11134 0
-11133 11134 0
-11130 -11133 0
-11131 -11134 0
-11136 22 23 0
-22 11136 0
-23 11136 0
-11137 78 79 0
-78 11137 0
-79 11137 0
-11138 134 135 0
-134 11138 0
-135 11138 0
-11139 190 191 0
-190 11139 0
-191 11139 0
-11136 11140 0
-11141 0
-11137 11142 0
-11140 11142 0
-11137 -11140 11143 0
-11141 11143 0
-11137 -11141 0
-11138 11144 0
-11142 11144 0
-11138 -11142 11145 0
-11143 11145 0
-11138 -11143 0
-11139 -11145 0
-11148 22 23 24 0
-22 11148 0
-23 11148 0
-24 11148 0
-11149 78 79 80 0
-78 11149 0
-79 11149 0
-80 11149 0
-11150 134 135 136 0
-134 11150 0
-135 11150 0
-136 11150 0
-11151 190 191 192 0
-190 11151 0
-191 11151 0
-192 11151 0
-11148 11152 0
-11153 0
-11154 0
-11149 11155 0
-11152 11155 0
-11149 -11152 11156 0
-11153 11156 0
-11149 -11153 11157 0
-11154 11157 0
-11149 -11154 0
-11150 11158 0
-11155 11158 0
-11150 -11155 11159 0
-11156 11159 0
-11150 -11156 11160 0
-11157 11160 0
-11150 -11157 0
-11151 -11160 0
-11164 22 23 24 25 0
-22 11164 0
-23 11164 0
-24 11164 0
-25 11164 0
-11165 78 79 80 81 0
-78 11165 0
-79 11165 0
-80 11165 0
-81 11165 0
-11166 134 135 136 137 0
-134 11166 0
-135 11166 0
-136 11166 0
-137 11166 0
-11167 190 191 192 193 0
-190 11167 0
-191 11167 0
-192 11167 0
-193 11167 0
-11168 23 0
-23 11168 0
-11169 79 0
-79 11169 0
-11170 135 0
-135 11170 0
-11171 191 0
-191 11171 0
-11168 11172 0
-11169 11173 0
-11172 11173 0
-11169 -11172 0
-11170 11174 0
-11173 11174 0
-11170 -11173 0
-11171 -11174 0
-11176 23 24 0
-23 11176 0
-24 11176 0
-11177 79 80 0
-79 11177 0
-80 11177 0
-11178 135 136 0
-135 11178 0
-136 11178 0
-11179 191 192 0
-191 11179 0
-192 11179 0
-11176 11180 0
-11181 0
-11177 11182 0
-11180 11182 0
-11177 -11180 11183 0
-11181 11183 0
-11177 -11181 0
-11178 11184 0
-11182 11184 0
-11178 -11182 11185 0
-11183 11185 0
-11178 -11183 0
-11179 -11185 0
-11188 23 24 25 0
-23 11188 0
-24 11188 0
-25 11188 0
-11189 79 80 81 0
-79 11189 0
-80 11189 0
-81 11189 0
-11190 135 136 137 0
-135 11190 0
-136 11190 0
-137 11190 0
-11191 191 192 193 0
-191 11191 0
-192 11191 0
-193 11191 0
-11188 11192 0
-11193 0
-11194 0
-11189 11195 0
-11192 11195 0
-11189 -11192 11196 0
-11193 11196 0
-11189 -11193 11197 0
-11194 11197 0
-11189 -11194 0
-11190 11198 0
-11195 11198 0
-11190 -11195 11199 0
-11196 11199 0
-11190 -11196 11200 0
-11197 11200 0
-11190 -11197 0
-11191 -11200 0
-11204 23 24 25 26 0
-23 11204 0
-24 11204 0
-25 11204 0
-26 11204 0
-11205 79 80 81 82 0
-79 11205 0
-80 11205 0
-81 11205 0
-82 11205 0
-11206 135 136 137 138 0
-135 11206 0
-136 11206 0
-137 11206 0
-138 11206 0
-11207 191 192 193 194 0
-191 11207 0
-192 11207 0
-193 11207 0
-194 11207 0
-11208 24 0
-24 11208 0
-11209 80 0
-80 11209 0
-11210 136 0
-136 11210 0
-11211 192 0
-192 11211 0
-11208 11212 0
-11209 11213 0
-11212 11213 0
-11209 -11212 0
-11210 11214 0
-11213 11214 0
-11210 -11213 0
-11211 -11214 0
-11216 24 25 0
-24 11216 0
-25 11216 0
-11217 80 81 0
-80 11217 0
-81 11217 0
-11218 136 137 0
-136 11218 0
-137 11218 0
-11219 192 193 0
-192 11219 0
-193 11219 0
-11216 11220 0
-11221 0
-11217 11222 0
-11220 11222 0
-11217 -11220 11223 0
-11221 11223 0
-11217 -11221 0
-11218 11224 0
-11222 11224 0
-11218 -11222 11225 0
-11223 11225 0
-11218 -11223 0
-11219 -11225 0
-11228 24 25 26 0
-24 11228 0
-25 11228 0
-26 11228 0
-11229 80 81 82 0
-80 11229 0
-81 11229 0
-82 11229 0
-11230 136 137 138 0
-136 11230 0
-137 11230 0
-138 11230 0
-11231 192 193 194 0
-192 11231 0
-193 11231 0
-194 11231 0
-11228 11232 0
-11233 0
-11234 0
-11229 11235 0
-11232 11235 0
-11229 -11232 11236 0
-11233 11236 0
-11229 -11233 11237 0
-11234 11237 0
-11229 -11234 0
-11230 11238 0
-11235 11238 0
-11230 -11235 11239 0
-11236 11239 0
-11230 -11236 11240 0
-11237 11240 0
-11230 -11237 0
-11231 -11240 0
-11244 24 25 26 27 0
-24 11244 0
-25 11244 0
-26 11244 0
-27 11244 0
-11245 80 81 82 83 0
-80 11245 0
-81 11245 0
-82 11245 0
-83 11245 0
-11246 136 137 138 139 0
-136 11246 0
-137 11246 0
-138 11246 0
-139 11246 0
-11247 192 193 194 195 0
-192 11247 0
-193 11247 0
-194 11247 0
-195 11247 0
-11248 25 0
-25 11248 0
-11249 81 0
-81 11249 0
-11250 137 0
-137 11250 0
-11251 193 0
-193 11251 0
-11248 11252 0
-11249 11253 0
-11252 11253 0
-11249 -11252 0
-11250 11254 0
-11253 11254 0
-11250 -11253 0
-11251 -11254 0
-11256 25 26 0
-25 11256 0
-26 11256 0
-11257 81 82 0
-81 11257 0
-82 11257 0
-11258 137 138 0
-137 11258 0
-138 11258 0
-11259 193 194 0
-193 11259 0
-194 11259 0
-11256 11260 0
-11261 0
-11257 11262 0
-11260 11262 0
-11257 -11260 11263 0
-11261 11263 0
-11257 -11261 0
-11258 11264 0
-11262 11264 0
-11258 -11262 11265 0
-11263 11265 0
-11258 -11263 0
-11259 -11265 0
-11268 25 26 27 0
-25 11268 0
-26 11268 0
-27 11268 0
-11269 81 82 83 0
-81 11269 0
-82 11269 0
-83 11269 0
-11270 137 138 139 0
-137 11270 0
-138 11270 0
-139 11270 0
-11271 193 194 195 0
-193 11271 0
-194 11271 0
-195 11271 0
-11268 11272 0
-11273 0
-11274 0
-11269 11275 0
-11272 11275 0
-11269 -11272 11276 0
-11273 11276 0
-11269 -11273 11277 0
-11274 11277 0
-11269 -11274 0
-11270 11278 0
-11275 11278 0
-11270 -11275 11279 0
-11276 11279 0
-11270 -11276 11280 0
-11277 11280 0
-11270 -11277 0
-11271 -11280 0
-11284 25 26 27 28 0
-25 11284 0
-26 11284 0
-27 11284 0
-28 11284 0
-11285 81 82 83 84 0
-81 11285 0
-82 11285 0
-83 11285 0
-84 11285 0
-11286 137 138 139 140 0
-137 11286 0
-138 11286 0
-139 11286 0
-140 11286 0
-11287 193 194 195 196 0
-193 11287 0
-194 11287 0
-195 11287 0
-196 11287 0
-11288 26 0
-26 11288 0
-11289 82 0
-82 11289 0
-11290 138 0
-138 11290 0
-11291 194 0
-194 11291 0
-11288 11292 0
-11289 11293 0
-11292 11293 0
-11289 -11292 0
-11290 11294 0
-11293 11294 0
-11290 -11293 0
-11291 -11294 0
-11296 26 27 0
-26 11296 0
-27 11296 0
-11297 82 83 0
-82 11297 0
-83 11297 0
-11298 138 139 0
-138 11298 0
-139 11298 0
-11299 194 195 0
-194 11299 0
-195 11299 0
-11296 11300 0
-11301 0
-11297 11302 0
-11300 11302 0
-11297 -11300 11303 0
-11301 11303 0
-11297 -11301 0
-11298 11304 0
-11302 11304 0
-11298 -11302 11305 0
-11303 11305 0
-11298 -11303 0
-11299 -11305 0
-11308 26 27 28 0
-26 11308 0
-27 11308 0
-28 11308 0
-11309 82 83 84 0
-82 11309 0
-83 11309 0
-84 11309 0
-11310 138 139 140 0
-138 11310 0
-139 11310 0
-140 11310 0
-11311 194 195 196 0
-194 11311 0
-195 11311 0
-196 11311 0
-11308 11312 0
-11313 0
-11314 0
-11309 11315 0
-11312 11315 0
-11309 -11312 11316 0
-11313 11316 0
-11309 -11313 11317 0
-11314 11317 0
-11309 -11314 0
-11310 11318 0
-11315 11318 0
-11310 -11315 11319 0
-11316 11319 0
-11310 -11316 11320 0
-11317 11320 0
-11310 -11317 0
-11311 -11320 0
-11324 27 0
-27 11324 0
-11325 83 0
-83 11325 0
-11326 139 0
-139 11326 0
-11327 195 0
-195 11327 0
-11324 11328 0
-11325 11329 0
-11328 11329 0
-11325 -11328 0
-11326 11330 0
-11329 11330 0
-11326 -11329 0
-11327 -11330 0
-11332 27 28 0
-27 11332 0
-28 11332 0
-11333 83 84 0
-83 11333 0
-84 11333 0
-11334 139 140 0
-139 11334 0
-140 11334 0
-11335 195 196 0
-195 11335 0
-196 11335 0
-11332 11336 0
-11337 0
-11333 11338 0
-11336 11338 0
-11333 -11336 11339 0
-11337 11339 0
-11333 -11337 0
-11334 11340 0
-11338 11340 0
-11334 -11338 11341 0
-11339 11341 0
-11334 -11339 0
-11335 -11341 0
-11344 28 0
-28 11344 0
-11345 84 0
-84 11345 0
-11346 140 0
-140 11346 0
-11347 196 0
-196 11347 0
-11344 11348 0
-11345 11349 0
-11348 11349 0
-11345 -11348 0
-11346 11350 0
-11349 11350 0
-11346 -11349 0
-11347 -11350 0
-11352 15 0
-15 11352 0
-11353 71 0
-71 11353 0
-11354 127 0
-127 11354 0
-11355 183 0
-183 11355 0
-11356 239 0
-239 11356 0
-11352 11357 0
-11353 11358 0
-11357 11358 0
-11353 -11357 0
-11354 11359 0
-11358 11359 0
-11354 -11358 0
-11355 11360 0
-11359 11360 0
-11355 -11359 0
-11356 -11360 0
-11362 15 16 0
-15 11362 0
-16 11362 0
-11363 71 72 0
-71 11363 0
-72 11363 0
-11364 127 128 0
-127 11364 0
-128 11364 0
-11365 183 184 0
-183 11365 0
-184 11365 0
-11366 239 240 0
-239 11366 0
-240 11366 0
-11362 11367 0
-11368 0
-11363 11369 0
-11367 11369 0
-11363 -11367 11370 0
-11368 11370 0
-11363 -11368 0
-11364 11371 0
-11369 11371 0
-11364 -11369 11372 0
-11370 11372 0
-11364 -11370 0
-11365 11373 0
-11371 11373 0
-11365 -11371 11374 0
-11372 11374 0
-11365 -11372 0
-11366 -11374 0
-11377 15 16 17 0
-15 11377 0
-16 11377 0
-17 11377 0
-11378 71 72 73 0
-71 11378 0
-72 11378 0
-73 11378 0
-11379 127 128 129 0
-127 11379 0
-128 11379 0
-129 11379 0
-11380 183 184 185 0
-183 11380 0
-184 11380 0
-185 11380 0
-11381 239 240 241 0
-239 11381 0
-240 11381 0
-241 11381 0
-11377 11382 0
-11383 0
-11384 0
-11378 11385 0
-11382 11385 0
-11378 -11382 11386 0
-11383 11386 0
-11378 -11383 11387 0
-11384 11387 0
-11378 -11384 0
-11379 11388 0
-11385 11388 0
-11379 -11385 11389 0
-11386 11389 0
-11379 -11386 11390 0
-11387 11390 0
-11379 -11387 0
-11380 11391 0
-11388 11391 0
-11380 -11388 11392 0
-11389 11392 0
-11380 -11389 11393 0
-11390 11393 0
-11380 -11390 0
-11381 -11393 0
-11397 15 16 17 18 0
-15 11397 0
-16 11397 0
-17 11397 0
-18 11397 0
-11398 71 72 73 74 0
-71 11398 0
-72 11398 0
-73 11398 0
-74 11398 0
-11399 127 128 129 130 0
-127 11399 0
-128 11399 0
-129 11399 0
-130 11399 0
-11400 183 184 185 186 0
-183 11400 0
-184 11400 0
-185 11400 0
-186 11400 0
-11401 239 240 241 242 0
-239 11401 0
-240 11401 0
-241 11401 0
-242 11401 0
-11397 11402 0
-11403 0
-11404 0
-11405 0
-11398 11406 0
-11402 11406 0
-11398 -11402 11407 0
-11403 11407 0
-11398 -11403 11408 0
-11404 11408 0
-11398 -11404 11409 0
-11405 11409 0
-11398 -11405 0
-11399 11410 0
-11406 11410 0
-11399 -11406 11411 0
-11407 11411 0
-11399 -11407 11412 0
-11408 11412 0
-11399 -11408 11413 0
-11409 11413 0
-11399 -11409 0
-11400 11414 0
-11410 11414 0
-11400 -11410 11415 0
-11411 11415 0
-11400 -11411 11416 0
-11412 11416 0
-11400 -11412 11417 0
-11413 11417 0
-11400 -11413 0
-11401 -11417 0
-11422 15 16 17 18 19 0
-15 11422 0
-16 11422 0
-17 11422 0
-18 11422 0
-19 11422 0
-11423 71 72 73 74 75 0
-71 11423 0
-72 11423 0
-73 11423 0
-74 11423 0
-75 11423 0
-11424 127 128 129 130 131 0
-127 11424 0
-128 11424 0
-129 11424 0
-130 11424 0
-131 11424 0
-11425 183 184 185 186 187 0
-183 11425 0
-184 11425 0
-185 11425 0
-186 11425 0
-187 11425 0
-11426 239 240 241 242 243 0
-239 11426 0
-240 11426 0
-241 11426 0
-242 11426 0
-243 11426 0
-11427 16 0
-16 11427 0
-11428 72 0
-72 11428 0
-11429 128 0
-128 11429 0
-11430 184 0
-184 11430 0
-11431 240 0
-240 11431 0
-11427 11432 0
-11428 11433 0
-11432 11433 0
-11428 -11432 0
-11429 11434 0
-11433 11434 0
-11429 -11433 0
-11430 11435 0
-11434 11435 0
-11430 -11434 0
-11431 -11435 0
-11437 16 17 0
-16 11437 0
-17 11437 0
-11438 72 73 0
-72 11438 0
-73 11438 0
-11439 128 129 0
-128 11439 0
-129 11439 0
-11440 184 185 0
-184 11440 0
-185 11440 0
-11441 240 241 0
-240 11441 0
-241 11441 0
-11437 11442 0
-11443 0
-11438 11444 0
-11442 11444 0
-11438 -11442 11445 0
-11443 11445 0
-11438 -11443 0
-11439 11446 0
-11444 11446 0
-11439 -11444 11447 0
-11445 11447 0
-11439 -11445 0
-11440 11448 0
-11446 11448 0
-11440 -11446 11449 0
-11447 11449 0
-11440 -11447 0
-11441 -11449 0
-11452 16 17 18 0
-16 11452 0
-17 11452 0
-18 11452 0
-11453 72 73 74 0
-72 11453 0
-73 11453 0
-74 11453 0
-11454 128 129 130 0
-128 11454 0
-129 11454 0
-130 11454 0
-11455 184 185 186 0
-184 11455 0
-185 11455 0
-186 11455 0
-11456 240 241 242 0
-240 11456 0
-241 11456 0
-242 11456 0
-11452 11457 0
-11458 0
-11459 0
-11453 11460 0
-11457 11460 0
-11453 -11457 11461 0
-11458 11461 0
-11453 -11458 11462 0
-11459 11462 0
-11453 -11459 0
-11454 11463 0
-11460 11463 0
-11454 -11460 11464 0
-11461 11464 0
-11454 -11461 11465 0
-11462 11465 0
-11454 -11462 0
-11455 11466 0
-11463 11466 0
-11455 -11463 11467 0
-11464 11467 0
-11455 -11464 11468 0
-11465 11468 0
-11455 -11465 0
-11456 -11468 0
-11472 16 17 18 19 0
-16 11472 0
-17 11472 0
-18 11472 0
-19 11472 0
-11473 72 73 74 75 0
-72 11473 0
-73 11473 0
-74 11473 0
-75 11473 0
-11474 128 129 130 131 0
-128 11474 0
-129 11474 0
-130 11474 0
-131 11474 0
-11475 184 185 186 187 0
-184 11475 0
-185 11475 0
-186 11475 0
-187 11475 0
-11476 240 241 242 243 0
-240 11476 0
-241 11476 0
-242 11476 0
-243 11476 0
-11472 11477 0
-11478 0
-11479 0
-11480 0
-11473 11481 0
-11477 11481 0
-11473 -11477 11482 0
-11478 11482 0
-11473 -11478 11483 0
-11479 11483 0
-11473 -11479 11484 0
-11480 11484 0
-11473 -11480 0
-11474 11485 0
-11481 11485 0
-11474 -11481 11486 0
-11482 11486 0
-11474 -11482 11487 0
-11483 11487 0
-11474 -11483 11488 0
-11484 11488 0
-11474 -11484 0
-11475 11489 0
-11485 11489 0
-11475 -11485 11490 0
-11486 11490 0
-11475 -11486 11491 0
-11487 11491 0
-11475 -11487 11492 0
-11488 11492 0
-11475 -11488 0
-11476 -11492 0
-11497 16 17 18 19 20 0
-16 11497 0
-17 11497 0
-18 11497 0
-19 11497 0
-20 11497 0
-11498 72 73 74 75 76 0
-72 11498 0
-73 11498 0
-74 11498 0
-75 11498 0
-76 11498 0
-11499 128 129 130 131 132 0
-128 11499 0
-129 11499 0
-130 11499 0
-131 11499 0
-132 11499 0
-11500 184 185 186 187 188 0
-184 11500 0
-185 11500 0
-186 11500 0
-187 11500 0
-188 11500 0
-11501 240 241 242 243 244 0
-240 11501 0
-241 11501 0
-242 11501 0
-243 11501 0
-244 11501 0
-11502 17 0
-17 11502 0
-11503 73 0
-73 11503 0
-11504 129 0
-129 11504 0
-11505 185 0
-185 11505 0
-11506 241 0
-241 11506 0
-11502 11507 0
-11503 11508 0
-11507 11508 0
-11503 -11507 0
-11504 11509 0
-11508 11509 0
-11504 -11508 0
-11505 11510 0
-11509 11510 0
-11505 -11509 0
-11506 -11510 0
-11512 17 18 0
-17 11512 0
-18 11512 0
-11513 73 74 0
-73 11513 0
-74 11513 0
-11514 129 130 0
-129 11514 0
-130 11514 0
-11515 185 186 0
-185 11515 0
-186 11515 0
-11516 241 242 0
-241 11516 0
-242 11516 0
-11512 11517 0
-11518 0
-11513 11519 0
-11517 11519 0
-11513 -11517 11520 0
-11518 11520 0
-11513 -11518 0
-11514 11521 0
-11519 11521 0
-11514 -11519 11522 0
-11520 11522 0
-11514 -11520 0
-11515 11523 0
-11521 11523 0
-11515 -11521 11524 0
-11522 11524 0
-11515 -11522 0
-11516 -11524 0
-11527 17 18 19 0
-17 11527 0
-18 11527 0
-19 11527 0
-11528 73 74 75 0
-73 11528 0
-74 11528 0
-75 11528 0
-11529 129 130 131 0
-129 11529 0
-130 11529 0
-131 11529 0
-11530 185 186 187 0
-185 11530 0
-186 11530 0
-187 11530 0
-11531 241 242 243 0
-241 11531 0
-242 11531 0
-243 11531 0
-11527 11532 0
-11533 0
-11534 0
-11528 11535 0
-11532 11535 0
-11528 -11532 11536 0
-11533 11536 0
-11528 -11533 11537 0
-11534 11537 0
-11528 -11534 0
-11529 11538 0
-11535 11538 0
-11529 -11535 11539 0
-11536 11539 0
-11529 -11536 11540 0
-11537 11540 0
-11529 -11537 0
-11530 11541 0
-11538 11541 0
-11530 -11538 11542 0
-11539 11542 0
-11530 -11539 11543 0
-11540 11543 0
-11530 -11540 0
-11531 -11543 0
-11547 17 18 19 20 0
-17 11547 0
-18 11547 0
-19 11547 0
-20 11547 0
-11548 73 74 75 76 0
-73 11548 0
-74 11548 0
-75 11548 0
-76 11548 0
-11549 129 130 131 132 0
-129 11549 0
-130 11549 0
-131 11549 0
-132 11549 0
-11550 185 186 187 188 0
-185 11550 0
-186 11550 0
-187 11550 0
-188 11550 0
-11551 241 242 243 244 0
-241 11551 0
-242 11551 0
-243 11551 0
-244 11551 0
-11547 11552 0
-11553 0
-11554 0
-11555 0
-11548 11556 0
-11552 11556 0
-11548 -11552 11557 0
-11553 11557 0
-11548 -11553 11558 0
-11554 11558 0
-11548 -11554 11559 0
-11555 11559 0
-11548 -11555 0
-11549 11560 0
-11556 11560 0
-11549 -11556 11561 0
-11557 11561 0
-11549 -11557 11562 0
-11558 11562 0
-11549 -11558 11563 0
-11559 11563 0
-11549 -11559 0
-11550 11564 0
-11560 11564 0
-11550 -11560 11565 0
-11561 11565 0
-11550 -11561 11566 0
-11562 11566 0
-11550 -11562 11567 0
-11563 11567 0
-11550 -11563 0
-11551 -11567 0
-11572 17 18 19 20 21 0
-17 11572 0
-18 11572 0
-19 11572 0
-20 11572 0
-21 11572 0
-11573 73 74 75 76 77 0
-73 11573 0
-74 11573 0
-75 11573 0
-76 11573 0
-77 11573 0
-11574 129 130 131 132 133 0
-129 11574 0
-130 11574 0
-131 11574 0
-132 11574 0
-133 11574 0
-11575 185 186 187 188 189 0
-185 11575 0
-186 11575 0
-187 11575 0
-188 11575 0
-189 11575 0
-11576 241 242 243 244 245 0
-241 11576 0
-242 11576 0
-243 11576 0
-244 11576 0
-245 11576 0
-11577 18 0
-18 11577 0
-11578 74 0
-74 11578 0
-11579 130 0
-130 11579 0
-11580 186 0
-186 11580 0
-11581 242 0
-242 11581 0
-11577 11582 0
-11578 11583 0
-11582 11583 0
-11578 -11582 0
-11579 11584 0
-11583 11584 0
-11579 -11583 0
-11580 11585 0
-11584 11585 0
-11580 -11584 0
-11581 -11585 0
-11587 18 19 0
-18 11587 0
-19 11587 0
-11588 74 75 0
-74 11588 0
-75 11588 0
-11589 130 131 0
-130 11589 0
-131 11589 0
-11590 186 187 0
-186 11590 0
-187 11590 0
-11591 242 243 0
-242 11591 0
-243 11591 0
-11587 11592 0
-11593 0
-11588 11594 0
-11592 11594 0
-11588 -11592 11595 0
-11593 11595 0
-11588 -11593 0
-11589 11596 0
-11594 11596 0
-11589 -11594 11597 0
-11595 11597 0
-11589 -11595 0
-11590 11598 0
-11596 11598 0
-11590 -11596 11599 0
-11597 11599 0
-11590 -11597 0
-11591 -11599 0
-11602 18 19 20 0
-18 11602 0
-19 11602 0
-20 11602 0
-11603 74 75 76 0
-74 11603 0
-75 11603 0
-76 11603 0
-11604 130 131 132 0
-130 11604 0
-131 11604 0
-132 11604 0
-11605 186 187 188 0
-186 11605 0
-187 11605 0
-188 11605 0
-11606 242 243 244 0
-242 11606 0
-243 11606 0
-244 11606 0
-11602 11607 0
-11608 0
-11609 0
-11603 11610 0
-11607 11610 0
-11603 -11607 11611 0
-11608 11611 0
-11603 -11608 11612 0
-11609 11612 0
-11603 -11609 0
-11604 11613 0
-11610 11613 0
-11604 -11610 11614 0
-11611 11614 0
-11604 -11611 11615 0
-11612 11615 0
-11604 -11612 0
-11605 11616 0
-11613 11616 0
-11605 -11613 11617 0
-11614 11617 0
-11605 -11614 11618 0
-11615 11618 0
-11605 -11615 0
-11606 -11618 0
-11622 18 19 20 21 0
-18 11622 0
-19 11622 0
-20 11622 0
-21 11622 0
-11623 74 75 76 77 0
-74 11623 0
-75 11623 0
-76 11623 0
-77 11623 0
-11624 130 131 132 133 0
-130 11624 0
-131 11624 0
-132 11624 0
-133 11624 0
-11625 186 187 188 189 0
-186 11625 0
-187 11625 0
-188 11625 0
-189 11625 0
-11626 242 243 244 245 0
-242 11626 0
-243 11626 0
-244 11626 0
-245 11626 0
-11622 11627 0
-11628 0
-11629 0
-11630 0
-11623 11631 0
-11627 11631 0
-11623 -11627 11632 0
-11628 11632 0
-11623 -11628 11633 0
-11629 11633 0
-11623 -11629 11634 0
-11630 11634 0
-11623 -11630 0
-11624 11635 0
-11631 11635 0
-11624 -11631 11636 0
-11632 11636 0
-11624 -11632 11637 0
-11633 11637 0
-11624 -11633 11638 0
-11634 11638 0
-11624 -11634 0
-11625 11639 0
-11635 11639 0
-11625 -11635 11640 0
-11636 11640 0
-11625 -11636 11641 0
-11637 11641 0
-11625 -11637 11642 0
-11638 11642 0
-11625 -11638 0
-11626 -11642 0
-11647 19 0
-19 11647 0
-11648 75 0
-75 11648 0
-11649 131 0
-131 11649 0
-11650 187 0
-187 11650 0
-11651 243 0
-243 11651 0
-11647 11652 0
-11648 11653 0
-11652 11653 0
-11648 -11652 0
-11649 11654 0
-11653 11654 0
-11649 -11653 0
-11650 11655 0
-11654 11655 0
-11650 -11654 0
-11651 -11655 0
-11657 19 20 0
-19 11657 0
-20 11657 0
-11658 75 76 0
-75 11658 0
-76 11658 0
-11659 131 132 0
-131 11659 0
-132 11659 0
-11660 187 188 0
-187 11660 0
-188 11660 0
-11661 243 244 0
-243 11661 0
-244 11661 0
-11657 11662 0
-11663 0
-11658 11664 0
-11662 11664 0
-11658 -11662 11665 0
-11663 11665 0
-11658 -11663 0
-11659 11666 0
-11664 11666 0
-11659 -11664 11667 0
-11665 11667 0
-11659 -11665 0
-11660 11668 0
-11666 11668 0
-11660 -11666 11669 0
-11667 11669 0
-11660 -11667 0
-11661 -11669 0
-11672 19 20 21 0
-19 11672 0
-20 11672 0
-21 11672 0
-11673 75 76 77 0
-75 11673 0
-76 11673 0
-77 11673 0
-11674 131 132 133 0
-131 11674 0
-132 11674 0
-133 11674 0
-11675 187 188 189 0
-187 11675 0
-188 11675 0
-189 11675 0
-11676 243 244 245 0
-243 11676 0
-244 11676 0
-245 11676 0
-11672 11677 0
-11678 0
-11679 0
-11673 11680 0
-11677 11680 0
-11673 -11677 11681 0
-11678 11681 0
-11673 -11678 11682 0
-11679 11682 0
-11673 -11679 0
-11674 11683 0
-11680 11683 0
-11674 -11680 11684 0
-11681 11684 0
-11674 -11681 11685 0
-11682 11685 0
-11674 -11682 0
-11675 11686 0
-11683 11686 0
-11675 -11683 11687 0
-11684 11687 0
-11675 -11684 11688 0
-11685 11688 0
-11675 -11685 0
-11676 -11688 0
-11692 20 0
-20 11692 0
-11693 76 0
-76 11693 0
-11694 132 0
-132 11694 0
-11695 188 0
-188 11695 0
-11696 244 0
-244 11696 0
-11692 11697 0
-11693 11698 0
-11697 11698 0
-11693 -11697 0
-11694 11699 0
-11698 11699 0
-11694 -11698 0
-11695 11700 0
-11699 11700 0
-11695 -11699 0
-11696 -11700 0
-11702 20 21 0
-20 11702 0
-21 11702 0
-11703 76 77 0
-76 11703 0
-77 11703 0
-11704 132 133 0
-132 11704 0
-133 11704 0
-11705 188 189 0
-188 11705 0
-189 11705 0
-11706 244 245 0
-244 11706 0
-245 11706 0
-11702 11707 0
-11708 0
-11703 11709 0
-11707 11709 0
-11703 -11707 11710 0
-11708 11710 0
-11703 -11708 0
-11704 11711 0
-11709 11711 0
-11704 -11709 11712 0
-11710 11712 0
-11704 -11710 0
-11705 11713 0
-11711 11713 0
-11705 -11711 11714 0
-11712 11714 0
-11705 -11712 0
-11706 -11714 0
-11717 21 0
-21 11717 0
-11718 77 0
-77 11718 0
-11719 133 0
-133 11719 0
-11720 189 0
-189 11720 0
-11721 245 0
-245 11721 0
-11717 11722 0
-11718 11723 0
-11722 11723 0
-11718 -11722 0
-11719 11724 0
-11723 11724 0
-11719 -11723 0
-11720 11725 0
-11724 11725 0
-11720 -11724 0
-11721 -11725 0
-11727 8 0
-8 11727 0
-11728 64 0
-64 11728 0
-11729 120 0
-120 11729 0
-11730 176 0
-176 11730 0
-11731 232 0
-232 11731 0
-11732 288 0
-288 11732 0
-11727 11733 0
-11728 11734 0
-11733 11734 0
-11728 -11733 0
-11729 11735 0
-11734 11735 0
-11729 -11734 0
-11730 11736 0
-11735 11736 0
-11730 -11735 0
-11731 11737 0
-11736 11737 0
-11731 -11736 0
-11732 -11737 0
-11739 8 9 0
-8 11739 0
-9 11739 0
-11740 64 65 0
-64 11740 0
-65 11740 0
-11741 120 121 0
-120 11741 0
-121 11741 0
-11742 176 177 0
-176 11742 0
-177 11742 0
-11743 232 233 0
-232 11743 0
-233 11743 0
-11744 288 289 0
-288 11744 0
-289 11744 0
-11739 11745 0
-11746 0
-11740 11747 0
-11745 11747 0
-11740 -11745 11748 0
-11746 11748 0
-11740 -11746 0
-11741 11749 0
-11747 11749 0
-11741 -11747 11750 0
-11748 11750 0
-11741 -11748 0
-11742 11751 0
-11749 11751 0
-11742 -11749 11752 0
-11750 11752 0
-11742 -11750 0
-11743 11753 0
-11751 11753 0
-11743 -11751 11754 0
-11752 11754 0
-11743 -11752 0
-11744 -11754 0
-11757 8 9 10 0
-8 11757 0
-9 11757 0
-10 11757 0
-11758 64 65 66 0
-64 11758 0
-65 11758 0
-66 11758 0
-11759 120 121 122 0
-120 11759 0
-121 11759 0
-122 11759 0
-11760 176 177 178 0
-176 11760 0
-177 11760 0
-178 11760 0
-11761 232 233 234 0
-232 11761 0
-233 11761 0
-234 11761 0
-11762 288 289 290 0
-288 11762 0
-289 11762 0
-290 11762 0
-11757 11763 0
-11764 0
-11765 0
-11758 11766 0
-11763 11766 0
-11758 -11763 11767 0
-11764 11767 0
-11758 -11764 11768 0
-11765 11768 0
-11758 -11765 0
-11759 11769 0
-11766 11769 0
-11759 -11766 11770 0
-11767 11770 0
-11759 -11767 11771 0
-11768 11771 0
-11759 -11768 0
-11760 11772 0
-11769 11772 0
-11760 -11769 11773 0
-11770 11773 0
-11760 -11770 11774 0
-11771 11774 0
-11760 -11771 0
-11761 11775 0
-11772 11775 0
-11761 -11772 11776 0
-11773 11776 0
-11761 -11773 11777 0
-11774 11777 0
-11761 -11774 0
-11762 -11777 0
-11781 8 9 10 11 0
-8 11781 0
-9 11781 0
-10 11781 0
-11 11781 0
-11782 64 65 66 67 0
-64 11782 0
-65 11782 0
-66 11782 0
-67 11782 0
-11783 120 121 122 123 0
-120 11783 0
-121 11783 0
-122 11783 0
-123 11783 0
-11784 176 177 178 179 0
-176 11784 0
-177 11784 0
-178 11784 0
-179 11784 0
-11785 232 233 234 235 0
-232 11785 0
-233 11785 0
-234 11785 0
-235 11785 0
-11786 288 289 290 291 0
-288 11786 0
-289 11786 0
-290 11786 0
-291 11786 0
-11781 11787 0
-11788 0
-11789 0
-11790 0
-11782 11791 0
-11787 11791 0
-11782 -11787 11792 0
-11788 11792 0
-11782 -11788 11793 0
-11789 11793 0
-11782 -11789 11794 0
-11790 11794 0
-11782 -11790 0
-11783 11795 0
-11791 11795 0
-11783 -11791 11796 0
-11792 11796 0
-11783 -11792 11797 0
-11793 11797 0
-11783 -11793 11798 0
-11794 11798 0
-11783 -11794 0
-11784 11799 0
-11795 11799 0
-11784 -11795 11800 0
-11796 11800 0
-11784 -11796 11801 0
-11797 11801 0
-11784 -11797 11802 0
-11798 11802 0
-11784 -11798 0
-11785 11803 0
-11799 11803 0
-11785 -11799 11804 0
-11800 11804 0
-11785 -11800 11805 0
-11801 11805 0
-11785 -11801 11806 0
-11802 11806 0
-11785 -11802 0
-11786 -11806 0
-11811 8 9 10 11 12 0
-8 11811 0
-9 11811 0
-10 11811 0
-11 11811 0
-12 11811 0
-11812 64 65 66 67 68 0
-64 11812 0
-65 11812 0
-66 11812 0
-67 11812 0
-68 11812 0
-11813 120 121 122 123 124 0
-120 11813 0
-121 11813 0
-122 11813 0
-123 11813 0
-124 11813 0
-11814 176 177 178 179 180 0
-176 11814 0
-177 11814 0
-178 11814 0
-179 11814 0
-180 11814 0
-11815 232 233 234 235 236 0
-232 11815 0
-233 11815 0
-234 11815 0
-235 11815 0
-236 11815 0
-11816 288 289 290 291 292 0
-288 11816 0
-289 11816 0
-290 11816 0
-291 11816 0
-292 11816 0
-11811 11817 0
-11818 0
-11819 0
-11820 0
-11821 0
-11812 11822 0
-11817 11822 0
-11812 -11817 11823 0
-11818 11823 0
-11812 -11818 11824 0
-11819 11824 0
-11812 -11819 11825 0
-11820 11825 0
-11812 -11820 11826 0
-11821 11826 0
-11812 -11821 0
-11813 11827 0
-11822 11827 0
-11813 -11822 11828 0
-11823 11828 0
-11813 -11823 11829 0
-11824 11829 0
-11813 -11824 11830 0
-11825 11830 0
-11813 -11825 11831 0
-11826 11831 0
-11813 -11826 0
-11814 11832 0
-11827 11832 0
-11814 -11827 11833 0
-11828 11833 0
-11814 -11828 11834 0
-11829 11834 0
-11814 -11829 11835 0
-11830 11835 0
-11814 -11830 11836 0
-11831 11836 0
-11814 -11831 0
-11815 11837 0
-11832 11837 0
-11815 -11832 11838 0
-11833 11838 0
-11815 -11833 11839 0
-11834 11839 0
-11815 -11834 11840 0
-11835 11840 0
-11815 -11835 11841 0
-11836 11841 0
-11815 -11836 0
-11816 -11841 0
-11847 8 9 10 11 12 13 0
-8 11847 0
-9 11847 0
-10 11847 0
-11 11847 0
-12 11847 0
-13 11847 0
-11848 64 65 66 67 68 69 0
-64 11848 0
-65 11848 0
-66 11848 0
-67 11848 0
-68 11848 0
-69 11848 0
-11849 120 121 122 123 124 125 0
-120 11849 0
-121 11849 0
-122 11849 0
-123 11849 0
-124 11849 0
-125 11849 0
-11850 176 177 178 179 180 181 0
-176 11850 0
-177 11850 0
-178 11850 0
-179 11850 0
-180 11850 0
-181 11850 0
-11851 232 233 234 235 236 237 0
-232 11851 0
-233 11851 0
-234 11851 0
-235 11851 0
-236 11851 0
-237 11851 0
-11852 288 289 290 291 292 293 0
-288 11852 0
-289 11852 0
-290 11852 0
-291 11852 0
-292 11852 0
-293 11852 0
-11853 9 0
-9 11853 0
-11854 65 0
-65 11854 0
-11855 121 0
-121 11855 0
-11856 177 0
-177 11856 0
-11857 233 0
-233 11857 0
-11858 289 0
-289 11858 0
-11853 11859 0
-11854 11860 0
-11859 11860 0
-11854 -11859 0
-11855 11861 0
-11860 11861 0
-11855 -11860 0
-11856 11862 0
-11861 11862 0
-11856 -11861 0
-11857 11863 0
-11862 11863 0
-11857 -11862 0
-11858 -11863 0
-11865 9 10 0
-9 11865 0
-10 11865 0
-11866 65 66 0
-65 11866 0
-66 11866 0
-11867 121 122 0
-121 11867 0
-122 11867 0
-11868 177 178 0
-177 11868 0
-178 11868 0
-11869 233 234 0
-233 11869 0
-234 11869 0
-11870 289 290 0
-289 11870 0
-290 11870 0
-11865 11871 0
-11872 0
-11866 11873 0
-11871 11873 0
-11866 -11871 11874 0
-11872 11874 0
-11866 -11872 0
-11867 11875 0
-11873 11875 0
-11867 -11873 11876 0
-11874 11876 0
-11867 -11874 0
-11868 11877 0
-11875 11877 0
-11868 -11875 11878 0
-11876 11878 0
-11868 -11876 0
-11869 11879 0
-11877 11879 0
-11869 -11877 11880 0
-11878 11880 0
-11869 -11878 0
-11870 -11880 0
-11883 9 10 11 0
-9 11883 0
-10 11883 0
-11 11883 0
-11884 65 66 67 0
-65 11884 0
-66 11884 0
-67 11884 0
-11885 121 122 123 0
-121 11885 0
-122 11885 0
-123 11885 0
-11886 177 178 179 0
-177 11886 0
-178 11886 0
-179 11886 0
-11887 233 234 235 0
-233 11887 0
-234 11887 0
-235 11887 0
-11888 289 290 291 0
-289 11888 0
-290 11888 0
-291 11888 0
-11883 11889 0
-11890 0
-11891 0
-11884 11892 0
-11889 11892 0
-11884 -11889 11893 0
-11890 11893 0
-11884 -11890 11894 0
-11891 11894 0
-11884 -11891 0
-11885 11895 0
-11892 11895 0
-11885 -11892 11896 0
-11893 11896 0
-11885 -11893 11897 0
-11894 11897 0
-11885 -11894 0
-11886 11898 0
-11895 11898 0
-11886 -11895 11899 0
-11896 11899 0
-11886 -11896 11900 0
-11897 11900 0
-11886 -11897 0
-11887 11901 0
-11898 11901 0
-11887 -11898 11902 0
-11899 11902 0
-11887 -11899 11903 0
-11900 11903 0
-11887 -11900 0
-11888 -11903 0
-11907 9 10 11 12 0
-9 11907 0
-10 11907 0
-11 11907 0
-12 11907 0
-11908 65 66 67 68 0
-65 11908 0
-66 11908 0
-67 11908 0
-68 11908 0
-11909 121 122 123 124 0
-121 11909 0
-122 11909 0
-123 11909 0
-124 11909 0
-11910 177 178 179 180 0
-177 11910 0
-178 11910 0
-179 11910 0
-180 11910 0
-11911 233 234 235 236 0
-233 11911 0
-234 11911 0
-235 11911 0
-236 11911 0
-11912 289 290 291 292 0
-289 11912 0
-290 11912 0
-291 11912 0
-292 11912 0
-11907 11913 0
-11914 0
-11915 0
-11916 0
-11908 11917 0
-11913 11917 0
-11908 -11913 11918 0
-11914 11918 0
-11908 -11914 11919 0
-11915 11919 0
-11908 -11915 11920 0
-11916 11920 0
-11908 -11916 0
-11909 11921 0
-11917 11921 0
-11909 -11917 11922 0
-11918 11922 0
-11909 -11918 11923 0
-11919 11923 0
-11909 -11919 11924 0
-11920 11924 0
-11909 -11920 0
-11910 11925 0
-11921 11925 0
-11910 -11921 11926 0
-11922 11926 0
-11910 -11922 11927 0
-11923 11927 0
-11910 -11923 11928 0
-11924 11928 0
-11910 -11924 0
-11911 11929 0
-11925 11929 0
-11911 -11925 11930 0
-11926 11930 0
-11911 -11926 11931 0
-11927 11931 0
-11911 -11927 11932 0
-11928 11932 0
-11911 -11928 0
-11912 -11932 0
-11937 9 10 11 12 13 0
-9 11937 0
-10 11937 0
-11 11937 0
-12 11937 0
-13 11937 0
-11938 65 66 67 68 69 0
-65 11938 0
-66 11938 0
-67 11938 0
-68 11938 0
-69 11938 0
-11939 121 122 123 124 125 0
-121 11939 0
-122 11939 0
-123 11939 0
-124 11939 0
-125 11939 0
-11940 177 178 179 180 181 0
-177 11940 0
-178 11940 0
-179 11940 0
-180 11940 0
-181 11940 0
-11941 233 234 235 236 237 0
-233 11941 0
-234 11941 0
-235 11941 0
-236 11941 0
-237 11941 0
-11942 289 290 291 292 293 0
-289 11942 0
-290 11942 0
-291 11942 0
-292 11942 0
-293 11942 0
-11937 11943 0
-11944 0
-11945 0
-11946 0
-11947 0
-11938 11948 0
-11943 11948 0
-11938 -11943 11949 0
-11944 11949 0
-11938 -11944 11950 0
-11945 11950 0
-11938 -11945 11951 0
-11946 11951 0
-11938 -11946 11952 0
-11947 11952 0
-11938 -11947 0
-11939 11953 0
-11948 11953 0
-11939 -11948 11954 0
-11949 11954 0
-11939 -11949 11955 0
-11950 11955 0
-11939 -11950 11956 0
-11951 11956 0
-11939 -11951 11957 0
-11952 11957 0
-11939 -11952 0
-11940 11958 0
-11953 11958 0
-11940 -11953 11959 0
-11954 11959 0
-11940 -11954 11960 0
-11955 11960 0
-11940 -11955 11961 0
-11956 11961 0
-11940 -11956 11962 0
-11957 11962 0
-11940 -11957 0
-11941 11963 0
-11958 11963 0
-11941 -11958 11964 0
-11959 11964 0
-11941 -11959 11965 0
-11960 11965 0
-11941 -11960 11966 0
-11961 11966 0
-11941 -11961 11967 0
-11962 11967 0
-11941 -11962 0
-11942 -11967 0
-11973 9 10 11 12 13 14 0
-9 11973 0
-10 11973 0
-11 11973 0
-12 11973 0
-13 11973 0
-14 11973 0
-11974 65 66 67 68 69 70 0
-65 11974 0
-66 11974 0
-67 11974 0
-68 11974 0
-69 11974 0
-70 11974 0
-11975 121 122 123 124 125 126 0
-121 11975 0
-122 11975 0
-123 11975 0
-124 11975 0
-125 11975 0
-126 11975 0
-11976 177 178 179 180 181 182 0
-177 11976 0
-178 11976 0
-179 11976 0
-180 11976 0
-181 11976 0
-182 11976 0
-11977 233 234 235 236 237 238 0
-233 11977 0
-234 11977 0
-235 11977 0
-236 11977 0
-237 11977 0
-238 11977 0
-11978 289 290 291 292 293 294 0
-289 11978 0
-290 11978 0
-291 11978 0
-292 11978 0
-293 11978 0
-294 11978 0
-11979 10 0
-10 11979 0
-11980 66 0
-66 11980 0
-11981 122 0
-122 11981 0
-11982 178 0
-178 11982 0
-11983 234 0
-234 11983 0
-11984 290 0
-290 11984 0
-11979 11985 0
-11980 11986 0
-11985 11986 0
-11980 -11985 0
-11981 11987 0
-11986 11987 0
-11981 -11986 0
-11982 11988 0
-11987 11988 0
-11982 -11987 0
-11983 11989 0
-11988 11989 0
-11983 -11988 0
-11984 -11989 0
-11991 10 11 0
-10 11991 0
-11 11991 0
-11992 66 67 0
-66 11992 0
-67 11992 0
-11993 122 123 0
-122 11993 0
-123 11993 0
-11994 178 179 0
-178 11994 0
-179 11994 0
-11995 234 235 0
-234 11995 0
-235 11995 0
-11996 290 291 0
-290 11996 0
-291 11996 0
-11991 11997 0
-11998 0
-11992 11999 0
-11997 11999 0
-11992 -11997 12000 0
-11998 12000 0
-11992 -11998 0
-11993 12001 0
-11999 12001 0
-11993 -11999 12002 0
-12000 12002 0
-11993 -12000 0
-11994 12003 0
-12001 12003 0
-11994 -12001 12004 0
-12002 12004 0
-11994 -12002 0
-11995 12005 0
-12003 12005 0
-11995 -12003 12006 0
-12004 12006 0
-11995 -12004 0
-11996 -12006 0
-12009 10 11 12 0
-10 12009 0
-11 12009 0
-12 12009 0
-12010 66 67 68 0
-66 12010 0
-67 12010 0
-68 12010 0
-12011 122 123 124 0
-122 12011 0
-123 12011 0
-124 12011 0
-12012 178 179 180 0
-178 12012 0
-179 12012 0
-180 12012 0
-12013 234 235 236 0
-234 12013 0
-235 12013 0
-236 12013 0
-12014 290 291 292 0
-290 12014 0
-291 12014 0
-292 12014 0
-12009 12015 0
-12016 0
-12017 0
-12010 12018 0
-12015 12018 0
-12010 -12015 12019 0
-12016 12019 0
-12010 -12016 12020 0
-12017 12020 0
-12010 -12017 0
-12011 12021 0
-12018 12021 0
-12011 -12018 12022 0
-12019 12022 0
-12011 -12019 12023 0
-12020 12023 0
-12011 -12020 0
-12012 12024 0
-12021 12024 0
-12012 -12021 12025 0
-12022 12025 0
-12012 -12022 12026 0
-12023 12026 0
-12012 -12023 0
-12013 12027 0
-12024 12027 0
-12013 -12024 12028 0
-12025 12028 0
-12013 -12025 12029 0
-12026 12029 0
-12013 -12026 0
-12014 -12029 0
-12033 10 11 12 13 0
-10 12033 0
-11 12033 0
-12 12033 0
-13 12033 0
-12034 66 67 68 69 0
-66 12034 0
-67 12034 0
-68 12034 0
-69 12034 0
-12035 122 123 124 125 0
-122 12035 0
-123 12035 0
-124 12035 0
-125 12035 0
-12036 178 179 180 181 0
-178 12036 0
-179 12036 0
-180 12036 0
-181 12036 0
-12037 234 235 236 237 0
-234 12037 0
-235 12037 0
-236 12037 0
-237 12037 0
-12038 290 291 292 293 0
-290 12038 0
-291 12038 0
-292 12038 0
-293 12038 0
-12033 12039 0
-12040 0
-12041 0
-12042 0
-12034 12043 0
-12039 12043 0
-12034 -12039 12044 0
-12040 12044 0
-12034 -12040 12045 0
-12041 12045 0
-12034 -12041 12046 0
-12042 12046 0
-12034 -12042 0
-12035 12047 0
-12043 12047 0
-12035 -12043 12048 0
-12044 12048 0
-12035 -12044 12049 0
-12045 12049 0
-12035 -12045 12050 0
-12046 12050 0
-12035 -12046 0
-12036 12051 0
-12047 12051 0
-12036 -12047 12052 0
-12048 12052 0
-12036 -12048 12053 0
-12049 12053 0
-12036 -12049 12054 0
-12050 12054 0
-12036 -12050 0
-12037 12055 0
-12051 12055 0
-12037 -12051 12056 0
-12052 12056 0
-12037 -12052 12057 0
-12053 12057 0
-12037 -12053 12058 0
-12054 12058 0
-12037 -12054 0
-12038 -12058 0
-12063 10 11 12 13 14 0
-10 12063 0
-11 12063 0
-12 12063 0
-13 12063 0
-14 12063 0
-12064 66 67 68 69 70 0
-66 12064 0
-67 12064 0
-68 12064 0
-69 12064 0
-70 12064 0
-12065 122 123 124 125 126 0
-122 12065 0
-123 12065 0
-124 12065 0
-125 12065 0
-126 12065 0
-12066 178 179 180 181 182 0
-178 12066 0
-179 12066 0
-180 12066 0
-181 12066 0
-182 12066 0
-12067 234 235 236 237 238 0
-234 12067 0
-235 12067 0
-236 12067 0
-237 12067 0
-238 12067 0
-12068 290 291 292 293 294 0
-290 12068 0
-291 12068 0
-292 12068 0
-293 12068 0
-294 12068 0
-12063 12069 0
-12070 0
-12071 0
-12072 0
-12073 0
-12064 12074 0
-12069 12074 0
-12064 -12069 12075 0
-12070 12075 0
-12064 -12070 12076 0
-12071 12076 0
-12064 -12071 12077 0
-12072 12077 0
-12064 -12072 12078 0
-12073 12078 0
-12064 -12073 0
-12065 12079 0
-12074 12079 0
-12065 -12074 12080 0
-12075 12080 0
-12065 -12075 12081 0
-12076 12081 0
-12065 -12076 12082 0
-12077 12082 0
-12065 -12077 12083 0
-12078 12083 0
-12065 -12078 0
-12066 12084 0
-12079 12084 0
-12066 -12079 12085 0
-12080 12085 0
-12066 -12080 12086 0
-12081 12086 0
-12066 -12081 12087 0
-12082 12087 0
-12066 -12082 12088 0
-12083 12088 0
-12066 -12083 0
-12067 12089 0
-12084 12089 0
-12067 -12084 12090 0
-12085 12090 0
-12067 -12085 12091 0
-12086 12091 0
-12067 -12086 12092 0
-12087 12092 0
-12067 -12087 12093 0
-12088 12093 0
-12067 -12088 0
-12068 -12093 0
-12099 11 0
-11 12099 0
-12100 67 0
-67 12100 0
-12101 123 0
-123 12101 0
-12102 179 0
-179 12102 0
-12103 235 0
-235 12103 0
-12104 291 0
-291 12104 0
-12099 12105 0
-12100 12106 0
-12105 12106 0
-12100 -12105 0
-12101 12107 0
-12106 12107 0
-12101 -12106 0
-12102 12108 0
-12107 12108 0
-12102 -12107 0
-12103 12109 0
-12108 12109 0
-12103 -12108 0
-12104 -12109 0
-12111 11 12 0
-11 12111 0
-12 12111 0
-12112 67 68 0
-67 12112 0
-68 12112 0
-12113 123 124 0
-123 12113 0
-124 12113 0
-12114 179 180 0
-179 12114 0
-180 12114 0
-12115 235 236 0
-235 12115 0
-236 12115 0
-12116 291 292 0
-291 12116 0
-292 12116 0
-12111 12117 0
-12118 0
-12112 12119 0
-12117 12119 0
-12112 -12117 12120 0
-12118 12120 0
-12112 -12118 0
-12113 12121 0
-12119 12121 0
-12113 -12119 12122 0
-12120 12122 0
-12113 -12120 0
-12114 12123 0
-12121 12123 0
-12114 -12121 12124 0
-12122 12124 0
-12114 -12122 0
-12115 12125 0
-12123 12125 0
-12115 -12123 12126 0
-12124 12126 0
-12115 -12124 0
-12116 -12126 0
-12129 11 12 13 0
-11 12129 0
-12 12129 0
-13 12129 0
-12130 67 68 69 0
-67 12130 0
-68 12130 0
-69 12130 0
-12131 123 124 125 0
-123 12131 0
-124 12131 0
-125 12131 0
-12132 179 180 181 0
-179 12132 0
-180 12132 0
-181 12132 0
-12133 235 236 237 0
-235 12133 0
-236 12133 0
-237 12133 0
-12134 291 292 293 0
-291 12134 0
-292 12134 0
-293 12134 0
-12129 12135 0
-12136 0
-12137 0
-12130 12138 0
-12135 12138 0
-12130 -12135 12139 0
-12136 12139 0
-12130 -12136 12140 0
-12137 12140 0
-12130 -12137 0
-12131 12141 0
-12138 12141 0
-12131 -12138 12142 0
-12139 12142 0
-12131 -12139 12143 0
-12140 12143 0
-12131 -12140 0
-12132 12144 0
-12141 12144 0
-12132 -12141 12145 0
-12142 12145 0
-12132 -12142 12146 0
-12143 12146 0
-12132 -12143 0
-12133 12147 0
-12144 12147 0
-12133 -12144 12148 0
-12145 12148 0
-12133 -12145 12149 0
-12146 12149 0
-12133 -12146 0
-12134 -12149 0
-12153 11 12 13 14 0
-11 12153 0
-12 12153 0
-13 12153 0
-14 12153 0
-12154 67 68 69 70 0
-67 12154 0
-68 12154 0
-69 12154 0
-70 12154 0
-12155 123 124 125 126 0
-123 12155 0
-124 12155 0
-125 12155 0
-126 12155 0
-12156 179 180 181 182 0
-179 12156 0
-180 12156 0
-181 12156 0
-182 12156 0
-12157 235 236 237 238 0
-235 12157 0
-236 12157 0
-237 12157 0
-238 12157 0
-12158 291 292 293 294 0
-291 12158 0
-292 12158 0
-293 12158 0
-294 12158 0
-12153 12159 0
-12160 0
-12161 0
-12162 0
-12154 12163 0
-12159 12163 0
-12154 -12159 12164 0
-12160 12164 0
-12154 -12160 12165 0
-12161 12165 0
-12154 -12161 12166 0
-12162 12166 0
-12154 -12162 0
-12155 12167 0
-12163 12167 0
-12155 -12163 12168 0
-12164 12168 0
-12155 -12164 12169 0
-12165 12169 0
-12155 -12165 12170 0
-12166 12170 0
-12155 -12166 0
-12156 12171 0
-12167 12171 0
-12156 -12167 12172 0
-12168 12172 0
-12156 -12168 12173 0
-12169 12173 0
-12156 -12169 12174 0
-12170 12174 0
-12156 -12170 0
-12157 12175 0
-12171 12175 0
-12157 -12171 12176 0
-12172 12176 0
-12157 -12172 12177 0
-12173 12177 0
-12157 -12173 12178 0
-12174 12178 0
-12157 -12174 0
-12158 -12178 0
-12183 12 0
-12 12183 0
-12184 68 0
-68 12184 0
-12185 124 0
-124 12185 0
-12186 180 0
-180 12186 0
-12187 236 0
-236 12187 0
-12188 292 0
-292 12188 0
-12183 12189 0
-12184 12190 0
-12189 12190 0
-12184 -12189 0
-12185 12191 0
-12190 12191 0
-12185 -12190 0
-12186 12192 0
-12191 12192 0
-12186 -12191 0
-12187 12193 0
-12192 12193 0
-12187 -12192 0
-12188 -12193 0
-12195 12 13 0
-12 12195 0
-13 12195 0
-12196 68 69 0
-68 12196 0
-69 12196 0
-12197 124 125 0
-124 12197 0
-125 12197 0
-12198 180 181 0
-180 12198 0
-181 12198 0
-12199 236 237 0
-236 12199 0
-237 12199 0
-12200 292 293 0
-292 12200 0
-293 12200 0
-12195 12201 0
-12202 0
-12196 12203 0
-12201 12203 0
-12196 -12201 12204 0
-12202 12204 0
-12196 -12202 0
-12197 12205 0
-12203 12205 0
-12197 -12203 12206 0
-12204 12206 0
-12197 -12204 0
-12198 12207 0
-12205 12207 0
-12198 -12205 12208 0
-12206 12208 0
-12198 -12206 0
-12199 12209 0
-12207 12209 0
-12199 -12207 12210 0
-12208 12210 0
-12199 -12208 0
-12200 -12210 0
-12213 12 13 14 0
-12 12213 0
-13 12213 0
-14 12213 0
-12214 68 69 70 0
-68 12214 0
-69 12214 0
-70 12214 0
-12215 124 125 126 0
-124 12215 0
-125 12215 0
-126 12215 0
-12216 180 181 182 0
-180 12216 0
-181 12216 0
-182 12216 0
-12217 236 237 238 0
-236 12217 0
-237 12217 0
-238 12217 0
-12218 292 293 294 0
-292 12218 0
-293 12218 0
-294 12218 0
-12213 12219 0
-12220 0
-12221 0
-12214 12222 0
-12219 12222 0
-12214 -12219 12223 0
-12220 12223 0
-12214 -12220 12224 0
-12221 12224 0
-12214 -12221 0
-12215 12225 0
-12222 12225 0
-12215 -12222 12226 0
-12223 12226 0
-12215 -12223 12227 0
-12224 12227 0
-12215 -12224 0
-12216 12228 0
-12225 12228 0
-12216 -12225 12229 0
-12226 12229 0
-12216 -12226 12230 0
-12227 12230 0
-12216 -12227 0
-12217 12231 0
-12228 12231 0
-12217 -12228 12232 0
-12229 12232 0
-12217 -12229 12233 0
-12230 12233 0
-12217 -12230 0
-12218 -12233 0
-12237 13 0
-13 12237 0
-12238 69 0
-69 12238 0
-12239 125 0
-125 12239 0
-12240 181 0
-181 12240 0
-12241 237 0
-237 12241 0
-12242 293 0
-293 12242 0
-12237 12243 0
-12238 12244 0
-12243 12244 0
-12238 -12243 0
-12239 12245 0
-12244 12245 0
-12239 -12244 0
-12240 12246 0
-12245 12246 0
-12240 -12245 0
-12241 12247 0
-12246 12247 0
-12241 -12246 0
-12242 -12247 0
-12249 13 14 0
-13 12249 0
-14 12249 0
-12250 69 70 0
-69 12250 0
-70 12250 0
-12251 125 126 0
-125 12251 0
-126 12251 0
-12252 181 182 0
-181 12252 0
-182 12252 0
-12253 237 238 0
-237 12253 0
-238 12253 0
-12254 293 294 0
-293 12254 0
-294 12254 0
-12249 12255 0
-12256 0
-12250 12257 0
-12255 12257 0
-12250 -12255 12258 0
-12256 12258 0
-12250 -12256 0
-12251 12259 0
-12257 12259 0
-12251 -12257 12260 0
-12258 12260 0
-12251 -12258 0
-12252 12261 0
-12259 12261 0
-12252 -12259 12262 0
-12260 12262 0
-12252 -12260 0
-12253 12263 0
-12261 12263 0
-12253 -12261 12264 0
-12262 12264 0
-12253 -12262 0
-12254 -12264 0
-12267 14 0
-14 12267 0
-12268 70 0
-70 12268 0
-12269 126 0
-126 12269 0
-12270 182 0
-182 12270 0
-12271 238 0
-238 12271 0
-12272 294 0
-294 12272 0
-12267 12273 0
-12268 12274 0
-12273 12274 0
-12268 -12273 0
-12269 12275 0
-12274 12275 0
-12269 -12274 0
-12270 12276 0
-12275 12276 0
-12270 -12275 0
-12271 12277 0
-12276 12277 0
-12271 -12276 0
-12272 -12277 0
-12279 1 0
-1 12279 0
-12280 57 0
-57 12280 0
-12281 113 0
-113 12281 0
-12282 169 0
-169 12282 0
-12283 225 0
-225 12283 0
-12284 281 0
-281 12284 0
-12285 337 0
-337 12285 0
-12279 12286 0
-12280 12287 0
-12286 12287 0
-12280 -12286 0
-12281 12288 0
-12287 12288 0
-12281 -12287 0
-12282 12289 0
-12288 12289 0
-12282 -12288 0
-12283 12290 0
-12289 12290 0
-12283 -12289 0
-12284 12291 0
-12290 12291 0
-12284 -12290 0
-12285 -12291 0
-12293 1 2 0
-1 12293 0
-2 12293 0
-12294 57 58 0
-57 12294 0
-58 12294 0
-12295 113 114 0
-113 12295 0
-114 12295 0
-12296 169 170 0
-169 12296 0
-170 12296 0
-12297 225 226 0
-225 12297 0
-226 12297 0
-12298 281 282 0
-281 12298 0
-282 12298 0
-12299 337 338 0
-337 12299 0
-338 12299 0
-12293 12300 0
-12301 0
-12294 12302 0
-12300 12302 0
-12294 -12300 12303 0
-12301 12303 0
-12294 -12301 0
-12295 12304 0
-12302 12304 0
-12295 -12302 12305 0
-12303 12305 0
-12295 -12303 0
-12296 12306 0
-12304 12306 0
-12296 -12304 12307 0
-12305 12307 0
-12296 -12305 0
-12297 12308 0
-12306 12308 0
-12297 -12306 12309 0
-12307 12309 0
-12297 -12307 0
-12298 12310 0
-12308 12310 0
-12298 -12308 12311 0
-12309 12311 0
-12298 -12309 0
-12299 -12311 0
-12314 1 2 3 0
-1 12314 0
-2 12314 0
-3 12314 0
-12315 57 58 59 0
-57 12315 0
-58 12315 0
-59 12315 0
-12316 113 114 115 0
-113 12316 0
-114 12316 0
-115 12316 0
-12317 169 170 171 0
-169 12317 0
-170 12317 0
-171 12317 0
-12318 225 226 227 0
-225 12318 0
-226 12318 0
-227 12318 0
-12319 281 282 283 0
-281 12319 0
-282 12319 0
-283 12319 0
-12320 337 338 339 0
-337 12320 0
-338 12320 0
-339 12320 0
-12314 12321 0
-12322 0
-12323 0
-12315 12324 0
-12321 12324 0
-12315 -12321 12325 0
-12322 12325 0
-12315 -12322 12326 0
-12323 12326 0
-12315 -12323 0
-12316 12327 0
-12324 12327 0
-12316 -12324 12328 0
-12325 12328 0
-12316 -12325 12329 0
-12326 12329 0
-12316 -12326 0
-12317 12330 0
-12327 12330 0
-12317 -12327 12331 0
-12328 12331 0
-12317 -12328 12332 0
-12329 12332 0
-12317 -12329 0
-12318 12333 0
-12330 12333 0
-12318 -12330 12334 0
-12331 12334 0
-12318 -12331 12335 0
-12332 12335 0
-12318 -12332 0
-12319 12336 0
-12333 12336 0
-12319 -12333 12337 0
-12334 12337 0
-12319 -12334 12338 0
-12335 12338 0
-12319 -12335 0
-12320 -12338 0
-12342 1 2 3 4 0
-1 12342 0
-2 12342 0
-3 12342 0
-4 12342 0
-12343 57 58 59 60 0
-57 12343 0
-58 12343 0
-59 12343 0
-60 12343 0
-12344 113 114 115 116 0
-113 12344 0
-114 12344 0
-115 12344 0
-116 12344 0
-12345 169 170 171 172 0
-169 12345 0
-170 12345 0
-171 12345 0
-172 12345 0
-12346 225 226 227 228 0
-225 12346 0
-226 12346 0
-227 12346 0
-228 12346 0
-12347 281 282 283 284 0
-281 12347 0
-282 12347 0
-283 12347 0
-284 12347 0
-12348 337 338 339 340 0
-337 12348 0
-338 12348 0
-339 12348 0
-340 12348 0
-12342 12349 0
-12350 0
-12351 0
-12352 0
-12343 12353 0
-12349 12353 0
-12343 -12349 12354 0
-12350 12354 0
-12343 -12350 12355 0
-12351 12355 0
-12343 -12351 12356 0
-12352 12356 0
-12343 -12352 0
-12344 12357 0
-12353 12357 0
-12344 -12353 12358 0
-12354 12358 0
-12344 -12354 12359 0
-12355 12359 0
-12344 -12355 12360 0
-12356 12360 0
-12344 -12356 0
-12345 12361 0
-12357 12361 0
-12345 -12357 12362 0
-12358 12362 0
-12345 -12358 12363 0
-12359 12363 0
-12345 -12359 12364 0
-12360 12364 0
-12345 -12360 0
-12346 12365 0
-12361 12365 0
-12346 -12361 12366 0
-12362 12366 0
-12346 -12362 12367 0
-12363 12367 0
-12346 -12363 12368 0
-12364 12368 0
-12346 -12364 0
-12347 12369 0
-12365 12369 0
-12347 -12365 12370 0
-12366 12370 0
-12347 -12366 12371 0
-12367 12371 0
-12347 -12367 12372 0
-12368 12372 0
-12347 -12368 0
-12348 -12372 0
-12377 1 2 3 4 5 0
-1 12377 0
-2 12377 0
-3 12377 0
-4 12377 0
-5 12377 0
-12378 57 58 59 60 61 0
-57 12378 0
-58 12378 0
-59 12378 0
-60 12378 0
-61 12378 0
-12379 113 114 115 116 117 0
-113 12379 0
-114 12379 0
-115 12379 0
-116 12379 0
-117 12379 0
-12380 169 170 171 172 173 0
-169 12380 0
-170 12380 0
-171 12380 0
-172 12380 0
-173 12380 0
-12381 225 226 227 228 229 0
-225 12381 0
-226 12381 0
-227 12381 0
-228 12381 0
-229 12381 0
-12382 281 282 283 284 285 0
-281 12382 0
-282 12382 0
-283 12382 0
-284 12382 0
-285 12382 0
-12383 337 338 339 340 341 0
-337 12383 0
-338 12383 0
-339 12383 0
-340 12383 0
-341 12383 0
-12377 12384 0
-12385 0
-12386 0
-12387 0
-12388 0
-12378 12389 0
-12384 12389 0
-12378 -12384 12390 0
-12385 12390 0
-12378 -12385 12391 0
-12386 12391 0
-12378 -12386 12392 0
-12387 12392 0
-12378 -12387 12393 0
-12388 12393 0
-12378 -12388 0
-12379 12394 0
-12389 12394 0
-12379 -12389 12395 0
-12390 12395 0
-12379 -12390 12396 0
-12391 12396 0
-12379 -12391 12397 0
-12392 12397 0
-12379 -12392 12398 0
-12393 12398 0
-12379 -12393 0
-12380 12399 0
-12394 12399 0
-12380 -12394 12400 0
-12395 12400 0
-12380 -12395 12401 0
-12396 12401 0
-12380 -12396 12402 0
-12397 12402 0
-12380 -12397 12403 0
-12398 12403 0
-12380 -12398 0
-12381 12404 0
-12399 12404 0
-12381 -12399 12405 0
-12400 12405 0
-12381 -12400 12406 0
-12401 12406 0
-12381 -12401 12407 0
-12402 12407 0
-12381 -12402 12408 0
-12403 12408 0
-12381 -12403 0
-12382 12409 0
-12404 12409 0
-12382 -12404 12410 0
-12405 12410 0
-12382 -12405 12411 0
-12406 12411 0
-12382 -12406 12412 0
-12407 12412 0
-12382 -12407 12413 0
-12408 12413 0
-12382 -12408 0
-12383 -12413 0
-12419 1 2 3 4 5 6 0
-1 12419 0
-2 12419 0
-3 12419 0
-4 12419 0
-5 12419 0
-6 12419 0
-12420 57 58 59 60 61 62 0
-57 12420 0
-58 12420 0
-59 12420 0
-60 12420 0
-61 12420 0
-62 12420 0
-12421 113 114 115 116 117 118 0
-113 12421 0
-114 12421 0
-115 12421 0
-116 12421 0
-117 12421 0
-118 12421 0
-12422 169 170 171 172 173 174 0
-169 12422 0
-170 12422 0
-171 12422 0
-172 12422 0
-173 12422 0
-174 12422 0
-12423 225 226 227 228 229 230 0
-225 12423 0
-226 12423 0
-227 12423 0
-228 12423 0
-229 12423 0
-230 12423 0
-12424 281 282 283 284 285 286 0
-281 12424 0
-282 12424 0
-283 12424 0
-284 12424 0
-285 12424 0
-286 12424 0
-12425 337 338 339 340 341 342 0
-337 12425 0
-338 12425 0
-339 12425 0
-340 12425 0
-341 12425 0
-342 12425 0
-12419 12426 0
-12427 0
-12428 0
-12429 0
-12430 0
-12431 0
-12420 12432 0
-12426 12432 0
-12420 -12426 12433 0
-12427 12433 0
-12420 -12427 12434 0
-12428 12434 0
-12420 -12428 12435 0
-12429 12435 0
-12420 -12429 12436 0
-12430 12436 0
-12420 -12430 12437 0
-12431 12437 0
-12420 -12431 0
-12421 12438 0
-12432 12438 0
-12421 -12432 12439 0
-12433 12439 0
-12421 -12433 12440 0
-12434 12440 0
-12421 -12434 12441 0
-12435 12441 0
-12421 -12435 12442 0
-12436 12442 0
-12421 -12436 12443 0
-12437 12443 0
-12421 -12437 0
-12422 12444 0
-12438 12444 0
-12422 -12438 12445 0
-12439 12445 0
-12422 -12439 12446 0
-12440 12446 0
-12422 -12440 12447 0
-12441 12447 0
-12422 -12441 12448 0
-12442 12448 0
-12422 -12442 12449 0
-12443 12449 0
-12422 -12443 0
-12423 12450 0
-12444 12450 0
-12423 -12444 12451 0
-12445 12451 0
-12423 -12445 12452 0
-12446 12452 0
-12423 -12446 12453 0
-12447 12453 0
-12423 -12447 12454 0
-12448 12454 0
-12423 -12448 12455 0
-12449 12455 0
-12423 -12449 0
-12424 12456 0
-12450 12456 0
-12424 -12450 12457 0
-12451 12457 0
-12424 -12451 12458 0
-12452 12458 0
-12424 -12452 12459 0
-12453 12459 0
-12424 -12453 12460 0
-12454 12460 0
-12424 -12454 12461 0
-12455 12461 0
-12424 -12455 0
-12425 -12461 0
-12468 1 2 3 4 5 6 7 0
-1 12468 0
-2 12468 0
-3 12468 0
-4 12468 0
-5 12468 0
-6 12468 0
-7 12468 0
-12469 57 58 59 60 61 62 63 0
-57 12469 0
-58 12469 0
-59 12469 0
-60 12469 0
-61 12469 0
-62 12469 0
-63 12469 0
-12470 113 114 115 116 117 118 119 0
-113 12470 0
-114 12470 0
-115 12470 0
-116 12470 0
-117 12470 0
-118 12470 0
-119 12470 0
-12471 169 170 171 172 173 174 175 0
-169 12471 0
-170 12471 0
-171 12471 0
-172 12471 0
-173 12471 0
-174 12471 0
-175 12471 0
-12472 225 226 227 228 229 230 231 0
-225 12472 0
-226 12472 0
-227 12472 0
-228 12472 0
-229 12472 0
-230 12472 0
-231 12472 0
-12473 281 282 283 284 285 286 287 0
-281 12473 0
-282 12473 0
-283 12473 0
-284 12473 0
-285 12473 0
-286 12473 0
-287 12473 0
-12474 337 338 339 340 341 342 343 0
-337 12474 0
-338 12474 0
-339 12474 0
-340 12474 0
-341 12474 0
-342 12474 0
-343 12474 0
-12475 2 0
-2 12475 0
-12476 58 0
-58 12476 0
-12477 114 0
-114 12477 0
-12478 170 0
-170 12478 0
-12479 226 0
-226 12479 0
-12480 282 0
-282 12480 0
-12481 338 0
-338 12481 0
-12475 12482 0
-12476 12483 0
-12482 12483 0
-12476 -12482 0
-12477 12484 0
-12483 12484 0
-12477 -12483 0
-12478 12485 0
-12484 12485 0
-12478 -12484 0
-12479 12486 0
-12485 12486 0
-12479 -12485 0
-12480 12487 0
-12486 12487 0
-12480 -12486 0
-12481 -12487 0
-12489 2 3 0
-2 12489 0
-3 12489 0
-12490 58 59 0
-58 12490 0
-59 12490 0
-12491 114 115 0
-114 12491 0
-115 12491 0
-12492 170 171 0
-170 12492 0
-171 12492 0
-12493 226 227 0
-226 12493 0
-227 12493 0
-12494 282 283 0
-282 12494 0
-283 12494 0
-12495 338 339 0
-338 12495 0
-339 12495 0
-12489 12496 0
-12497 0
-12490 12498 0
-12496 12498 0
-12490 -12496 12499 0
-12497 12499 0
-12490 -12497 0
-12491 12500 0
-12498 12500 0
-12491 -12498 12501 0
-12499 12501 0
-12491 -12499 0
-12492 12502 0
-12500 12502 0
-12492 -12500 12503 0
-12501 12503 0
-12492 -12501 0
-12493 12504 0
-12502 12504 0
-12493 -12502 12505 0
-12503 12505 0
-12493 -12503 0
-12494 12506 0
-12504 12506 0
-12494 -12504 12507 0
-12505 12507 0
-12494 -12505 0
-12495 -12507 0
-12510 2 3 4 0
-2 12510 0
-3 12510 0
-4 12510 0
-12511 58 59 60 0
-58 12511 0
-59 12511 0
-60 12511 0
-12512 114 115 116 0
-114 12512 0
-115 12512 0
-116 12512 0
-12513 170 171 172 0
-170 12513 0
-171 12513 0
-172 12513 0
-12514 226 227 228 0
-226 12514 0
-227 12514 0
-228 12514 0
-12515 282 283 284 0
-282 12515 0
-283 12515 0
-284 12515 0
-12516 338 339 340 0
-338 12516 0
-339 12516 0
-340 12516 0
-12510 12517 0
-12518 0
-12519 0
-12511 12520 0
-12517 12520 0
-12511 -12517 12521 0
-12518 12521 0
-12511 -12518 12522 0
-12519 12522 0
-12511 -12519 0
-12512 12523 0
-12520 12523 0
-12512 -12520 12524 0
-12521 12524 0
-12512 -12521 12525 0
-12522 12525 0
-12512 -12522 0
-12513 12526 0
-12523 12526 0
-12513 -12523 12527 0
-12524 12527 0
-12513 -12524 12528 0
-12525 12528 0
-12513 -12525 0
-12514 12529 0
-12526 12529 0
-12514 -12526 12530 0
-12527 12530 0
-12514 -12527 12531 0
-12528 12531 0
-12514 -12528 0
-12515 12532 0
-12529 12532 0
-12515 -12529 12533 0
-12530 12533 0
-12515 -12530 12534 0
-12531 12534 0
-12515 -12531 0
-12516 -12534 0
-12538 2 3 4 5 0
-2 12538 0
-3 12538 0
-4 12538 0
-5 12538 0
-12539 58 59 60 61 0
-58 12539 0
-59 12539 0
-60 12539 0
-61 12539 0
-12540 114 115 116 117 0
-114 12540 0
-115 12540 0
-116 12540 0
-117 12540 0
-12541 170 171 172 173 0
-170 12541 0
-171 12541 0
-172 12541 0
-173 12541 0
-12542 226 227 228 229 0
-226 12542 0
-227 12542 0
-228 12542 0
-229 12542 0
-12543 282 283 284 285 0
-282 12543 0
-283 12543 0
-284 12543 0
-285 12543 0
-12544 338 339 340 341 0
-338 12544 0
-339 12544 0
-340 12544 0
-341 12544 0
-12538 12545 0
-12546 0
-12547 0
-12548 0
-12539 12549 0
-12545 12549 0
-12539 -12545 12550 0
-12546 12550 0
-12539 -12546 12551 0
-12547 12551 0
-12539 -12547 12552 0
-12548 12552 0
-12539 -12548 0
-12540 12553 0
-12549 12553 0
-12540 -12549 12554 0
-12550 12554 0
-12540 -12550 12555 0
-12551 12555 0
-12540 -12551 12556 0
-12552 12556 0
-12540 -12552 0
-12541 12557 0
-12553 12557 0
-12541 -12553 12558 0
-12554 12558 0
-12541 -12554 12559 0
-12555 12559 0
-12541 -12555 12560 0
-12556 12560 0
-12541 -12556 0
-12542 12561 0
-12557 12561 0
-12542 -12557 12562 0
-12558 12562 0
-12542 -12558 12563 0
-12559 12563 0
-12542 -12559 12564 0
-12560 12564 0
-12542 -12560 0
-12543 12565 0
-12561 12565 0
-12543 -12561 12566 0
-12562 12566 0
-12543 -12562 12567 0
-12563 12567 0
-12543 -12563 12568 0
-12564 12568 0
-12543 -12564 0
-12544 -12568 0
-12573 2 3 4 5 6 0
-2 12573 0
-3 12573 0
-4 12573 0
-5 12573 0
-6 12573 0
-12574 58 59 60 61 62 0
-58 12574 0
-59 12574 0
-60 12574 0
-61 12574 0
-62 12574 0
-12575 114 115 116 117 118 0
-114 12575 0
-115 12575 0
-116 12575 0
-117 12575 0
-118 12575 0
-12576 170 171 172 173 174 0
-170 12576 0
-171 12576 0
-172 12576 0
-173 12576 0
-174 12576 0
-12577 226 227 228 229 230 0
-226 12577 0
-227 12577 0
-228 12577 0
-229 12577 0
-230 12577 0
-12578 282 283 284 285 286 0
-282 12578 0
-283 12578 0
-284 12578 0
-285 12578 0
-286 12578 0
-12579 338 339 340 341 342 0
-338 12579 0
-339 12579 0
-340 12579 0
-341 12579 0
-342 12579 0
-12573 12580 0
-12581 0
-12582 0
-12583 0
-12584 0
-12574 12585 0
-12580 12585 0
-12574 -12580 12586 0
-12581 12586 0
-12574 -12581 12587 0
-12582 12587 0
-12574 -12582 12588 0
-12583 12588 0
-12574 -12583 12589 0
-12584 12589 0
-12574 -12584 0
-12575 12590 0
-12585 12590 0
-12575 -12585 12591 0
-12586 12591 0
-12575 -12586 12592 0
-12587 12592 0
-12575 -12587 12593 0
-12588 12593 0
-12575 -12588 12594 0
-12589 12594 0
-12575 -12589 0
-12576 12595 0
-12590 12595 0
-12576 -12590 12596 0
-12591 12596 0
-12576 -12591 12597 0
-12592 12597 0
-12576 -12592 12598 0
-12593 12598 0
-12576 -12593 12599 0
-12594 12599 0
-12576 -12594 0
-12577 12600 0
-12595 12600 0
-12577 -12595 12601 0
-12596 12601 0
-12577 -12596 12602 0
-12597 12602 0
-12577 -12597 12603 0
-12598 12603 0
-12577 -12598 12604 0
-12599 12604 0
-12577 -12599 0
-12578 12605 0
-12600 12605 0
-12578 -12600 12606 0
-12601 12606 0
-12578 -12601 12607 0
-12602 12607 0
-12578 -12602 12608 0
-12603 12608 0
-12578 -12603 12609 0
-12604 12609 0
-12578 -12604 0
-12579 -12609 0
-12615 2 3 4 5 6 7 0
-2 12615 0
-3 12615 0
-4 12615 0
-5 12615 0
-6 12615 0
-7 12615 0
-12616 58 59 60 61 62 63 0
-58 12616 0
-59 12616 0
-60 12616 0
-61 12616 0
-62 12616 0
-63 12616 0
-12617 114 115 116 117 118 119 0
-114 12617 0
-115 12617 0
-116 12617 0
-117 12617 0
-118 12617 0
-119 12617 0
-12618 170 171 172 173 174 175 0
-170 12618 0
-171 12618 0
-172 12618 0
-173 12618 0
-174 12618 0
-175 12618 0
-12619 226 227 228 229 230 231 0
-226 12619 0
-227 12619 0
-228 12619 0
-229 12619 0
-230 12619 0
-231 12619 0
-12620 282 283 284 285 286 287 0
-282 12620 0
-283 12620 0
-284 12620 0
-285 12620 0
-286 12620 0
-287 12620 0
-12621 338 339 340 341 342 343 0
-338 12621 0
-339 12621 0
-340 12621 0
-341 12621 0
-342 12621 0
-343 12621 0
-12615 12622 0
-12623 0
-12624 0
-12625 0
-12626 0
-12627 0
-12616 12628 0
-12622 12628 0
-12616 -12622 12629 0
-12623 12629 0
-12616 -12623 12630 0
-12624 12630 0
-12616 -12624 12631 0
-12625 12631 0
-12616 -12625 12632 0
-12626 12632 0
-12616 -12626 12633 0
-12627 12633 0
-12616 -12627 0
-12617 12634 0
-12628 12634 0
-12617 -12628 12635 0
-12629 12635 0
-12617 -12629 12636 0
-12630 12636 0
-12617 -12630 12637 0
-12631 12637 0
-12617 -12631 12638 0
-12632 12638 0
-12617 -12632 12639 0
-12633 12639 0
-12617 -12633 0
-12618 12640 0
-12634 12640 0
-12618 -12634 12641 0
-12635 12641 0
-12618 -12635 12642 0
-12636 12642 0
-12618 -12636 12643 0
-12637 12643 0
-12618 -12637 12644 0
-12638 12644 0
-12618 -12638 12645 0
-12639 12645 0
-12618 -12639 0
-12619 12646 0
-12640 12646 0
-12619 -12640 12647 0
-12641 12647 0
-12619 -12641 12648 0
-12642 12648 0
-12619 -12642 12649 0
-12643 12649 0
-12619 -12643 12650 0
-12644 12650 0
-12619 -12644 12651 0
-12645 12651 0
-12619 -12645 0
-12620 12652 0
-12646 12652 0
-12620 -12646 12653 0
-12647 12653 0
-12620 -12647 12654 0
-12648 12654 0
-12620 -12648 12655 0
-12649 12655 0
-12620 -12649 12656 0
-12650 12656 0
-12620 -12650 12657 0
-12651 12657 0
-12620 -12651 0
-12621 -12657 0
-12664 3 0
-3 12664 0
-12665 59 0
-59 12665 0
-12666 115 0
-115 12666 0
-12667 171 0
-171 12667 0
-12668 227 0
-227 12668 0
-12669 283 0
-283 12669 0
-12670 339 0
-339 12670 0
-12664 12671 0
-12665 12672 0
-12671 12672 0
-12665 -12671 0
-12666 12673 0
-12672 12673 0
-12666 -12672 0
-12667 12674 0
-12673 12674 0
-12667 -12673 0
-12668 12675 0
-12674 12675 0
-12668 -12674 0
-12669 12676 0
-12675 12676 0
-12669 -12675 0
-12670 -12676 0
-12678 3 4 0
-3 12678 0
-4 12678 0
-12679 59 60 0
-59 12679 0
-60 12679 0
-12680 115 116 0
-115 12680 0
-116 12680 0
-12681 171 172 0
-171 12681 0
-172 12681 0
-12682 227 228 0
-227 12682 0
-228 12682 0
-12683 283 284 0
-283 12683 0
-284 12683 0
-12684 339 340 0
-339 12684 0
-340 12684 0
-12678 12685 0
-12686 0
-12679 12687 0
-12685 12687 0
-12679 -12685 12688 0
-12686 12688 0
-12679 -12686 0
-12680 12689 0
-12687 12689 0
-12680 -12687 12690 0
-12688 12690 0
-12680 -12688 0
-12681 12691 0
-12689 12691 0
-12681 -12689 12692 0
-12690 12692 0
-12681 -12690 0
-12682 12693 0
-12691 12693 0
-12682 -12691 12694 0
-12692 12694 0
-12682 -12692 0
-12683 12695 0
-12693 12695 0
-12683 -12693 12696 0
-12694 12696 0
-12683 -12694 0
-12684 -12696 0
-12699 3 4 5 0
-3 12699 0
-4 12699 0
-5 12699 0
-12700 59 60 61 0
-59 12700 0
-60 12700 0
-61 12700 0
-12701 115 116 117 0
-115 12701 0
-116 12701 0
-117 12701 0
-12702 171 172 173 0
-171 12702 0
-172 12702 0
-173 12702 0
-12703 227 228 229 0
-227 12703 0
-228 12703 0
-229 12703 0
-12704 283 284 285 0
-283 12704 0
-284 12704 0
-285 12704 0
-12705 339 340 341 0
-339 12705 0
-340 12705 0
-341 12705 0
-12699 12706 0
-12707 0
-12708 0
-12700 12709 0
-12706 12709 0
-12700 -12706 12710 0
-12707 12710 0
-12700 -12707 12711 0
-12708 12711 0
-12700 -12708 0
-12701 12712 0
-12709 12712 0
-12701 -12709 12713 0
-12710 12713 0
-12701 -12710 12714 0
-12711 12714 0
-12701 -12711 0
-12702 12715 0
-12712 12715 0
-12702 -12712 12716 0
-12713 12716 0
-12702 -12713 12717 0
-12714 12717 0
-12702 -12714 0
-12703 12718 0
-12715 12718 0
-12703 -12715 12719 0
-12716 12719 0
-12703 -12716 12720 0
-12717 12720 0
-12703 -12717 0
-12704 12721 0
-12718 12721 0
-12704 -12718 12722 0
-12719 12722 0
-12704 -12719 12723 0
-12720 12723 0
-12704 -12720 0
-12705 -12723 0
-12727 3 4 5 6 0
-3 12727 0
-4 12727 0
-5 12727 0
-6 12727 0
-12728 59 60 61 62 0
-59 12728 0
-60 12728 0
-61 12728 0
-62 12728 0
-12729 115 116 117 118 0
-115 12729 0
-116 12729 0
-117 12729 0
-118 12729 0
-12730 171 172 173 174 0
-171 12730 0
-172 12730 0
-173 12730 0
-174 12730 0
-12731 227 228 229 230 0
-227 12731 0
-228 12731 0
-229 12731 0
-230 12731 0
-12732 283 284 285 286 0
-283 12732 0
-284 12732 0
-285 12732 0
-286 12732 0
-12733 339 340 341 342 0
-339 12733 0
-340 12733 0
-341 12733 0
-342 12733 0
-12727 12734 0
-12735 0
-12736 0
-12737 0
-12728 12738 0
-12734 12738 0
-12728 -12734 12739 0
-12735 12739 0
-12728 -12735 12740 0
-12736 12740 0
-12728 -12736 12741 0
-12737 12741 0
-12728 -12737 0
-12729 12742 0
-12738 12742 0
-12729 -12738 12743 0
-12739 12743 0
-12729 -12739 12744 0
-12740 12744 0
-12729 -12740 12745 0
-12741 12745 0
-12729 -12741 0
-12730 12746 0
-12742 12746 0
-12730 -12742 12747 0
-12743 12747 0
-12730 -12743 12748 0
-12744 12748 0
-12730 -12744 12749 0
-12745 12749 0
-12730 -12745 0
-12731 12750 0
-12746 12750 0
-12731 -12746 12751 0
-12747 12751 0
-12731 -12747 12752 0
-12748 12752 0
-12731 -12748 12753 0
-12749 12753 0
-12731 -12749 0
-12732 12754 0
-12750 12754 0
-12732 -12750 12755 0
-12751 12755 0
-12732 -12751 12756 0
-12752 12756 0
-12732 -12752 12757 0
-12753 12757 0
-12732 -12753 0
-12733 -12757 0
-12762 3 4 5 6 7 0
-3 12762 0
-4 12762 0
-5 12762 0
-6 12762 0
-7 12762 0
-12763 59 60 61 62 63 0
-59 12763 0
-60 12763 0
-61 12763 0
-62 12763 0
-63 12763 0
-12764 115 116 117 118 119 0
-115 12764 0
-116 12764 0
-117 12764 0
-118 12764 0
-119 12764 0
-12765 171 172 173 174 175 0
-171 12765 0
-172 12765 0
-173 12765 0
-174 12765 0
-175 12765 0
-12766 227 228 229 230 231 0
-227 12766 0
-228 12766 0
-229 12766 0
-230 12766 0
-231 12766 0
-12767 283 284 285 286 287 0
-283 12767 0
-284 12767 0
-285 12767 0
-286 12767 0
-287 12767 0
-12768 339 340 341 342 343 0
-339 12768 0
-340 12768 0
-341 12768 0
-342 12768 0
-343 12768 0
-12762 12769 0
-12770 0
-12771 0
-12772 0
-12773 0
-12763 12774 0
-12769 12774 0
-12763 -12769 12775 0
-12770 12775 0
-12763 -12770 12776 0
-12771 12776 0
-12763 -12771 12777 0
-12772 12777 0
-12763 -12772 12778 0
-12773 12778 0
-12763 -12773 0
-12764 12779 0
-12774 12779 0
-12764 -12774 12780 0
-12775 12780 0
-12764 -12775 12781 0
-12776 12781 0
-12764 -12776 12782 0
-12777 12782 0
-12764 -12777 12783 0
-12778 12783 0
-12764 -12778 0
-12765 12784 0
-12779 12784 0
-12765 -12779 12785 0
-12780 12785 0
-12765 -12780 12786 0
-12781 12786 0
-12765 -12781 12787 0
-12782 12787 0
-12765 -12782 12788 0
-12783 12788 0
-12765 -12783 0
-12766 12789 0
-12784 12789 0
-12766 -12784 12790 0
-12785 12790 0
-12766 -12785 12791 0
-12786 12791 0
-12766 -12786 12792 0
-12787 12792 0
-12766 -12787 12793 0
-12788 12793 0
-12766 -12788 0
-12767 12794 0
-12789 12794 0
-12767 -12789 12795 0
-12790 12795 0
-12767 -12790 12796 0
-12791 12796 0
-12767 -12791 12797 0
-12792 12797 0
-12767 -12792 12798 0
-12793 12798 0
-12767 -12793 0
-12768 -12798 0
-12804 4 0
-4 12804 0
-12805 60 0
-60 12805 0
-12806 116 0
-116 12806 0
-12807 172 0
-172 12807 0
-12808 228 0
-228 12808 0
-12809 284 0
-284 12809 0
-12810 340 0
-340 12810 0
-12804 12811 0
-12805 12812 0
-12811 12812 0
-12805 -12811 0
-12806 12813 0
-12812 12813 0
-12806 -12812 0
-12807 12814 0
-12813 12814 0
-12807 -12813 0
-12808 12815 0
-12814 12815 0
-12808 -12814 0
-12809 12816 0
-12815 12816 0
-12809 -12815 0
-12810 -12816 0
-12818 4 5 0
-4 12818 0
-5 12818 0
-12819 60 61 0
-60 12819 0
-61 12819 0
-12820 116 117 0
-116 12820 0
-117 12820 0
-12821 172 173 0
-172 12821 0
-173 12821 0
-12822 228 229 0
-228 12822 0
-229 12822 0
-12823 284 285 0
-284 12823 0
-285 12823 0
-12824 340 341 0
-340 12824 0
-341 12824 0
-12818 12825 0
-12826 0
-12819 12827 0
-12825 12827 0
-12819 -12825 12828 0
-12826 12828 0
-12819 -12826 0
-12820 12829 0
-12827 12829 0
-12820 -12827 12830 0
-12828 12830 0
-12820 -12828 0
-12821 12831 0
-12829 12831 0
-12821 -12829 12832 0
-12830 12832 0
-12821 -12830 0
-12822 12833 0
-12831 12833 0
-12822 -12831 12834 0
-12832 12834 0
-12822 -12832 0
-12823 12835 0
-12833 12835 0
-12823 -12833 12836 0
-12834 12836 0
-12823 -12834 0
-12824 -12836 0
-12839 4 5 6 0
-4 12839 0
-5 12839 0
-6 12839 0
-12840 60 61 62 0
-60 12840 0
-61 12840 0
-62 12840 0
-12841 116 117 118 0
-116 12841 0
-117 12841 0
-118 12841 0
-12842 172 173 174 0
-172 12842 0
-173 12842 0
-174 12842 0
-12843 228 229 230 0
-228 12843 0
-229 12843 0
-230 12843 0
-12844 284 285 286 0
-284 12844 0
-285 12844 0
-286 12844 0
-12845 340 341 342 0
-340 12845 0
-341 12845 0
-342 12845 0
-12839 12846 0
-12847 0
-12848 0
-12840 12849 0
-12846 12849 0
-12840 -12846 12850 0
-12847 12850 0
-12840 -12847 12851 0
-12848 12851 0
-12840 -12848 0
-12841 12852 0
-12849 12852 0
-12841 -12849 12853 0
-12850 12853 0
-12841 -12850 12854 0
-12851 12854 0
-12841 -12851 0
-12842 12855 0
-12852 12855 0
-12842 -12852 12856 0
-12853 12856 0
-12842 -12853 12857 0
-12854 12857 0
-12842 -12854 0
-12843 12858 0
-12855 12858 0
-12843 -12855 12859 0
-12856 12859 0
-12843 -12856 12860 0
-12857 12860 0
-12843 -12857 0
-12844 12861 0
-12858 12861 0
-12844 -12858 12862 0
-12859 12862 0
-12844 -12859 12863 0
-12860 12863 0
-12844 -12860 0
-12845 -12863 0
-12867 4 5 6 7 0
-4 12867 0
-5 12867 0
-6 12867 0
-7 12867 0
-12868 60 61 62 63 0
-60 12868 0
-61 12868 0
-62 12868 0
-63 12868 0
-12869 116 117 118 119 0
-116 12869 0
-117 12869 0
-118 12869 0
-119 12869 0
-12870 172 173 174 175 0
-172 12870 0
-173 12870 0
-174 12870 0
-175 12870 0
-12871 228 229 230 231 0
-228 12871 0
-229 12871 0
-230 12871 0
-231 12871 0
-12872 284 285 286 287 0
-284 12872 0
-285 12872 0
-286 12872 0
-287 12872 0
-12873 340 341 342 343 0
-340 12873 0
-341 12873 0
-342 12873 0
-343 12873 0
-12867 12874 0
-12875 0
-12876 0
-12877 0
-12868 12878 0
-12874 12878 0
-12868 -12874 12879 0
-12875 12879 0
-12868 -12875 12880 0
-12876 12880 0
-12868 -12876 12881 0
-12877 12881 0
-12868 -12877 0
-12869 12882 0
-12878 12882 0
-12869 -12878 12883 0
-12879 12883 0
-12869 -12879 12884 0
-12880 12884 0
-12869 -12880 12885 0
-12881 12885 0
-12869 -12881 0
-12870 12886 0
-12882 12886 0
-12870 -12882 12887 0
-12883 12887 0
-12870 -12883 12888 0
-12884 12888 0
-12870 -12884 12889 0
-12885 12889 0
-12870 -12885 0
-12871 12890 0
-12886 12890 0
-12871 -12886 12891 0
-12887 12891 0
-12871 -12887 12892 0
-12888 12892 0
-12871 -12888 12893 0
-12889 12893 0
-12871 -12889 0
-12872 12894 0
-12890 12894 0
-12872 -12890 12895 0
-12891 12895 0
-12872 -12891 12896 0
-12892 12896 0
-12872 -12892 12897 0
-12893 12897 0
-12872 -12893 0
-12873 -12897 0
-12902 5 0
-5 12902 0
-12903 61 0
-61 12903 0
-12904 117 0
-117 12904 0
-12905 173 0
-173 12905 0
-12906 229 0
-229 12906 0
-12907 285 0
-285 12907 0
-12908 341 0
-341 12908 0
-12902 12909 0
-12903 12910 0
-12909 12910 0
-12903 -12909 0
-12904 12911 0
-12910 12911 0
-12904 -12910 0
-12905 12912 0
-12911 12912 0
-12905 -12911 0
-12906 12913 0
-12912 12913 0
-12906 -12912 0
-12907 12914 0
-12913 12914 0
-12907 -12913 0
-12908 -12914 0
-12916 5 6 0
-5 12916 0
-6 12916 0
-12917 61 62 0
-61 12917 0
-62 12917 0
-12918 117 118 0
-117 12918 0
-118 12918 0
-12919 173 174 0
-173 12919 0
-174 12919 0
-12920 229 230 0
-229 12920 0
-230 12920 0
-12921 285 286 0
-285 12921 0
-286 12921 0
-12922 341 342 0
-341 12922 0
-342 12922 0
-12916 12923 0
-12924 0
-12917 12925 0
-12923 12925 0
-12917 -12923 12926 0
-12924 12926 0
-12917 -12924 0
-12918 12927 0
-12925 12927 0
-12918 -12925 12928 0
-12926 12928 0
-12918 -12926 0
-12919 12929 0
-12927 12929 0
-12919 -12927 12930 0
-12928 12930 0
-12919 -12928 0
-12920 12931 0
-12929 12931 0
-12920 -12929 12932 0
-12930 12932 0
-12920 -12930 0
-12921 12933 0
-12931 12933 0
-12921 -12931 12934 0
-12932 12934 0
-12921 -12932 0
-12922 -12934 0
-12937 5 6 7 0
-5 12937 0
-6 12937 0
-7 12937 0
-12938 61 62 63 0
-61 12938 0
-62 12938 0
-63 12938 0
-12939 117 118 119 0
-117 12939 0
-118 12939 0
-119 12939 0
-12940 173 174 175 0
-173 12940 0
-174 12940 0
-175 12940 0
-12941 229 230 231 0
-229 12941 0
-230 12941 0
-231 12941 0
-12942 285 286 287 0
-285 12942 0
-286 12942 0
-287 12942 0
-12943 341 342 343 0
-341 12943 0
-342 12943 0
-343 12943 0
-12937 12944 0
-12945 0
-12946 0
-12938 12947 0
-12944 12947 0
-12938 -12944 12948 0
-12945 12948 0
-12938 -12945 12949 0
-12946 12949 0
-12938 -12946 0
-12939 12950 0
-12947 12950 0
-12939 -12947 12951 0
-12948 12951 0
-12939 -12948 12952 0
-12949 12952 0
-12939 -12949 0
-12940 12953 0
-12950 12953 0
-12940 -12950 12954 0
-12951 12954 0
-12940 -12951 12955 0
-12952 12955 0
-12940 -12952 0
-12941 12956 0
-12953 12956 0
-12941 -12953 12957 0
-12954 12957 0
-12941 -12954 12958 0
-12955 12958 0
-12941 -12955 0
-12942 12959 0
-12956 12959 0
-12942 -12956 12960 0
-12957 12960 0
-12942 -12957 12961 0
-12958 12961 0
-12942 -12958 0
-12943 -12961 0
-12965 6 0
-6 12965 0
-12966 62 0
-62 12966 0
-12967 118 0
-118 12967 0
-12968 174 0
-174 12968 0
-12969 230 0
-230 12969 0
-12970 286 0
-286 12970 0
-12971 342 0
-342 12971 0
-12965 12972 0
-12966 12973 0
-12972 12973 0
-12966 -12972 0
-12967 12974 0
-12973 12974 0
-12967 -12973 0
-12968 12975 0
-12974 12975 0
-12968 -12974 0
-12969 12976 0
-12975 12976 0
-12969 -12975 0
-12970 12977 0
-12976 12977 0
-12970 -12976 0
-12971 -12977 0
-12979 6 7 0
-6 12979 0
-7 12979 0
-12980 62 63 0
-62 12980 0
-63 12980 0
-12981 118 119 0
-118 12981 0
-119 12981 0
-12982 174 175 0
-174 12982 0
-175 12982 0
-12983 230 231 0
-230 12983 0
-231 12983 0
-12984 286 287 0
-286 12984 0
-287 12984 0
-12985 342 343 0
-342 12985 0
-343 12985 0
-12979 12986 0
-12987 0
-12980 12988 0
-12986 12988 0
-12980 -12986 12989 0
-12987 12989 0
-12980 -12987 0
-12981 12990 0
-12988 12990 0
-12981 -12988 12991 0
-12989 12991 0
-12981 -12989 0
-12982 12992 0
-12990 12992 0
-12982 -12990 12993 0
-12991 12993 0
-12982 -12991 0
-12983 12994 0
-12992 12994 0
-12983 -12992 12995 0
-12993 12995 0
-12983 -12993 0
-12984 12996 0
-12994 12996 0
-12984 -12994 12997 0
-12995 12997 0
-12984 -12995 0
-12985 -12997 0
-13000 7 0
-7 13000 0
-13001 63 0
-63 13001 0
-13002 119 0
-119 13002 0
-13003 175 0
-175 13003 0
-13004 231 0
-231 13004 0
-13005 287 0
-287 13005 0
-13006 343 0
-343 13006 0
-13000 13007 0
-13001 13008 0
-13007 13008 0
-13001 -13007 0
-13002 13009 0
-13008 13009 0
-13002 -13008 0
-13003 13010 0
-13009 13010 0
-13003 -13009 0
-13004 13011 0
-13010 13011 0
-13004 -13010 0
-13005 13012 0
-13011 13012 0
-13005 -13011 0
-13006 -13012 0
-13014 50 0
-50 13014 0
-13015 106 0
-106 13015 0
-13016 162 0
-162 13016 0
-13017 218 0
-218 13017 0
-13018 274 0
-274 13018 0
-13019 330 0
-330 13019 0
-13014 13020 0
-13015 13021 0
-13020 13021 0
-13015 -13020 0
-13016 13022 0
-13021 13022 0
-13016 -13021 0
-13017 13023 0
-13022 13023 0
-13017 -13022 0
-13018 13024 0
-13023 13024 0
-13018 -13023 0
-13019 -13024 0
-13026 50 51 0
-50 13026 0
-51 13026 0
-13027 106 107 0
-106 13027 0
-107 13027 0
-13028 162 163 0
-162 13028 0
-163 13028 0
-13029 218 219 0
-218 13029 0
-219 13029 0
-13030 274 275 0
-274 13030 0
-275 13030 0
-13031 330 331 0
-330 13031 0
-331 13031 0
-13026 13032 0
-13033 0
-13027 13034 0
-13032 13034 0
-13027 -13032 13035 0
-13033 13035 0
-13027 -13033 0
-13028 13036 0
-13034 13036 0
-13028 -13034 13037 0
-13035 13037 0
-13028 -13035 0
-13029 13038 0
-13036 13038 0
-13029 -13036 13039 0
-13037 13039 0
-13029 -13037 0
-13030 13040 0
-13038 13040 0
-13030 -13038 13041 0
-13039 13041 0
-13030 -13039 0
-13031 -13041 0
-13044 50 51 52 0
-50 13044 0
-51 13044 0
-52 13044 0
-13045 106 107 108 0
-106 13045 0
-107 13045 0
-108 13045 0
-13046 162 163 164 0
-162 13046 0
-163 13046 0
-164 13046 0
-13047 218 219 220 0
-218 13047 0
-219 13047 0
-220 13047 0
-13048 274 275 276 0
-274 13048 0
-275 13048 0
-276 13048 0
-13049 330 331 332 0
-330 13049 0
-331 13049 0
-332 13049 0
-13044 13050 0
-13051 0
-13052 0
-13045 13053 0
-13050 13053 0
-13045 -13050 13054 0
-13051 13054 0
-13045 -13051 13055 0
-13052 13055 0
-13045 -13052 0
-13046 13056 0
-13053 13056 0
-13046 -13053 13057 0
-13054 13057 0
-13046 -13054 13058 0
-13055 13058 0
-13046 -13055 0
-13047 13059 0
-13056 13059 0
-13047 -13056 13060 0
-13057 13060 0
-13047 -13057 13061 0
-13058 13061 0
-13047 -13058 0
-13048 13062 0
-13059 13062 0
-13048 -13059 13063 0
-13060 13063 0
-13048 -13060 13064 0
-13061 13064 0
-13048 -13061 0
-13049 -13064 0
-13068 50 51 52 53 0
-50 13068 0
-51 13068 0
-52 13068 0
-53 13068 0
-13069 106 107 108 109 0
-106 13069 0
-107 13069 0
-108 13069 0
-109 13069 0
-13070 162 163 164 165 0
-162 13070 0
-163 13070 0
-164 13070 0
-165 13070 0
-13071 218 219 220 221 0
-218 13071 0
-219 13071 0
-220 13071 0
-221 13071 0
-13072 274 275 276 277 0
-274 13072 0
-275 13072 0
-276 13072 0
-277 13072 0
-13073 330 331 332 333 0
-330 13073 0
-331 13073 0
-332 13073 0
-333 13073 0
-13068 13074 0
-13075 0
-13076 0
-13077 0
-13069 13078 0
-13074 13078 0
-13069 -13074 13079 0
-13075 13079 0
-13069 -13075 13080 0
-13076 13080 0
-13069 -13076 13081 0
-13077 13081 0
-13069 -13077 0
-13070 13082 0
-13078 13082 0
-13070 -13078 13083 0
-13079 13083 0
-13070 -13079 13084 0
-13080 13084 0
-13070 -13080 13085 0
-13081 13085 0
-13070 -13081 0
-13071 13086 0
-13082 13086 0
-13071 -13082 13087 0
-13083 13087 0
-13071 -13083 13088 0
-13084 13088 0
-13071 -13084 13089 0
-13085 13089 0
-13071 -13085 0
-13072 13090 0
-13086 13090 0
-13072 -13086 13091 0
-13087 13091 0
-13072 -13087 13092 0
-13088 13092 0
-13072 -13088 13093 0
-13089 13093 0
-13072 -13089 0
-13073 -13093 0
-13098 50 51 52 53 54 0
-50 13098 0
-51 13098 0
-52 13098 0
-53 13098 0
-54 13098 0
-13099 106 107 108 109 110 0
-106 13099 0
-107 13099 0
-108 13099 0
-109 13099 0
-110 13099 0
-13100 162 163 164 165 166 0
-162 13100 0
-163 13100 0
-164 13100 0
-165 13100 0
-166 13100 0
-13101 218 219 220 221 222 0
-218 13101 0
-219 13101 0
-220 13101 0
-221 13101 0
-222 13101 0
-13102 274 275 276 277 278 0
-274 13102 0
-275 13102 0
-276 13102 0
-277 13102 0
-278 13102 0
-13103 330 331 332 333 334 0
-330 13103 0
-331 13103 0
-332 13103 0
-333 13103 0
-334 13103 0
-13098 13104 0
-13105 0
-13106 0
-13107 0
-13108 0
-13099 13109 0
-13104 13109 0
-13099 -13104 13110 0
-13105 13110 0
-13099 -13105 13111 0
-13106 13111 0
-13099 -13106 13112 0
-13107 13112 0
-13099 -13107 13113 0
-13108 13113 0
-13099 -13108 0
-13100 13114 0
-13109 13114 0
-13100 -13109 13115 0
-13110 13115 0
-13100 -13110 13116 0
-13111 13116 0
-13100 -13111 13117 0
-13112 13117 0
-13100 -13112 13118 0
-13113 13118 0
-13100 -13113 0
-13101 13119 0
-13114 13119 0
-13101 -13114 13120 0
-13115 13120 0
-13101 -13115 13121 0
-13116 13121 0
-13101 -13116 13122 0
-13117 13122 0
-13101 -13117 13123 0
-13118 13123 0
-13101 -13118 0
-13102 13124 0
-13119 13124 0
-13102 -13119 13125 0
-13120 13125 0
-13102 -13120 13126 0
-13121 13126 0
-13102 -13121 13127 0
-13122 13127 0
-13102 -13122 13128 0
-13123 13128 0
-13102 -13123 0
-13103 -13128 0
-13134 50 51 52 53 54 55 0
-50 13134 0
-51 13134 0
-52 13134 0
-53 13134 0
-54 13134 0
-55 13134 0
-13135 106 107 108 109 110 111 0
-106 13135 0
-107 13135 0
-108 13135 0
-109 13135 0
-110 13135 0
-111 13135 0
-13136 162 163 164 165 166 167 0
-162 13136 0
-163 13136 0
-164 13136 0
-165 13136 0
-166 13136 0
-167 13136 0
-13137 218 219 220 221 222 223 0
-218 13137 0
-219 13137 0
-220 13137 0
-221 13137 0
-222 13137 0
-223 13137 0
-13138 274 275 276 277 278 279 0
-274 13138 0
-275 13138 0
-276 13138 0
-277 13138 0
-278 13138 0
-279 13138 0
-13139 330 331 332 333 334 335 0
-330 13139 0
-331 13139 0
-332 13139 0
-333 13139 0
-334 13139 0
-335 13139 0
-13140 51 0
-51 13140 0
-13141 107 0
-107 13141 0
-13142 163 0
-163 13142 0
-13143 219 0
-219 13143 0
-13144 275 0
-275 13144 0
-13145 331 0
-331 13145 0
-13140 13146 0
-13141 13147 0
-13146 13147 0
-13141 -13146 0
-13142 13148 0
-13147 13148 0
-13142 -13147 0
-13143 13149 0
-13148 13149 0
-13143 -13148 0
-13144 13150 0
-13149 13150 0
-13144 -13149 0
-13145 -13150 0
-13152 51 52 0
-51 13152 0
-52 13152 0
-13153 107 108 0
-107 13153 0
-108 13153 0
-13154 163 164 0
-163 13154 0
-164 13154 0
-13155 219 220 0
-219 13155 0
-220 13155 0
-13156 275 276 0
-275 13156 0
-276 13156 0
-13157 331 332 0
-331 13157 0
-332 13157 0
-13152 13158 0
-13159 0
-13153 13160 0
-13158 13160 0
-13153 -13158 13161 0
-13159 13161 0
-13153 -13159 0
-13154 13162 0
-13160 13162 0
-13154 -13160 13163 0
-13161 13163 0
-13154 -13161 0
-13155 13164 0
-13162 13164 0
-13155 -13162 13165 0
-13163 13165 0
-13155 -13163 0
-13156 13166 0
-13164 13166 0
-13156 -13164 13167 0
-13165 13167 0
-13156 -13165 0
-13157 -13167 0
-13170 51 52 53 0
-51 13170 0
-52 13170 0
-53 13170 0
-13171 107 108 109 0
-107 13171 0
-108 13171 0
-109 13171 0
-13172 163 164 165 0
-163 13172 0
-164 13172 0
-165 13172 0
-13173 219 220 221 0
-219 13173 0
-220 13173 0
-221 13173 0
-13174 275 276 277 0
-275 13174 0
-276 13174 0
-277 13174 0
-13175 331 332 333 0
-331 13175 0
-332 13175 0
-333 13175 0
-13170 13176 0
-13177 0
-13178 0
-13171 13179 0
-13176 13179 0
-13171 -13176 13180 0
-13177 13180 0
-13171 -13177 13181 0
-13178 13181 0
-13171 -13178 0
-13172 13182 0
-13179 13182 0
-13172 -13179 13183 0
-13180 13183 0
-13172 -13180 13184 0
-13181 13184 0
-13172 -13181 0
-13173 13185 0
-13182 13185 0
-13173 -13182 13186 0
-13183 13186 0
-13173 -13183 13187 0
-13184 13187 0
-13173 -13184 0
-13174 13188 0
-13185 13188 0
-13174 -13185 13189 0
-13186 13189 0
-13174 -13186 13190 0
-13187 13190 0
-13174 -13187 0
-13175 -13190 0
-13194 51 52 53 54 0
-51 13194 0
-52 13194 0
-53 13194 0
-54 13194 0
-13195 107 108 109 110 0
-107 13195 0
-108 13195 0
-109 13195 0
-110 13195 0
-13196 163 164 165 166 0
-163 13196 0
-164 13196 0
-165 13196 0
-166 13196 0
-13197 219 220 221 222 0
-219 13197 0
-220 13197 0
-221 13197 0
-222 13197 0
-13198 275 276 277 278 0
-275 13198 0
-276 13198 0
-277 13198 0
-278 13198 0
-13199 331 332 333 334 0
-331 13199 0
-332 13199 0
-333 13199 0
-334 13199 0
-13194 13200 0
-13201 0
-13202 0
-13203 0
-13195 13204 0
-13200 13204 0
-13195 -13200 13205 0
-13201 13205 0
-13195 -13201 13206 0
-13202 13206 0
-13195 -13202 13207 0
-13203 13207 0
-13195 -13203 0
-13196 13208 0
-13204 13208 0
-13196 -13204 13209 0
-13205 13209 0
-13196 -13205 13210 0
-13206 13210 0
-13196 -13206 13211 0
-13207 13211 0
-13196 -13207 0
-13197 13212 0
-13208 13212 0
-13197 -13208 13213 0
-13209 13213 0
-13197 -13209 13214 0
-13210 13214 0
-13197 -13210 13215 0
-13211 13215 0
-13197 -13211 0
-13198 13216 0
-13212 13216 0
-13198 -13212 13217 0
-13213 13217 0
-13198 -13213 13218 0
-13214 13218 0
-13198 -13214 13219 0
-13215 13219 0
-13198 -13215 0
-13199 -13219 0
-13224 51 52 53 54 55 0
-51 13224 0
-52 13224 0
-53 13224 0
-54 13224 0
-55 13224 0
-13225 107 108 109 110 111 0
-107 13225 0
-108 13225 0
-109 13225 0
-110 13225 0
-111 13225 0
-13226 163 164 165 166 167 0
-163 13226 0
-164 13226 0
-165 13226 0
-166 13226 0
-167 13226 0
-13227 219 220 221 222 223 0
-219 13227 0
-220 13227 0
-221 13227 0
-222 13227 0
-223 13227 0
-13228 275 276 277 278 279 0
-275 13228 0
-276 13228 0
-277 13228 0
-278 13228 0
-279 13228 0
-13229 331 332 333 334 335 0
-331 13229 0
-332 13229 0
-333 13229 0
-334 13229 0
-335 13229 0
-13224 13230 0
-13231 0
-13232 0
-13233 0
-13234 0
-13225 13235 0
-13230 13235 0
-13225 -13230 13236 0
-13231 13236 0
-13225 -13231 13237 0
-13232 13237 0
-13225 -13232 13238 0
-13233 13238 0
-13225 -13233 13239 0
-13234 13239 0
-13225 -13234 0
-13226 13240 0
-13235 13240 0
-13226 -13235 13241 0
-13236 13241 0
-13226 -13236 13242 0
-13237 13242 0
-13226 -13237 13243 0
-13238 13243 0
-13226 -13238 13244 0
-13239 13244 0
-13226 -13239 0
-13227 13245 0
-13240 13245 0
-13227 -13240 13246 0
-13241 13246 0
-13227 -13241 13247 0
-13242 13247 0
-13227 -13242 13248 0
-13243 13248 0
-13227 -13243 13249 0
-13244 13249 0
-13227 -13244 0
-13228 13250 0
-13245 13250 0
-13228 -13245 13251 0
-13246 13251 0
-13228 -13246 13252 0
-13247 13252 0
-13228 -13247 13253 0
-13248 13253 0
-13228 -13248 13254 0
-13249 13254 0
-13228 -13249 0
-13229 -13254 0
-13260 51 52 53 54 55 56 0
-51 13260 0
-52 13260 0
-53 13260 0
-54 13260 0
-55 13260 0
-56 13260 0
-13261 107 108 109 110 111 112 0
-107 13261 0
-108 13261 0
-109 13261 0
-110 13261 0
-111 13261 0
-112 13261 0
-13262 163 164 165 166 167 168 0
-163 13262 0
-164 13262 0
-165 13262 0
-166 13262 0
-167 13262 0
-168 13262 0
-13263 219 220 221 222 223 224 0
-219 13263 0
-220 13263 0
-221 13263 0
-222 13263 0
-223 13263 0
-224 13263 0
-13264 275 276 277 278 279 280 0
-275 13264 0
-276 13264 0
-277 13264 0
-278 13264 0
-279 13264 0
-280 13264 0
-13265 331 332 333 334 335 336 0
-331 13265 0
-332 13265 0
-333 13265 0
-334 13265 0
-335 13265 0
-336 13265 0
-13266 52 0
-52 13266 0
-13267 108 0
-108 13267 0
-13268 164 0
-164 13268 0
-13269 220 0
-220 13269 0
-13270 276 0
-276 13270 0
-13271 332 0
-332 13271 0
-13266 13272 0
-13267 13273 0
-13272 13273 0
-13267 -13272 0
-13268 13274 0
-13273 13274 0
-13268 -13273 0
-13269 13275 0
-13274 13275 0
-13269 -13274 0
-13270 13276 0
-13275 13276 0
-13270 -13275 0
-13271 -13276 0
-13278 52 53 0
-52 13278 0
-53 13278 0
-13279 108 109 0
-108 13279 0
-109 13279 0
-13280 164 165 0
-164 13280 0
-165 13280 0
-13281 220 221 0
-220 13281 0
-221 13281 0
-13282 276 277 0
-276 13282 0
-277 13282 0
-13283 332 333 0
-332 13283 0
-333 13283 0
-13278 13284 0
-13285 0
-13279 13286 0
-13284 13286 0
-13279 -13284 13287 0
-13285 13287 0
-13279 -13285 0
-13280 13288 0
-13286 13288 0
-13280 -13286 13289 0
-13287 13289 0
-13280 -13287 0
-13281 13290 0
-13288 13290 0
-13281 -13288 13291 0
-13289 13291 0
-13281 -13289 0
-13282 13292 0
-13290 13292 0
-13282 -13290 13293 0
-13291 13293 0
-13282 -13291 0
-13283 -13293 0
-13296 52 53 54 0
-52 13296 0
-53 13296 0
-54 13296 0
-13297 108 109 110 0
-108 13297 0
-109 13297 0
-110 13297 0
-13298 164 165 166 0
-164 13298 0
-165 13298 0
-166 13298 0
-13299 220 221 222 0
-220 13299 0
-221 13299 0
-222 13299 0
-13300 276 277 278 0
-276 13300 0
-277 13300 0
-278 13300 0
-13301 332 333 334 0
-332 13301 0
-333 13301 0
-334 13301 0
-13296 13302 0
-13303 0
-13304 0
-13297 13305 0
-13302 13305 0
-13297 -13302 13306 0
-13303 13306 0
-13297 -13303 13307 0
-13304 13307 0
-13297 -13304 0
-13298 13308 0
-13305 13308 0
-13298 -13305 13309 0
-13306 13309 0
-13298 -13306 13310 0
-13307 13310 0
-13298 -13307 0
-13299 13311 0
-13308 13311 0
-13299 -13308 13312 0
-13309 13312 0
-13299 -13309 13313 0
-13310 13313 0
-13299 -13310 0
-13300 13314 0
-13311 13314 0
-13300 -13311 13315 0
-13312 13315 0
-13300 -13312 13316 0
-13313 13316 0
-13300 -13313 0
-13301 -13316 0
-13320 52 53 54 55 0
-52 13320 0
-53 13320 0
-54 13320 0
-55 13320 0
-13321 108 109 110 111 0
-108 13321 0
-109 13321 0
-110 13321 0
-111 13321 0
-13322 164 165 166 167 0
-164 13322 0
-165 13322 0
-166 13322 0
-167 13322 0
-13323 220 221 222 223 0
-220 13323 0
-221 13323 0
-222 13323 0
-223 13323 0
-13324 276 277 278 279 0
-276 13324 0
-277 13324 0
-278 13324 0
-279 13324 0
-13325 332 333 334 335 0
-332 13325 0
-333 13325 0
-334 13325 0
-335 13325 0
-13320 13326 0
-13327 0
-13328 0
-13329 0
-13321 13330 0
-13326 13330 0
-13321 -13326 13331 0
-13327 13331 0
-13321 -13327 13332 0
-13328 13332 0
-13321 -13328 13333 0
-13329 13333 0
-13321 -13329 0
-13322 13334 0
-13330 13334 0
-13322 -13330 13335 0
-13331 13335 0
-13322 -13331 13336 0
-13332 13336 0
-13322 -13332 13337 0
-13333 13337 0
-13322 -13333 0
-13323 13338 0
-13334 13338 0
-13323 -13334 13339 0
-13335 13339 0
-13323 -13335 13340 0
-13336 13340 0
-13323 -13336 13341 0
-13337 13341 0
-13323 -13337 0
-13324 13342 0
-13338 13342 0
-13324 -13338 13343 0
-13339 13343 0
-13324 -13339 13344 0
-13340 13344 0
-13324 -13340 13345 0
-13341 13345 0
-13324 -13341 0
-13325 -13345 0
-13350 52 53 54 55 56 0
-52 13350 0
-53 13350 0
-54 13350 0
-55 13350 0
-56 13350 0
-13351 108 109 110 111 112 0
-108 13351 0
-109 13351 0
-110 13351 0
-111 13351 0
-112 13351 0
-13352 164 165 166 167 168 0
-164 13352 0
-165 13352 0
-166 13352 0
-167 13352 0
-168 13352 0
-13353 220 221 222 223 224 0
-220 13353 0
-221 13353 0
-222 13353 0
-223 13353 0
-224 13353 0
-13354 276 277 278 279 280 0
-276 13354 0
-277 13354 0
-278 13354 0
-279 13354 0
-280 13354 0
-13355 332 333 334 335 336 0
-332 13355 0
-333 13355 0
-334 13355 0
-335 13355 0
-336 13355 0
-13350 13356 0
-13357 0
-13358 0
-13359 0
-13360 0
-13351 13361 0
-13356 13361 0
-13351 -13356 13362 0
-13357 13362 0
-13351 -13357 13363 0
-13358 13363 0
-13351 -13358 13364 0
-13359 13364 0
-13351 -13359 13365 0
-13360 13365 0
-13351 -13360 0
-13352 13366 0
-13361 13366 0
-13352 -13361 13367 0
-13362 13367 0
-13352 -13362 13368 0
-13363 13368 0
-13352 -13363 13369 0
-13364 13369 0
-13352 -13364 13370 0
-13365 13370 0
-13352 -13365 0
-13353 13371 0
-13366 13371 0
-13353 -13366 13372 0
-13367 13372 0
-13353 -13367 13373 0
-13368 13373 0
-13353 -13368 13374 0
-13369 13374 0
-13353 -13369 13375 0
-13370 13375 0
-13353 -13370 0
-13354 13376 0
-13371 13376 0
-13354 -13371 13377 0
-13372 13377 0
-13354 -13372 13378 0
-13373 13378 0
-13354 -13373 13379 0
-13374 13379 0
-13354 -13374 13380 0
-13375 13380 0
-13354 -13375 0
-13355 -13380 0
-13386 53 0
-53 13386 0
-13387 109 0
-109 13387 0
-13388 165 0
-165 13388 0
-13389 221 0
-221 13389 0
-13390 277 0
-277 13390 0
-13391 333 0
-333 13391 0
-13386 13392 0
-13387 13393 0
-13392 13393 0
-13387 -13392 0
-13388 13394 0
-13393 13394 0
-13388 -13393 0
-13389 13395 0
-13394 13395 0
-13389 -13394 0
-13390 13396 0
-13395 13396 0
-13390 -13395 0
-13391 -13396 0
-13398 53 54 0
-53 13398 0
-54 13398 0
-13399 109 110 0
-109 13399 0
-110 13399 0
-13400 165 166 0
-165 13400 0
-166 13400 0
-13401 221 222 0
-221 13401 0
-222 13401 0
-13402 277 278 0
-277 13402 0
-278 13402 0
-13403 333 334 0
-333 13403 0
-334 13403 0
-13398 13404 0
-13405 0
-13399 13406 0
-13404 13406 0
-13399 -13404 13407 0
-13405 13407 0
-13399 -13405 0
-13400 13408 0
-13406 13408 0
-13400 -13406 13409 0
-13407 13409 0
-13400 -13407 0
-13401 13410 0
-13408 13410 0
-13401 -13408 13411 0
-13409 13411 0
-13401 -13409 0
-13402 13412 0
-13410 13412 0
-13402 -13410 13413 0
-13411 13413 0
-13402 -13411 0
-13403 -13413 0
-13416 53 54 55 0
-53 13416 0
-54 13416 0
-55 13416 0
-13417 109 110 111 0
-109 13417 0
-110 13417 0
-111 13417 0
-13418 165 166 167 0
-165 13418 0
-166 13418 0
-167 13418 0
-13419 221 222 223 0
-221 13419 0
-222 13419 0
-223 13419 0
-13420 277 278 279 0
-277 13420 0
-278 13420 0
-279 13420 0
-13421 333 334 335 0
-333 13421 0
-334 13421 0
-335 13421 0
-13416 13422 0
-13423 0
-13424 0
-13417 13425 0
-13422 13425 0
-13417 -13422 13426 0
-13423 13426 0
-13417 -13423 13427 0
-13424 13427 0
-13417 -13424 0
-13418 13428 0
-13425 13428 0
-13418 -13425 13429 0
-13426 13429 0
-13418 -13426 13430 0
-13427 13430 0
-13418 -13427 0
-13419 13431 0
-13428 13431 0
-13419 -13428 13432 0
-13429 13432 0
-13419 -13429 13433 0
-13430 13433 0
-13419 -13430 0
-13420 13434 0
-13431 13434 0
-13420 -13431 13435 0
-13432 13435 0
-13420 -13432 13436 0
-13433 13436 0
-13420 -13433 0
-13421 -13436 0
-13440 53 54 55 56 0
-53 13440 0
-54 13440 0
-55 13440 0
-56 13440 0
-13441 109 110 111 112 0
-109 13441 0
-110 13441 0
-111 13441 0
-112 13441 0
-13442 165 166 167 168 0
-165 13442 0
-166 13442 0
-167 13442 0
-168 13442 0
-13443 221 222 223 224 0
-221 13443 0
-222 13443 0
-223 13443 0
-224 13443 0
-13444 277 278 279 280 0
-277 13444 0
-278 13444 0
-279 13444 0
-280 13444 0
-13445 333 334 335 336 0
-333 13445 0
-334 13445 0
-335 13445 0
-336 13445 0
-13440 13446 0
-13447 0
-13448 0
-13449 0
-13441 13450 0
-13446 13450 0
-13441 -13446 13451 0
-13447 13451 0
-13441 -13447 13452 0
-13448 13452 0
-13441 -13448 13453 0
-13449 13453 0
-13441 -13449 0
-13442 13454 0
-13450 13454 0
-13442 -13450 13455 0
-13451 13455 0
-13442 -13451 13456 0
-13452 13456 0
-13442 -13452 13457 0
-13453 13457 0
-13442 -13453 0
-13443 13458 0
-13454 13458 0
-13443 -13454 13459 0
-13455 13459 0
-13443 -13455 13460 0
-13456 13460 0
-13443 -13456 13461 0
-13457 13461 0
-13443 -13457 0
-13444 13462 0
-13458 13462 0
-13444 -13458 13463 0
-13459 13463 0
-13444 -13459 13464 0
-13460 13464 0
-13444 -13460 13465 0
-13461 13465 0
-13444 -13461 0
-13445 -13465 0
-13470 54 0
-54 13470 0
-13471 110 0
-110 13471 0
-13472 166 0
-166 13472 0
-13473 222 0
-222 13473 0
-13474 278 0
-278 13474 0
-13475 334 0
-334 13475 0
-13470 13476 0
-13471 13477 0
-13476 13477 0
-13471 -13476 0
-13472 13478 0
-13477 13478 0
-13472 -13477 0
-13473 13479 0
-13478 13479 0
-13473 -13478 0
-13474 13480 0
-13479 13480 0
-13474 -13479 0
-13475 -13480 0
-13482 54 55 0
-54 13482 0
-55 13482 0
-13483 110 111 0
-110 13483 0
-111 13483 0
-13484 166 167 0
-166 13484 0
-167 13484 0
-13485 222 223 0
-222 13485 0
-223 13485 0
-13486 278 279 0
-278 13486 0
-279 13486 0
-13487 334 335 0
-334 13487 0
-335 13487 0
-13482 13488 0
-13489 0
-13483 13490 0
-13488 13490 0
-13483 -13488 13491 0
-13489 13491 0
-13483 -13489 0
-13484 13492 0
-13490 13492 0
-13484 -13490 13493 0
-13491 13493 0
-13484 -13491 0
-13485 13494 0
-13492 13494 0
-13485 -13492 13495 0
-13493 13495 0
-13485 -13493 0
-13486 13496 0
-13494 13496 0
-13486 -13494 13497 0
-13495 13497 0
-13486 -13495 0
-13487 -13497 0
-13500 54 55 56 0
-54 13500 0
-55 13500 0
-56 13500 0
-13501 110 111 112 0
-110 13501 0
-111 13501 0
-112 13501 0
-13502 166 167 168 0
-166 13502 0
-167 13502 0
-168 13502 0
-13503 222 223 224 0
-222 13503 0
-223 13503 0
-224 13503 0
-13504 278 279 280 0
-278 13504 0
-279 13504 0
-280 13504 0
-13505 334 335 336 0
-334 13505 0
-335 13505 0
-336 13505 0
-13500 13506 0
-13507 0
-13508 0
-13501 13509 0
-13506 13509 0
-13501 -13506 13510 0
-13507 13510 0
-13501 -13507 13511 0
-13508 13511 0
-13501 -13508 0
-13502 13512 0
-13509 13512 0
-13502 -13509 13513 0
-13510 13513 0
-13502 -13510 13514 0
-13511 13514 0
-13502 -13511 0
-13503 13515 0
-13512 13515 0
-13503 -13512 13516 0
-13513 13516 0
-13503 -13513 13517 0
-13514 13517 0
-13503 -13514 0
-13504 13518 0
-13515 13518 0
-13504 -13515 13519 0
-13516 13519 0
-13504 -13516 13520 0
-13517 13520 0
-13504 -13517 0
-13505 -13520 0
-13524 55 0
-55 13524 0
-13525 111 0
-111 13525 0
-13526 167 0
-167 13526 0
-13527 223 0
-223 13527 0
-13528 279 0
-279 13528 0
-13529 335 0
-335 13529 0
-13524 13530 0
-13525 13531 0
-13530 13531 0
-13525 -13530 0
-13526 13532 0
-13531 13532 0
-13526 -13531 0
-13527 13533 0
-13532 13533 0
-13527 -13532 0
-13528 13534 0
-13533 13534 0
-13528 -13533 0
-13529 -13534 0
-13536 55 56 0
-55 13536 0
-56 13536 0
-13537 111 112 0
-111 13537 0
-112 13537 0
-13538 167 168 0
-167 13538 0
-168 13538 0
-13539 223 224 0
-223 13539 0
-224 13539 0
-13540 279 280 0
-279 13540 0
-280 13540 0
-13541 335 336 0
-335 13541 0
-336 13541 0
-13536 13542 0
-13543 0
-13537 13544 0
-13542 13544 0
-13537 -13542 13545 0
-13543 13545 0
-13537 -13543 0
-13538 13546 0
-13544 13546 0
-13538 -13544 13547 0
-13545 13547 0
-13538 -13545 0
-13539 13548 0
-13546 13548 0
-13539 -13546 13549 0
-13547 13549 0
-13539 -13547 0
-13540 13550 0
-13548 13550 0
-13540 -13548 13551 0
-13549 13551 0
-13540 -13549 0
-13541 -13551 0
-13554 56 0
-56 13554 0
-13555 112 0
-112 13555 0
-13556 168 0
-168 13556 0
-13557 224 0
-224 13557 0
-13558 280 0
-280 13558 0
-13559 336 0
-336 13559 0
-13554 13560 0
-13555 13561 0
-13560 13561 0
-13555 -13560 0
-13556 13562 0
-13561 13562 0
-13556 -13561 0
-13557 13563 0
-13562 13563 0
-13557 -13562 0
-13558 13564 0
-13563 13564 0
-13558 -13563 0
-13559 -13564 0
-13566 99 0
-99 13566 0
-13567 155 0
-155 13567 0
-13568 211 0
-211 13568 0
-13569 267 0
-267 13569 0
-13570 323 0
-323 13570 0
-13566 13571 0
-13567 13572 0
-13571 13572 0
-13567 -13571 0
-13568 13573 0
-13572 13573 0
-13568 -13572 0
-13569 13574 0
-13573 13574 0
-13569 -13573 0
-13570 -13574 0
-13576 99 100 0
-99 13576 0
-100 13576 0
-13577 155 156 0
-155 13577 0
-156 13577 0
-13578 211 212 0
-211 13578 0
-212 13578 0
-13579 267 268 0
-267 13579 0
-268 13579 0
-13580 323 324 0
-323 13580 0
-324 13580 0
-13576 13581 0
-13582 0
-13577 13583 0
-13581 13583 0
-13577 -13581 13584 0
-13582 13584 0
-13577 -13582 0
-13578 13585 0
-13583 13585 0
-13578 -13583 13586 0
-13584 13586 0
-13578 -13584 0
-13579 13587 0
-13585 13587 0
-13579 -13585 13588 0
-13586 13588 0
-13579 -13586 0
-13580 -13588 0
-13591 99 100 101 0
-99 13591 0
-100 13591 0
-101 13591 0
-13592 155 156 157 0
-155 13592 0
-156 13592 0
-157 13592 0
-13593 211 212 213 0
-211 13593 0
-212 13593 0
-213 13593 0
-13594 267 268 269 0
-267 13594 0
-268 13594 0
-269 13594 0
-13595 323 324 325 0
-323 13595 0
-324 13595 0
-325 13595 0
-13591 13596 0
-13597 0
-13598 0
-13592 13599 0
-13596 13599 0
-13592 -13596 13600 0
-13597 13600 0
-13592 -13597 13601 0
-13598 13601 0
-13592 -13598 0
-13593 13602 0
-13599 13602 0
-13593 -13599 13603 0
-13600 13603 0
-13593 -13600 13604 0
-13601 13604 0
-13593 -13601 0
-13594 13605 0
-13602 13605 0
-13594 -13602 13606 0
-13603 13606 0
-13594 -13603 13607 0
-13604 13607 0
-13594 -13604 0
-13595 -13607 0
-13611 99 100 101 102 0
-99 13611 0
-100 13611 0
-101 13611 0
-102 13611 0
-13612 155 156 157 158 0
-155 13612 0
-156 13612 0
-157 13612 0
-158 13612 0
-13613 211 212 213 214 0
-211 13613 0
-212 13613 0
-213 13613 0
-214 13613 0
-13614 267 268 269 270 0
-267 13614 0
-268 13614 0
-269 13614 0
-270 13614 0
-13615 323 324 325 326 0
-323 13615 0
-324 13615 0
-325 13615 0
-326 13615 0
-13611 13616 0
-13617 0
-13618 0
-13619 0
-13612 13620 0
-13616 13620 0
-13612 -13616 13621 0
-13617 13621 0
-13612 -13617 13622 0
-13618 13622 0
-13612 -13618 13623 0
-13619 13623 0
-13612 -13619 0
-13613 13624 0
-13620 13624 0
-13613 -13620 13625 0
-13621 13625 0
-13613 -13621 13626 0
-13622 13626 0
-13613 -13622 13627 0
-13623 13627 0
-13613 -13623 0
-13614 13628 0
-13624 13628 0
-13614 -13624 13629 0
-13625 13629 0
-13614 -13625 13630 0
-13626 13630 0
-13614 -13626 13631 0
-13627 13631 0
-13614 -13627 0
-13615 -13631 0
-13636 99 100 101 102 103 0
-99 13636 0
-100 13636 0
-101 13636 0
-102 13636 0
-103 13636 0
-13637 155 156 157 158 159 0
-155 13637 0
-156 13637 0
-157 13637 0
-158 13637 0
-159 13637 0
-13638 211 212 213 214 215 0
-211 13638 0
-212 13638 0
-213 13638 0
-214 13638 0
-215 13638 0
-13639 267 268 269 270 271 0
-267 13639 0
-268 13639 0
-269 13639 0
-270 13639 0
-271 13639 0
-13640 323 324 325 326 327 0
-323 13640 0
-324 13640 0
-325 13640 0
-326 13640 0
-327 13640 0
-13641 100 0
-100 13641 0
-13642 156 0
-156 13642 0
-13643 212 0
-212 13643 0
-13644 268 0
-268 13644 0
-13645 324 0
-324 13645 0
-13641 13646 0
-13642 13647 0
-13646 13647 0
-13642 -13646 0
-13643 13648 0
-13647 13648 0
-13643 -13647 0
-13644 13649 0
-13648 13649 0
-13644 -13648 0
-13645 -13649 0
-13651 100 101 0
-100 13651 0
-101 13651 0
-13652 156 157 0
-156 13652 0
-157 13652 0
-13653 212 213 0
-212 13653 0
-213 13653 0
-13654 268 269 0
-268 13654 0
-269 13654 0
-13655 324 325 0
-324 13655 0
-325 13655 0
-13651 13656 0
-13657 0
-13652 13658 0
-13656 13658 0
-13652 -13656 13659 0
-13657 13659 0
-13652 -13657 0
-13653 13660 0
-13658 13660 0
-13653 -13658 13661 0
-13659 13661 0
-13653 -13659 0
-13654 13662 0
-13660 13662 0
-13654 -13660 13663 0
-13661 13663 0
-13654 -13661 0
-13655 -13663 0
-13666 100 101 102 0
-100 13666 0
-101 13666 0
-102 13666 0
-13667 156 157 158 0
-156 13667 0
-157 13667 0
-158 13667 0
-13668 212 213 214 0
-212 13668 0
-213 13668 0
-214 13668 0
-13669 268 269 270 0
-268 13669 0
-269 13669 0
-270 13669 0
-13670 324 325 326 0
-324 13670 0
-325 13670 0
-326 13670 0
-13666 13671 0
-13672 0
-13673 0
-13667 13674 0
-13671 13674 0
-13667 -13671 13675 0
-13672 13675 0
-13667 -13672 13676 0
-13673 13676 0
-13667 -13673 0
-13668 13677 0
-13674 13677 0
-13668 -13674 13678 0
-13675 13678 0
-13668 -13675 13679 0
-13676 13679 0
-13668 -13676 0
-13669 13680 0
-13677 13680 0
-13669 -13677 13681 0
-13678 13681 0
-13669 -13678 13682 0
-13679 13682 0
-13669 -13679 0
-13670 -13682 0
-13686 100 101 102 103 0
-100 13686 0
-101 13686 0
-102 13686 0
-103 13686 0
-13687 156 157 158 159 0
-156 13687 0
-157 13687 0
-158 13687 0
-159 13687 0
-13688 212 213 214 215 0
-212 13688 0
-213 13688 0
-214 13688 0
-215 13688 0
-13689 268 269 270 271 0
-268 13689 0
-269 13689 0
-270 13689 0
-271 13689 0
-13690 324 325 326 327 0
-324 13690 0
-325 13690 0
-326 13690 0
-327 13690 0
-13686 13691 0
-13692 0
-13693 0
-13694 0
-13687 13695 0
-13691 13695 0
-13687 -13691 13696 0
-13692 13696 0
-13687 -13692 13697 0
-13693 13697 0
-13687 -13693 13698 0
-13694 13698 0
-13687 -13694 0
-13688 13699 0
-13695 13699 0
-13688 -13695 13700 0
-13696 13700 0
-13688 -13696 13701 0
-13697 13701 0
-13688 -13697 13702 0
-13698 13702 0
-13688 -13698 0
-13689 13703 0
-13699 13703 0
-13689 -13699 13704 0
-13700 13704 0
-13689 -13700 13705 0
-13701 13705 0
-13689 -13701 13706 0
-13702 13706 0
-13689 -13702 0
-13690 -13706 0
-13711 100 101 102 103 104 0
-100 13711 0
-101 13711 0
-102 13711 0
-103 13711 0
-104 13711 0
-13712 156 157 158 159 160 0
-156 13712 0
-157 13712 0
-158 13712 0
-159 13712 0
-160 13712 0
-13713 212 213 214 215 216 0
-212 13713 0
-213 13713 0
-214 13713 0
-215 13713 0
-216 13713 0
-13714 268 269 270 271 272 0
-268 13714 0
-269 13714 0
-270 13714 0
-271 13714 0
-272 13714 0
-13715 324 325 326 327 328 0
-324 13715 0
-325 13715 0
-326 13715 0
-327 13715 0
-328 13715 0
-13716 101 0
-101 13716 0
-13717 157 0
-157 13717 0
-13718 213 0
-213 13718 0
-13719 269 0
-269 13719 0
-13720 325 0
-325 13720 0
-13716 13721 0
-13717 13722 0
-13721 13722 0
-13717 -13721 0
-13718 13723 0
-13722 13723 0
-13718 -13722 0
-13719 13724 0
-13723 13724 0
-13719 -13723 0
-13720 -13724 0
-13726 101 102 0
-101 13726 0
-102 13726 0
-13727 157 158 0
-157 13727 0
-158 13727 0
-13728 213 214 0
-213 13728 0
-214 13728 0
-13729 269 270 0
-269 13729 0
-270 13729 0
-13730 325 326 0
-325 13730 0
-326 13730 0
-13726 13731 0
-13732 0
-13727 13733 0
-13731 13733 0
-13727 -13731 13734 0
-13732 13734 0
-13727 -13732 0
-13728 13735 0
-13733 13735 0
-13728 -13733 13736 0
-13734 13736 0
-13728 -13734 0
-13729 13737 0
-13735 13737 0
-13729 -13735 13738 0
-13736 13738 0
-13729 -13736 0
-13730 -13738 0
-13741 101 102 103 0
-101 13741 0
-102 13741 0
-103 13741 0
-13742 157 158 159 0
-157 13742 0
-158 13742 0
-159 13742 0
-13743 213 214 215 0
-213 13743 0
-214 13743 0
-215 13743 0
-13744 269 270 271 0
-269 13744 0
-270 13744 0
-271 13744 0
-13745 325 326 327 0
-325 13745 0
-326 13745 0
-327 13745 0
-13741 13746 0
-13747 0
-13748 0
-13742 13749 0
-13746 13749 0
-13742 -13746 13750 0
-13747 13750 0
-13742 -13747 13751 0
-13748 13751 0
-13742 -13748 0
-13743 13752 0
-13749 13752 0
-13743 -13749 13753 0
-13750 13753 0
-13743 -13750 13754 0
-13751 13754 0
-13743 -13751 0
-13744 13755 0
-13752 13755 0
-13744 -13752 13756 0
-13753 13756 0
-13744 -13753 13757 0
-13754 13757 0
-13744 -13754 0
-13745 -13757 0
-13761 101 102 103 104 0
-101 13761 0
-102 13761 0
-103 13761 0
-104 13761 0
-13762 157 158 159 160 0
-157 13762 0
-158 13762 0
-159 13762 0
-160 13762 0
-13763 213 214 215 216 0
-213 13763 0
-214 13763 0
-215 13763 0
-216 13763 0
-13764 269 270 271 272 0
-269 13764 0
-270 13764 0
-271 13764 0
-272 13764 0
-13765 325 326 327 328 0
-325 13765 0
-326 13765 0
-327 13765 0
-328 13765 0
-13761 13766 0
-13767 0
-13768 0
-13769 0
-13762 13770 0
-13766 13770 0
-13762 -13766 13771 0
-13767 13771 0
-13762 -13767 13772 0
-13768 13772 0
-13762 -13768 13773 0
-13769 13773 0
-13762 -13769 0
-13763 13774 0
-13770 13774 0
-13763 -13770 13775 0
-13771 13775 0
-13763 -13771 13776 0
-13772 13776 0
-13763 -13772 13777 0
-13773 13777 0
-13763 -13773 0
-13764 13778 0
-13774 13778 0
-13764 -13774 13779 0
-13775 13779 0
-13764 -13775 13780 0
-13776 13780 0
-13764 -13776 13781 0
-13777 13781 0
-13764 -13777 0
-13765 -13781 0
-13786 101 102 103 104 105 0
-101 13786 0
-102 13786 0
-103 13786 0
-104 13786 0
-105 13786 0
-13787 157 158 159 160 161 0
-157 13787 0
-158 13787 0
-159 13787 0
-160 13787 0
-161 13787 0
-13788 213 214 215 216 217 0
-213 13788 0
-214 13788 0
-215 13788 0
-216 13788 0
-217 13788 0
-13789 269 270 271 272 273 0
-269 13789 0
-270 13789 0
-271 13789 0
-272 13789 0
-273 13789 0
-13790 325 326 327 328 329 0
-325 13790 0
-326 13790 0
-327 13790 0
-328 13790 0
-329 13790 0
-13791 102 0
-102 13791 0
-13792 158 0
-158 13792 0
-13793 214 0
-214 13793 0
-13794 270 0
-270 13794 0
-13795 326 0
-326 13795 0
-13791 13796 0
-13792 13797 0
-13796 13797 0
-13792 -13796 0
-13793 13798 0
-13797 13798 0
-13793 -13797 0
-13794 13799 0
-13798 13799 0
-13794 -13798 0
-13795 -13799 0
-13801 102 103 0
-102 13801 0
-103 13801 0
-13802 158 159 0
-158 13802 0
-159 13802 0
-13803 214 215 0
-214 13803 0
-215 13803 0
-13804 270 271 0
-270 13804 0
-271 13804 0
-13805 326 327 0
-326 13805 0
-327 13805 0
-13801 13806 0
-13807 0
-13802 13808 0
-13806 13808 0
-13802 -13806 13809 0
-13807 13809 0
-13802 -13807 0
-13803 13810 0
-13808 13810 0
-13803 -13808 13811 0
-13809 13811 0
-13803 -13809 0
-13804 13812 0
-13810 13812 0
-13804 -13810 13813 0
-13811 13813 0
-13804 -13811 0
-13805 -13813 0
-13816 102 103 104 0
-102 13816 0
-103 13816 0
-104 13816 0
-13817 158 159 160 0
-158 13817 0
-159 13817 0
-160 13817 0
-13818 214 215 216 0
-214 13818 0
-215 13818 0
-216 13818 0
-13819 270 271 272 0
-270 13819 0
-271 13819 0
-272 13819 0
-13820 326 327 328 0
-326 13820 0
-327 13820 0
-328 13820 0
-13816 13821 0
-13822 0
-13823 0
-13817 13824 0
-13821 13824 0
-13817 -13821 13825 0
-13822 13825 0
-13817 -13822 13826 0
-13823 13826 0
-13817 -13823 0
-13818 13827 0
-13824 13827 0
-13818 -13824 13828 0
-13825 13828 0
-13818 -13825 13829 0
-13826 13829 0
-13818 -13826 0
-13819 13830 0
-13827 13830 0
-13819 -13827 13831 0
-13828 13831 0
-13819 -13828 13832 0
-13829 13832 0
-13819 -13829 0
-13820 -13832 0
-13836 102 103 104 105 0
-102 13836 0
-103 13836 0
-104 13836 0
-105 13836 0
-13837 158 159 160 161 0
-158 13837 0
-159 13837 0
-160 13837 0
-161 13837 0
-13838 214 215 216 217 0
-214 13838 0
-215 13838 0
-216 13838 0
-217 13838 0
-13839 270 271 272 273 0
-270 13839 0
-271 13839 0
-272 13839 0
-273 13839 0
-13840 326 327 328 329 0
-326 13840 0
-327 13840 0
-328 13840 0
-329 13840 0
-13836 13841 0
-13842 0
-13843 0
-13844 0
-13837 13845 0
-13841 13845 0
-13837 -13841 13846 0
-13842 13846 0
-13837 -13842 13847 0
-13843 13847 0
-13837 -13843 13848 0
-13844 13848 0
-13837 -13844 0
-13838 13849 0
-13845 13849 0
-13838 -13845 13850 0
-13846 13850 0
-13838 -13846 13851 0
-13847 13851 0
-13838 -13847 13852 0
-13848 13852 0
-13838 -13848 0
-13839 13853 0
-13849 13853 0
-13839 -13849 13854 0
-13850 13854 0
-13839 -13850 13855 0
-13851 13855 0
-13839 -13851 13856 0
-13852 13856 0
-13839 -13852 0
-13840 -13856 0
-13861 103 0
-103 13861 0
-13862 159 0
-159 13862 0
-13863 215 0
-215 13863 0
-13864 271 0
-271 13864 0
-13865 327 0
-327 13865 0
-13861 13866 0
-13862 13867 0
-13866 13867 0
-13862 -13866 0
-13863 13868 0
-13867 13868 0
-13863 -13867 0
-13864 13869 0
-13868 13869 0
-13864 -13868 0
-13865 -13869 0
-13871 103 104 0
-103 13871 0
-104 13871 0
-13872 159 160 0
-159 13872 0
-160 13872 0
-13873 215 216 0
-215 13873 0
-216 13873 0
-13874 271 272 0
-271 13874 0
-272 13874 0
-13875 327 328 0
-327 13875 0
-328 13875 0
-13871 13876 0
-13877 0
-13872 13878 0
-13876 13878 0
-13872 -13876 13879 0
-13877 13879 0
-13872 -13877 0
-13873 13880 0
-13878 13880 0
-13873 -13878 13881 0
-13879 13881 0
-13873 -13879 0
-13874 13882 0
-13880 13882 0
-13874 -13880 13883 0
-13881 13883 0
-13874 -13881 0
-13875 -13883 0
-13886 103 104 105 0
-103 13886 0
-104 13886 0
-105 13886 0
-13887 159 160 161 0
-159 13887 0
-160 13887 0
-161 13887 0
-13888 215 216 217 0
-215 13888 0
-216 13888 0
-217 13888 0
-13889 271 272 273 0
-271 13889 0
-272 13889 0
-273 13889 0
-13890 327 328 329 0
-327 13890 0
-328 13890 0
-329 13890 0
-13886 13891 0
-13892 0
-13893 0
-13887 13894 0
-13891 13894 0
-13887 -13891 13895 0
-13892 13895 0
-13887 -13892 13896 0
-13893 13896 0
-13887 -13893 0
-13888 13897 0
-13894 13897 0
-13888 -13894 13898 0
-13895 13898 0
-13888 -13895 13899 0
-13896 13899 0
-13888 -13896 0
-13889 13900 0
-13897 13900 0
-13889 -13897 13901 0
-13898 13901 0
-13889 -13898 13902 0
-13899 13902 0
-13889 -13899 0
-13890 -13902 0
-13906 104 0
-104 13906 0
-13907 160 0
-160 13907 0
-13908 216 0
-216 13908 0
-13909 272 0
-272 13909 0
-13910 328 0
-328 13910 0
-13906 13911 0
-13907 13912 0
-13911 13912 0
-13907 -13911 0
-13908 13913 0
-13912 13913 0
-13908 -13912 0
-13909 13914 0
-13913 13914 0
-13909 -13913 0
-13910 -13914 0
-13916 104 105 0
-104 13916 0
-105 13916 0
-13917 160 161 0
-160 13917 0
-161 13917 0
-13918 216 217 0
-216 13918 0
-217 13918 0
-13919 272 273 0
-272 13919 0
-273 13919 0
-13920 328 329 0
-328 13920 0
-329 13920 0
-13916 13921 0
-13922 0
-13917 13923 0
-13921 13923 0
-13917 -13921 13924 0
-13922 13924 0
-13917 -13922 0
-13918 13925 0
-13923 13925 0
-13918 -13923 13926 0
-13924 13926 0
-13918 -13924 0
-13919 13927 0
-13925 13927 0
-13919 -13925 13928 0
-13926 13928 0
-13919 -13926 0
-13920 -13928 0
-13931 105 0
-105 13931 0
-13932 161 0
-161 13932 0
-13933 217 0
-217 13933 0
-13934 273 0
-273 13934 0
-13935 329 0
-329 13935 0
-13931 13936 0
-13932 13937 0
-13936 13937 0
-13932 -13936 0
-13933 13938 0
-13937 13938 0
-13933 -13937 0
-13934 13939 0
-13938 13939 0
-13934 -13938 0
-13935 -13939 0
-13941 148 0
-148 13941 0
-13942 204 0
-204 13942 0
-13943 260 0
-260 13943 0
-13944 316 0
-316 13944 0
-13941 13945 0
-13942 13946 0
-13945 13946 0
-13942 -13945 0
-13943 13947 0
-13946 13947 0
-13943 -13946 0
-13944 -13947 0
-13949 148 149 0
-148 13949 0
-149 13949 0
-13950 204 205 0
-204 13950 0
-205 13950 0
-13951 260 261 0
-260 13951 0
-261 13951 0
-13952 316 317 0
-316 13952 0
-317 13952 0
-13949 13953 0
-13954 0
-13950 13955 0
-13953 13955 0
-13950 -13953 13956 0
-13954 13956 0
-13950 -13954 0
-13951 13957 0
-13955 13957 0
-13951 -13955 13958 0
-13956 13958 0
-13951 -13956 0
-13952 -13958 0
-13961 148 149 150 0
-148 13961 0
-149 13961 0
-150 13961 0
-13962 204 205 206 0
-204 13962 0
-205 13962 0
-206 13962 0
-13963 260 261 262 0
-260 13963 0
-261 13963 0
-262 13963 0
-13964 316 317 318 0
-316 13964 0
-317 13964 0
-318 13964 0
-13961 13965 0
-13966 0
-13967 0
-13962 13968 0
-13965 13968 0
-13962 -13965 13969 0
-13966 13969 0
-13962 -13966 13970 0
-13967 13970 0
-13962 -13967 0
-13963 13971 0
-13968 13971 0
-13963 -13968 13972 0
-13969 13972 0
-13963 -13969 13973 0
-13970 13973 0
-13963 -13970 0
-13964 -13973 0
-13977 148 149 150 151 0
-148 13977 0
-149 13977 0
-150 13977 0
-151 13977 0
-13978 204 205 206 207 0
-204 13978 0
-205 13978 0
-206 13978 0
-207 13978 0
-13979 260 261 262 263 0
-260 13979 0
-261 13979 0
-262 13979 0
-263 13979 0
-13980 316 317 318 319 0
-316 13980 0
-317 13980 0
-318 13980 0
-319 13980 0
-13981 149 0
-149 13981 0
-13982 205 0
-205 13982 0
-13983 261 0
-261 13983 0
-13984 317 0
-317 13984 0
-13981 13985 0
-13982 13986 0
-13985 13986 0
-13982 -13985 0
-13983 13987 0
-13986 13987 0
-13983 -13986 0
-13984 -13987 0
-13989 149 150 0
-149 13989 0
-150 13989 0
-13990 205 206 0
-205 13990 0
-206 13990 0
-13991 261 262 0
-261 13991 0
-262 13991 0
-13992 317 318 0
-317 13992 0
-318 13992 0
-13989 13993 0
-13994 0
-13990 13995 0
-13993 13995 0
-13990 -13993 13996 0
-13994 13996 0
-13990 -13994 0
-13991 13997 0
-13995 13997 0
-13991 -13995 13998 0
-13996 13998 0
-13991 -13996 0
-13992 -13998 0
-14001 149 150 151 0
-149 14001 0
-150 14001 0
-151 14001 0
-14002 205 206 207 0
-205 14002 0
-206 14002 0
-207 14002 0
-14003 261 262 263 0
-261 14003 0
-262 14003 0
-263 14003 0
-14004 317 318 319 0
-317 14004 0
-318 14004 0
-319 14004 0
-14001 14005 0
-14006 0
-14007 0
-14002 14008 0
-14005 14008 0
-14002 -14005 14009 0
-14006 14009 0
-14002 -14006 14010 0
-14007 14010 0
-14002 -14007 0
-14003 14011 0
-14008 14011 0
-14003 -14008 14012 0
-14009 14012 0
-14003 -14009 14013 0
-14010 14013 0
-14003 -14010 0
-14004 -14013 0
-14017 149 150 151 152 0
-149 14017 0
-150 14017 0
-151 14017 0
-152 14017 0
-14018 205 206 207 208 0
-205 14018 0
-206 14018 0
-207 14018 0
-208 14018 0
-14019 261 262 263 264 0
-261 14019 0
-262 14019 0
-263 14019 0
-264 14019 0
-14020 317 318 319 320 0
-317 14020 0
-318 14020 0
-319 14020 0
-320 14020 0
-14021 150 0
-150 14021 0
-14022 206 0
-206 14022 0
-14023 262 0
-262 14023 0
-14024 318 0
-318 14024 0
-14021 14025 0
-14022 14026 0
-14025 14026 0
-14022 -14025 0
-14023 14027 0
-14026 14027 0
-14023 -14026 0
-14024 -14027 0
-14029 150 151 0
-150 14029 0
-151 14029 0
-14030 206 207 0
-206 14030 0
-207 14030 0
-14031 262 263 0
-262 14031 0
-263 14031 0
-14032 318 319 0
-318 14032 0
-319 14032 0
-14029 14033 0
-14034 0
-14030 14035 0
-14033 14035 0
-14030 -14033 14036 0
-14034 14036 0
-14030 -14034 0
-14031 14037 0
-14035 14037 0
-14031 -14035 14038 0
-14036 14038 0
-14031 -14036 0
-14032 -14038 0
-14041 150 151 152 0
-150 14041 0
-151 14041 0
-152 14041 0
-14042 206 207 208 0
-206 14042 0
-207 14042 0
-208 14042 0
-14043 262 263 264 0
-262 14043 0
-263 14043 0
-264 14043 0
-14044 318 319 320 0
-318 14044 0
-319 14044 0
-320 14044 0
-14041 14045 0
-14046 0
-14047 0
-14042 14048 0
-14045 14048 0
-14042 -14045 14049 0
-14046 14049 0
-14042 -14046 14050 0
-14047 14050 0
-14042 -14047 0
-14043 14051 0
-14048 14051 0
-14043 -14048 14052 0
-14049 14052 0
-14043 -14049 14053 0
-14050 14053 0
-14043 -14050 0
-14044 -14053 0
-14057 150 151 152 153 0
-150 14057 0
-151 14057 0
-152 14057 0
-153 14057 0
-14058 206 207 208 209 0
-206 14058 0
-207 14058 0
-208 14058 0
-209 14058 0
-14059 262 263 264 265 0
-262 14059 0
-263 14059 0
-264 14059 0
-265 14059 0
-14060 318 319 320 321 0
-318 14060 0
-319 14060 0
-320 14060 0
-321 14060 0
-14061 151 0
-151 14061 0
-14062 207 0
-207 14062 0
-14063 263 0
-263 14063 0
-14064 319 0
-319 14064 0
-14061 14065 0
-14062 14066 0
-14065 14066 0
-14062 -14065 0
-14063 14067 0
-14066 14067 0
-14063 -14066 0
-14064 -14067 0
-14069 151 152 0
-151 14069 0
-152 14069 0
-14070 207 208 0
-207 14070 0
-208 14070 0
-14071 263 264 0
-263 14071 0
-264 14071 0
-14072 319 320 0
-319 14072 0
-320 14072 0
-14069 14073 0
-14074 0
-14070 14075 0
-14073 14075 0
-14070 -14073 14076 0
-14074 14076 0
-14070 -14074 0
-14071 14077 0
-14075 14077 0
-14071 -14075 14078 0
-14076 14078 0
-14071 -14076 0
-14072 -14078 0
-14081 151 152 153 0
-151 14081 0
-152 14081 0
-153 14081 0
-14082 207 208 209 0
-207 14082 0
-208 14082 0
-209 14082 0
-14083 263 264 265 0
-263 14083 0
-264 14083 0
-265 14083 0
-14084 319 320 321 0
-319 14084 0
-320 14084 0
-321 14084 0
-14081 14085 0
-14086 0
-14087 0
-14082 14088 0
-14085 14088 0
-14082 -14085 14089 0
-14086 14089 0
-14082 -14086 14090 0
-14087 14090 0
-14082 -14087 0
-14083 14091 0
-14088 14091 0
-14083 -14088 14092 0
-14089 14092 0
-14083 -14089 14093 0
-14090 14093 0
-14083 -14090 0
-14084 -14093 0
-14097 151 152 153 154 0
-151 14097 0
-152 14097 0
-153 14097 0
-154 14097 0
-14098 207 208 209 210 0
-207 14098 0
-208 14098 0
-209 14098 0
-210 14098 0
-14099 263 264 265 266 0
-263 14099 0
-264 14099 0
-265 14099 0
-266 14099 0
-14100 319 320 321 322 0
-319 14100 0
-320 14100 0
-321 14100 0
-322 14100 0
-14101 152 0
-152 14101 0
-14102 208 0
-208 14102 0
-14103 264 0
-264 14103 0
-14104 320 0
-320 14104 0
-14101 14105 0
-14102 14106 0
-14105 14106 0
-14102 -14105 0
-14103 14107 0
-14106 14107 0
-14103 -14106 0
-14104 -14107 0
-14109 152 153 0
-152 14109 0
-153 14109 0
-14110 208 209 0
-208 14110 0
-209 14110 0
-14111 264 265 0
-264 14111 0
-265 14111 0
-14112 320 321 0
-320 14112 0
-321 14112 0
-14109 14113 0
-14114 0
-14110 14115 0
-14113 14115 0
-14110 -14113 14116 0
-14114 14116 0
-14110 -14114 0
-14111 14117 0
-14115 14117 0
-14111 -14115 14118 0
-14116 14118 0
-14111 -14116 0
-14112 -14118 0
-14121 152 153 154 0
-152 14121 0
-153 14121 0
-154 14121 0
-14122 208 209 210 0
-208 14122 0
-209 14122 0
-210 14122 0
-14123 264 265 266 0
-264 14123 0
-265 14123 0
-266 14123 0
-14124 320 321 322 0
-320 14124 0
-321 14124 0
-322 14124 0
-14121 14125 0
-14126 0
-14127 0
-14122 14128 0
-14125 14128 0
-14122 -14125 14129 0
-14126 14129 0
-14122 -14126 14130 0
-14127 14130 0
-14122 -14127 0
-14123 14131 0
-14128 14131 0
-14123 -14128 14132 0
-14129 14132 0
-14123 -14129 14133 0
-14130 14133 0
-14123 -14130 0
-14124 -14133 0
-14137 153 0
-153 14137 0
-14138 209 0
-209 14138 0
-14139 265 0
-265 14139 0
-14140 321 0
-321 14140 0
-14137 14141 0
-14138 14142 0
-14141 14142 0
-14138 -14141 0
-14139 14143 0
-14142 14143 0
-14139 -14142 0
-14140 -14143 0
-14145 153 154 0
-153 14145 0
-154 14145 0
-14146 209 210 0
-209 14146 0
-210 14146 0
-14147 265 266 0
-265 14147 0
-266 14147 0
-14148 321 322 0
-321 14148 0
-322 14148 0
-14145 14149 0
-14150 0
-14146 14151 0
-14149 14151 0
-14146 -14149 14152 0
-14150 14152 0
-14146 -14150 0
-14147 14153 0
-14151 14153 0
-14147 -14151 14154 0
-14152 14154 0
-14147 -14152 0
-14148 -14154 0
-14157 154 0
-154 14157 0
-14158 210 0
-210 14158 0
-14159 266 0
-266 14159 0
-14160 322 0
-322 14160 0
-14157 14161 0
-14158 14162 0
-14161 14162 0
-14158 -14161 0
-14159 14163 0
-14162 14163 0
-14159 -14162 0
-14160 -14163 0
-14165 197 0
-197 14165 0
-14166 253 0
-253 14166 0
-14167 309 0
-309 14167 0
-14165 14168 0
-14166 14169 0
-14168 14169 0
-14166 -14168 0
-14167 -14169 0
-14171 197 198 0
-197 14171 0
-198 14171 0
-14172 253 254 0
-253 14172 0
-254 14172 0
-14173 309 310 0
-309 14173 0
-310 14173 0
-14171 14174 0
-14175 0
-14172 14176 0
-14174 14176 0
-14172 -14174 14177 0
-14175 14177 0
-14172 -14175 0
-14173 -14177 0
-14180 197 198 199 0
-197 14180 0
-198 14180 0
-199 14180 0
-14181 253 254 255 0
-253 14181 0
-254 14181 0
-255 14181 0
-14182 309 310 311 0
-309 14182 0
-310 14182 0
-311 14182 0
-14183 198 0
-198 14183 0
-14184 254 0
-254 14184 0
-14185 310 0
-310 14185 0
-14183 14186 0
-14184 14187 0
-14186 14187 0
-14184 -14186 0
-14185 -14187 0
-14189 198 199 0
-198 14189 0
-199 14189 0
-14190 254 255 0
-254 14190 0
-255 14190 0
-14191 310 311 0
-310 14191 0
-311 14191 0
-14189 14192 0
-14193 0
-14190 14194 0
-14192 14194 0
-14190 -14192 14195 0
-14193 14195 0
-14190 -14193 0
-14191 -14195 0
-14198 198 199 200 0
-198 14198 0
-199 14198 0
-200 14198 0
-14199 254 255 256 0
-254 14199 0
-255 14199 0
-256 14199 0
-14200 310 311 312 0
-310 14200 0
-311 14200 0
-312 14200 0
-14201 199 0
-199 14201 0
-14202 255 0
-255 14202 0
-14203 311 0
-311 14203 0
-14201 14204 0
-14202 14205 0
-14204 14205 0
-14202 -14204 0
-14203 -14205 0
-14207 199 200 0
-199 14207 0
-200 14207 0
-14208 255 256 0
-255 14208 0
-256 14208 0
-14209 311 312 0
-311 14209 0
-312 14209 0
-14207 14210 0
-14211 0
-14208 14212 0
-14210 14212 0
-14208 -14210 14213 0
-14211 14213 0
-14208 -14211 0
-14209 -14213 0
-14216 199 200 201 0
-199 14216 0
-200 14216 0
-201 14216 0
-14217 255 256 257 0
-255 14217 0
-256 14217 0
-257 14217 0
-14218 311 312 313 0
-311 14218 0
-312 14218 0
-313 14218 0
-14219 200 0
-200 14219 0
-14220 256 0
-256 14220 0
-14221 312 0
-312 14221 0
-14219 14222 0
-14220 14223 0
-14222 14223 0
-14220 -14222 0
-14221 -14223 0
-14225 200 201 0
-200 14225 0
-201 14225 0
-14226 256 257 0
-256 14226 0
-257 14226 0
-14227 312 313 0
-312 14227 0
-313 14227 0
-14225 14228 0
-14229 0
-14226 14230 0
-14228 14230 0
-14226 -14228 14231 0
-14229 14231 0
-14226 -14229 0
-14227 -14231 0
-14234 200 201 202 0
-200 14234 0
-201 14234 0
-202 14234 0
-14235 256 257 258 0
-256 14235 0
-257 14235 0
-258 14235 0
-14236 312 313 314 0
-312 14236 0
-313 14236 0
-314 14236 0
-14237 201 0
-201 14237 0
-14238 257 0
-257 14238 0
-14239 313 0
-313 14239 0
-14237 14240 0
-14238 14241 0
-14240 14241 0
-14238 -14240 0
-14239 -14241 0
-14243 201 202 0
-201 14243 0
-202 14243 0
-14244 257 258 0
-257 14244 0
-258 14244 0
-14245 313 314 0
-313 14245 0
-314 14245 0
-14243 14246 0
-14247 0
-14244 14248 0
-14246 14248 0
-14244 -14246 14249 0
-14247 14249 0
-14244 -14247 0
-14245 -14249 0
-14252 201 202 203 0
-201 14252 0
-202 14252 0
-203 14252 0
-14253 257 258 259 0
-257 14253 0
-258 14253 0
-259 14253 0
-14254 313 314 315 0
-313 14254 0
-314 14254 0
-315 14254 0
-14255 202 0
-202 14255 0
-14256 258 0
-258 14256 0
-14257 314 0
-314 14257 0
-14255 14258 0
-14256 14259 0
-14258 14259 0
-14256 -14258 0
-14257 -14259 0
-14261 202 203 0
-202 14261 0
-203 14261 0
-14262 258 259 0
-258 14262 0
-259 14262 0
-14263 314 315 0
-314 14263 0
-315 14263 0
-14261 14264 0
-14265 0
-14262 14266 0
-14264 14266 0
-14262 -14264 14267 0
-14265 14267 0
-14262 -14265 0
-14263 -14267 0
-14270 203 0
-203 14270 0
-14271 259 0
-259 14271 0
-14272 315 0
-315 14272 0
-14270 14273 0
-14271 14274 0
-14273 14274 0
-14271 -14273 0
-14272 -14274 0
-14276 246 0
-246 14276 0
-14277 302 0
-302 14277 0
-14276 14278 0
-14277 -14278 0
-14280 246 247 0
-246 14280 0
-247 14280 0
-14281 302 303 0
-302 14281 0
-303 14281 0
-14282 247 0
-247 14282 0
-14283 303 0
-303 14283 0
-14282 14284 0
-14283 -14284 0
-14286 247 248 0
-247 14286 0
-248 14286 0
-14287 303 304 0
-303 14287 0
-304 14287 0
-14288 248 0
-248 14288 0
-14289 304 0
-304 14289 0
-14288 14290 0
-14289 -14290 0
-14292 248 249 0
-248 14292 0
-249 14292 0
-14293 304 305 0
-304 14293 0
-305 14293 0
-14294 249 0
-249 14294 0
-14295 305 0
-305 14295 0
-14294 14296 0
-14295 -14296 0
-14298 249 250 0
-249 14298 0
-250 14298 0
-14299 305 306 0
-305 14299 0
-306 14299 0
-14300 250 0
-250 14300 0
-14301 306 0
-306 14301 0
-14300 14302 0
-14301 -14302 0
-14304 250 251 0
-250 14304 0
-251 14304 0
-14305 306 307 0
-306 14305 0
-307 14305 0
-14306 251 0
-251 14306 0
-14307 307 0
-307 14307 0
-14306 14308 0
-14307 -14308 0
-14310 251 252 0
-251 14310 0
-252 14310 0
-14311 307 308 0
-307 14311 0
-308 14311 0
-14312 252 0
-252 14312 0
-14313 308 0
-308 14313 0
-14312 14314 0
-14313 -14314 0
-14316 8 0
-8 14316 0
-14317 50 0
-50 14317 0
-14316 14318 0
-14317 -14318 0
-14320 8 9 0
-8 14320 0
-9 14320 0
-14321 50 51 0
-50 14321 0
-51 14321 0
-14322 9 0
-9 14322 0
-14323 51 0
-51 14323 0
-14322 14324 0
-14323 -14324 0
-14326 9 10 0
-9 14326 0
-10 14326 0
-14327 51 52 0
-51 14327 0
-52 14327 0
-14328 10 0
-10 14328 0
-14329 52 0
-52 14329 0
-14328 14330 0
-14329 -14330 0
-14332 10 11 0
-10 14332 0
-11 14332 0
-14333 52 53 0
-52 14333 0
-53 14333 0
-14334 11 0
-11 14334 0
-14335 53 0
-53 14335 0
-14334 14336 0
-14335 -14336 0
-14338 11 12 0
-11 14338 0
-12 14338 0
-14339 53 54 0
-53 14339 0
-54 14339 0
-14340 12 0
-12 14340 0
-14341 54 0
-54 14341 0
-14340 14342 0
-14341 -14342 0
-14344 12 13 0
-12 14344 0
-13 14344 0
-14345 54 55 0
-54 14345 0
-55 14345 0
-14346 13 0
-13 14346 0
-14347 55 0
-55 14347 0
-14346 14348 0
-14347 -14348 0
-14350 13 14 0
-13 14350 0
-14 14350 0
-14351 55 56 0
-55 14351 0
-56 14351 0
-14352 14 0
-14 14352 0
-14353 56 0
-56 14353 0
-14352 14354 0
-14353 -14354 0
-14356 15 0
-15 14356 0
-14357 57 0
-57 14357 0
-14358 99 0
-99 14358 0
-14356 14359 0
-14357 14360 0
-14359 14360 0
-14357 -14359 0
-14358 -14360 0
-14362 15 16 0
-15 14362 0
-16 14362 0
-14363 57 58 0
-57 14363 0
-58 14363 0
-14364 99 100 0
-99 14364 0
-100 14364 0
-14362 14365 0
-14366 0
-14363 14367 0
-14365 14367 0
-14363 -14365 14368 0
-14366 14368 0
-14363 -14366 0
-14364 -14368 0
-14371 15 16 17 0
-15 14371 0
-16 14371 0
-17 14371 0
-14372 57 58 59 0
-57 14372 0
-58 14372 0
-59 14372 0
-14373 99 100 101 0
-99 14373 0
-100 14373 0
-101 14373 0
-14374 16 0
-16 14374 0
-14375 58 0
-58 14375 0
-14376 100 0
-100 14376 0
-14374 14377 0
-14375 14378 0
-14377 14378 0
-14375 -14377 0
-14376 -14378 0
-14380 16 17 0
-16 14380 0
-17 14380 0
-14381 58 59 0
-58 14381 0
-59 14381 0
-14382 100 101 0
-100 14382 0
-101 14382 0
-14380 14383 0
-14384 0
-14381 14385 0
-14383 14385 0
-14381 -14383 14386 0
-14384 14386 0
-14381 -14384 0
-14382 -14386 0
-14389 16 17 18 0
-16 14389 0
-17 14389 0
-18 14389 0
-14390 58 59 60 0
-58 14390 0
-59 14390 0
-60 14390 0
-14391 100 101 102 0
-100 14391 0
-101 14391 0
-102 14391 0
-14392 17 0
-17 14392 0
-14393 59 0
-59 14393 0
-14394 101 0
-101 14394 0
-14392 14395 0
-14393 14396 0
-14395 14396 0
-14393 -14395 0
-14394 -14396 0
-14398 17 18 0
-17 14398 0
-18 14398 0
-14399 59 60 0
-59 14399 0
-60 14399 0
-14400 101 102 0
-101 14400 0
-102 14400 0
-14398 14401 0
-14402 0
-14399 14403 0
-14401 14403 0
-14399 -14401 14404 0
-14402 14404 0
-14399 -14402 0
-14400 -14404 0
-14407 17 18 19 0
-17 14407 0
-18 14407 0
-19 14407 0
-14408 59 60 61 0
-59 14408 0
-60 14408 0
-61 14408 0
-14409 101 102 103 0
-101 14409 0
-102 14409 0
-103 14409 0
-14410 18 0
-18 14410 0
-14411 60 0
-60 14411 0
-14412 102 0
-102 14412 0
-14410 14413 0
-14411 14414 0
-14413 14414 0
-14411 -14413 0
-14412 -14414 0
-14416 18 19 0
-18 14416 0
-19 14416 0
-14417 60 61 0
-60 14417 0
-61 14417 0
-14418 102 103 0
-102 14418 0
-103 14418 0
-14416 14419 0
-14420 0
-14417 14421 0
-14419 14421 0
-14417 -14419 14422 0
-14420 14422 0
-14417 -14420 0
-14418 -14422 0
-14425 18 19 20 0
-18 14425 0
-19 14425 0
-20 14425 0
-14426 60 61 62 0
-60 14426 0
-61 14426 0
-62 14426 0
-14427 102 103 104 0
-102 14427 0
-103 14427 0
-104 14427 0
-14428 19 0
-19 14428 0
-14429 61 0
-61 14429 0
-14430 103 0
-103 14430 0
-14428 14431 0
-14429 14432 0
-14431 14432 0
-14429 -14431 0
-14430 -14432 0
-14434 19 20 0
-19 14434 0
-20 14434 0
-14435 61 62 0
-61 14435 0
-62 14435 0
-14436 103 104 0
-103 14436 0
-104 14436 0
-14434 14437 0
-14438 0
-14435 14439 0
-14437 14439 0
-14435 -14437 14440 0
-14438 14440 0
-14435 -14438 0
-14436 -14440 0
-14443 19 20 21 0
-19 14443 0
-20 14443 0
-21 14443 0
-14444 61 62 63 0
-61 14444 0
-62 14444 0
-63 14444 0
-14445 103 104 105 0
-103 14445 0
-104 14445 0
-105 14445 0
-14446 20 0
-20 14446 0
-14447 62 0
-62 14447 0
-14448 104 0
-104 14448 0
-14446 14449 0
-14447 14450 0
-14449 14450 0
-14447 -14449 0
-14448 -14450 0
-14452 20 21 0
-20 14452 0
-21 14452 0
-14453 62 63 0
-62 14453 0
-63 14453 0
-14454 104 105 0
-104 14454 0
-105 14454 0
-14452 14455 0
-14456 0
-14453 14457 0
-14455 14457 0
-14453 -14455 14458 0
-14456 14458 0
-14453 -14456 0
-14454 -14458 0
-14461 21 0
-21 14461 0
-14462 63 0
-63 14462 0
-14463 105 0
-105 14463 0
-14461 14464 0
-14462 14465 0
-14464 14465 0
-14462 -14464 0
-14463 -14465 0
-14467 22 0
-22 14467 0
-14468 64 0
-64 14468 0
-14469 106 0
-106 14469 0
-14470 148 0
-148 14470 0
-14467 14471 0
-14468 14472 0
-14471 14472 0
-14468 -14471 0
-14469 14473 0
-14472 14473 0
-14469 -14472 0
-14470 -14473 0
-14475 22 23 0
-22 14475 0
-23 14475 0
-14476 64 65 0
-64 14476 0
-65 14476 0
-14477 106 107 0
-106 14477 0
-107 14477 0
-14478 148 149 0
-148 14478 0
-149 14478 0
-14475 14479 0
-14480 0
-14476 14481 0
-14479 14481 0
-14476 -14479 14482 0
-14480 14482 0
-14476 -14480 0
-14477 14483 0
-14481 14483 0
-14477 -14481 14484 0
-14482 14484 0
-14477 -14482 0
-14478 -14484 0
-14487 22 23 24 0
-22 14487 0
-23 14487 0
-24 14487 0
-14488 64 65 66 0
-64 14488 0
-65 14488 0
-66 14488 0
-14489 106 107 108 0
-106 14489 0
-107 14489 0
-108 14489 0
-14490 148 149 150 0
-148 14490 0
-149 14490 0
-150 14490 0
-14487 14491 0
-14492 0
-14493 0
-14488 14494 0
-14491 14494 0
-14488 -14491 14495 0
-14492 14495 0
-14488 -14492 14496 0
-14493 14496 0
-14488 -14493 0
-14489 14497 0
-14494 14497 0
-14489 -14494 14498 0
-14495 14498 0
-14489 -14495 14499 0
-14496 14499 0
-14489 -14496 0
-14490 -14499 0
-14503 22 23 24 25 0
-22 14503 0
-23 14503 0
-24 14503 0
-25 14503 0
-14504 64 65 66 67 0
-64 14504 0
-65 14504 0
-66 14504 0
-67 14504 0
-14505 106 107 108 109 0
-106 14505 0
-107 14505 0
-108 14505 0
-109 14505 0
-14506 148 149 150 151 0
-148 14506 0
-149 14506 0
-150 14506 0
-151 14506 0
-14507 23 0
-23 14507 0
-14508 65 0
-65 14508 0
-14509 107 0
-107 14509 0
-14510 149 0
-149 14510 0
-14507 14511 0
-14508 14512 0
-14511 14512 0
-14508 -14511 0
-14509 14513 0
-14512 14513 0
-14509 -14512 0
-14510 -14513 0
-14515 23 24 0
-23 14515 0
-24 14515 0
-14516 65 66 0
-65 14516 0
-66 14516 0
-14517 107 108 0
-107 14517 0
-108 14517 0
-14518 149 150 0
-149 14518 0
-150 14518 0
-14515 14519 0
-14520 0
-14516 14521 0
-14519 14521 0
-14516 -14519 14522 0
-14520 14522 0
-14516 -14520 0
-14517 14523 0
-14521 14523 0
-14517 -14521 14524 0
-14522 14524 0
-14517 -14522 0
-14518 -14524 0
-14527 23 24 25 0
-23 14527 0
-24 14527 0
-25 14527 0
-14528 65 66 67 0
-65 14528 0
-66 14528 0
-67 14528 0
-14529 107 108 109 0
-107 14529 0
-108 14529 0
-109 14529 0
-14530 149 150 151 0
-149 14530 0
-150 14530 0
-151 14530 0
-14527 14531 0
-14532 0
-14533 0
-14528 14534 0
-14531 14534 0
-14528 -14531 14535 0
-14532 14535 0
-14528 -14532 14536 0
-14533 14536 0
-14528 -14533 0
-14529 14537 0
-14534 14537 0
-14529 -14534 14538 0
-14535 14538 0
-14529 -14535 14539 0
-14536 14539 0
-14529 -14536 0
-14530 -14539 0
-14543 23 24 25 26 0
-23 14543 0
-24 14543 0
-25 14543 0
-26 14543 0
-14544 65 66 67 68 0
-65 14544 0
-66 14544 0
-67 14544 0
-68 14544 0
-14545 107 108 109 110 0
-107 14545 0
-108 14545 0
-109 14545 0
-110 14545 0
-14546 149 150 151 152 0
-149 14546 0
-150 14546 0
-151 14546 0
-152 14546 0
-14547 24 0
-24 14547 0
-14548 66 0
-66 14548 0
-14549 108 0
-108 14549 0
-14550 150 0
-150 14550 0
-14547 14551 0
-14548 14552 0
-14551 14552 0
-14548 -14551 0
-14549 14553 0
-14552 14553 0
-14549 -14552 0
-14550 -14553 0
-14555 24 25 0
-24 14555 0
-25 14555 0
-14556 66 67 0
-66 14556 0
-67 14556 0
-14557 108 109 0
-108 14557 0
-109 14557 0
-14558 150 151 0
-150 14558 0
-151 14558 0
-14555 14559 0
-14560 0
-14556 14561 0
-14559 14561 0
-14556 -14559 14562 0
-14560 14562 0
-14556 -14560 0
-14557 14563 0
-14561 14563 0
-14557 -14561 14564 0
-14562 14564 0
-14557 -14562 0
-14558 -14564 0
-14567 24 25 26 0
-24 14567 0
-25 14567 0
-26 14567 0
-14568 66 67 68 0
-66 14568 0
-67 14568 0
-68 14568 0
-14569 108 109 110 0
-108 14569 0
-109 14569 0
-110 14569 0
-14570 150 151 152 0
-150 14570 0
-151 14570 0
-152 14570 0
-14567 14571 0
-14572 0
-14573 0
-14568 14574 0
-14571 14574 0
-14568 -14571 14575 0
-14572 14575 0
-14568 -14572 14576 0
-14573 14576 0
-14568 -14573 0
-14569 14577 0
-14574 14577 0
-14569 -14574 14578 0
-14575 14578 0
-14569 -14575 14579 0
-14576 14579 0
-14569 -14576 0
-14570 -14579 0
-14583 24 25 26 27 0
-24 14583 0
-25 14583 0
-26 14583 0
-27 14583 0
-14584 66 67 68 69 0
-66 14584 0
-67 14584 0
-68 14584 0
-69 14584 0
-14585 108 109 110 111 0
-108 14585 0
-109 14585 0
-110 14585 0
-111 14585 0
-14586 150 151 152 153 0
-150 14586 0
-151 14586 0
-152 14586 0
-153 14586 0
-14587 25 0
-25 14587 0
-14588 67 0
-67 14588 0
-14589 109 0
-109 14589 0
-14590 151 0
-151 14590 0
-14587 14591 0
-14588 14592 0
-14591 14592 0
-14588 -14591 0
-14589 14593 0
-14592 14593 0
-14589 -14592 0
-14590 -14593 0
-14595 25 26 0
-25 14595 0
-26 14595 0
-14596 67 68 0
-67 14596 0
-68 14596 0
-14597 109 110 0
-109 14597 0
-110 14597 0
-14598 151 152 0
-151 14598 0
-152 14598 0
-14595 14599 0
-14600 0
-14596 14601 0
-14599 14601 0
-14596 -14599 14602 0
-14600 14602 0
-14596 -14600 0
-14597 14603 0
-14601 14603 0
-14597 -14601 14604 0
-14602 14604 0
-14597 -14602 0
-14598 -14604 0
-14607 25 26 27 0
-25 14607 0
-26 14607 0
-27 14607 0
-14608 67 68 69 0
-67 14608 0
-68 14608 0
-69 14608 0
-14609 109 110 111 0
-109 14609 0
-110 14609 0
-111 14609 0
-14610 151 152 153 0
-151 14610 0
-152 14610 0
-153 14610 0
-14607 14611 0
-14612 0
-14613 0
-14608 14614 0
-14611 14614 0
-14608 -14611 14615 0
-14612 14615 0
-14608 -14612 14616 0
-14613 14616 0
-14608 -14613 0
-14609 14617 0
-14614 14617 0
-14609 -14614 14618 0
-14615 14618 0
-14609 -14615 14619 0
-14616 14619 0
-14609 -14616 0
-14610 -14619 0
-14623 25 26 27 28 0
-25 14623 0
-26 14623 0
-27 14623 0
-28 14623 0
-14624 67 68 69 70 0
-67 14624 0
-68 14624 0
-69 14624 0
-70 14624 0
-14625 109 110 111 112 0
-109 14625 0
-110 14625 0
-111 14625 0
-112 14625 0
-14626 151 152 153 154 0
-151 14626 0
-152 14626 0
-153 14626 0
-154 14626 0
-14627 26 0
-26 14627 0
-14628 68 0
-68 14628 0
-14629 110 0
-110 14629 0
-14630 152 0
-152 14630 0
-14627 14631 0
-14628 14632 0
-14631 14632 0
-14628 -14631 0
-14629 14633 0
-14632 14633 0
-14629 -14632 0
-14630 -14633 0
-14635 26 27 0
-26 14635 0
-27 14635 0
-14636 68 69 0
-68 14636 0
-69 14636 0
-14637 110 111 0
-110 14637 0
-111 14637 0
-14638 152 153 0
-152 14638 0
-153 14638 0
-14635 14639 0
-14640 0
-14636 14641 0
-14639 14641 0
-14636 -14639 14642 0
-14640 14642 0
-14636 -14640 0
-14637 14643 0
-14641 14643 0
-14637 -14641 14644 0
-14642 14644 0
-14637 -14642 0
-14638 -14644 0
-14647 26 27 28 0
-26 14647 0
-27 14647 0
-28 14647 0
-14648 68 69 70 0
-68 14648 0
-69 14648 0
-70 14648 0
-14649 110 111 112 0
-110 14649 0
-111 14649 0
-112 14649 0
-14650 152 153 154 0
-152 14650 0
-153 14650 0
-154 14650 0
-14647 14651 0
-14652 0
-14653 0
-14648 14654 0
-14651 14654 0
-14648 -14651 14655 0
-14652 14655 0
-14648 -14652 14656 0
-14653 14656 0
-14648 -14653 0
-14649 14657 0
-14654 14657 0
-14649 -14654 14658 0
-14655 14658 0
-14649 -14655 14659 0
-14656 14659 0
-14649 -14656 0
-14650 -14659 0
-14663 27 0
-27 14663 0
-14664 69 0
-69 14664 0
-14665 111 0
-111 14665 0
-14666 153 0
-153 14666 0
-14663 14667 0
-14664 14668 0
-14667 14668 0
-14664 -14667 0
-14665 14669 0
-14668 14669 0
-14665 -14668 0
-14666 -14669 0
-14671 27 28 0
-27 14671 0
-28 14671 0
-14672 69 70 0
-69 14672 0
-70 14672 0
-14673 111 112 0
-111 14673 0
-112 14673 0
-14674 153 154 0
-153 14674 0
-154 14674 0
-14671 14675 0
-14676 0
-14672 14677 0
-14675 14677 0
-14672 -14675 14678 0
-14676 14678 0
-14672 -14676 0
-14673 14679 0
-14677 14679 0
-14673 -14677 14680 0
-14678 14680 0
-14673 -14678 0
-14674 -14680 0
-14683 28 0
-28 14683 0
-14684 70 0
-70 14684 0
-14685 112 0
-112 14685 0
-14686 154 0
-154 14686 0
-14683 14687 0
-14684 14688 0
-14687 14688 0
-14684 -14687 0
-14685 14689 0
-14688 14689 0
-14685 -14688 0
-14686 -14689 0
-14691 29 0
-29 14691 0
-14692 71 0
-71 14692 0
-14693 113 0
-113 14693 0
-14694 155 0
-155 14694 0
-14695 197 0
-197 14695 0
-14691 14696 0
-14692 14697 0
-14696 14697 0
-14692 -14696 0
-14693 14698 0
-14697 14698 0
-14693 -14697 0
-14694 14699 0
-14698 14699 0
-14694 -14698 0
-14695 -14699 0
-14701 29 30 0
-29 14701 0
-30 14701 0
-14702 71 72 0
-71 14702 0
-72 14702 0
-14703 113 114 0
-113 14703 0
-114 14703 0
-14704 155 156 0
-155 14704 0
-156 14704 0
-14705 197 198 0
-197 14705 0
-198 14705 0
-14701 14706 0
-14707 0
-14702 14708 0
-14706 14708 0
-14702 -14706 14709 0
-14707 14709 0
-14702 -14707 0
-14703 14710 0
-14708 14710 0
-14703 -14708 14711 0
-14709 14711 0
-14703 -14709 0
-14704 14712 0
-14710 14712 0
-14704 -14710 14713 0
-14711 14713 0
-14704 -14711 0
-14705 -14713 0
-14716 29 30 31 0
-29 14716 0
-30 14716 0
-31 14716 0
-14717 71 72 73 0
-71 14717 0
-72 14717 0
-73 14717 0
-14718 113 114 115 0
-113 14718 0
-114 14718 0
-115 14718 0
-14719 155 156 157 0
-155 14719 0
-156 14719 0
-157 14719 0
-14720 197 198 199 0
-197 14720 0
-198 14720 0
-199 14720 0
-14716 14721 0
-14722 0
-14723 0
-14717 14724 0
-14721 14724 0
-14717 -14721 14725 0
-14722 14725 0
-14717 -14722 14726 0
-14723 14726 0
-14717 -14723 0
-14718 14727 0
-14724 14727 0
-14718 -14724 14728 0
-14725 14728 0
-14718 -14725 14729 0
-14726 14729 0
-14718 -14726 0
-14719 14730 0
-14727 14730 0
-14719 -14727 14731 0
-14728 14731 0
-14719 -14728 14732 0
-14729 14732 0
-14719 -14729 0
-14720 -14732 0
-14736 29 30 31 32 0
-29 14736 0
-30 14736 0
-31 14736 0
-32 14736 0
-14737 71 72 73 74 0
-71 14737 0
-72 14737 0
-73 14737 0
-74 14737 0
-14738 113 114 115 116 0
-113 14738 0
-114 14738 0
-115 14738 0
-116 14738 0
-14739 155 156 157 158 0
-155 14739 0
-156 14739 0
-157 14739 0
-158 14739 0
-14740 197 198 199 200 0
-197 14740 0
-198 14740 0
-199 14740 0
-200 14740 0
-14736 14741 0
-14742 0
-14743 0
-14744 0
-14737 14745 0
-14741 14745 0
-14737 -14741 14746 0
-14742 14746 0
-14737 -14742 14747 0
-14743 14747 0
-14737 -14743 14748 0
-14744 14748 0
-14737 -14744 0
-14738 14749 0
-14745 14749 0
-14738 -14745 14750 0
-14746 14750 0
-14738 -14746 14751 0
-14747 14751 0
-14738 -14747 14752 0
-14748 14752 0
-14738 -14748 0
-14739 14753 0
-14749 14753 0
-14739 -14749 14754 0
-14750 14754 0
-14739 -14750 14755 0
-14751 14755 0
-14739 -14751 14756 0
-14752 14756 0
-14739 -14752 0
-14740 -14756 0
-14761 29 30 31 32 33 0
-29 14761 0
-30 14761 0
-31 14761 0
-32 14761 0
-33 14761 0
-14762 71 72 73 74 75 0
-71 14762 0
-72 14762 0
-73 14762 0
-74 14762 0
-75 14762 0
-14763 113 114 115 116 117 0
-113 14763 0
-114 14763 0
-115 14763 0
-116 14763 0
-117 14763 0
-14764 155 156 157 158 159 0
-155 14764 0
-156 14764 0
-157 14764 0
-158 14764 0
-159 14764 0
-14765 197 198 199 200 201 0
-197 14765 0
-198 14765 0
-199 14765 0
-200 14765 0
-201 14765 0
-14766 30 0
-30 14766 0
-14767 72 0
-72 14767 0
-14768 114 0
-114 14768 0
-14769 156 0
-156 14769 0
-14770 198 0
-198 14770 0
-14766 14771 0
-14767 14772 0
-14771 14772 0
-14767 -14771 0
-14768 14773 0
-14772 14773 0
-14768 -14772 0
-14769 14774 0
-14773 14774 0
-14769 -14773 0
-14770 -14774 0
-14776 30 31 0
-30 14776 0
-31 14776 0
-14777 72 73 0
-72 14777 0
-73 14777 0
-14778 114 115 0
-114 14778 0
-115 14778 0
-14779 156 157 0
-156 14779 0
-157 14779 0
-14780 198 199 0
-198 14780 0
-199 14780 0
-14776 14781 0
-14782 0
-14777 14783 0
-14781 14783 0
-14777 -14781 14784 0
-14782 14784 0
-14777 -14782 0
-14778 14785 0
-14783 14785 0
-14778 -14783 14786 0
-14784 14786 0
-14778 -14784 0
-14779 14787 0
-14785 14787 0
-14779 -14785 14788 0
-14786 14788 0
-14779 -14786 0
-14780 -14788 0
-14791 30 31 32 0
-30 14791 0
-31 14791 0
-32 14791 0
-14792 72 73 74 0
-72 14792 0
-73 14792 0
-74 14792 0
-14793 114 115 116 0
-114 14793 0
-115 14793 0
-116 14793 0
-14794 156 157 158 0
-156 14794 0
-157 14794 0
-158 14794 0
-14795 198 199 200 0
-198 14795 0
-199 14795 0
-200 14795 0
-14791 14796 0
-14797 0
-14798 0
-14792 14799 0
-14796 14799 0
-14792 -14796 14800 0
-14797 14800 0
-14792 -14797 14801 0
-14798 14801 0
-14792 -14798 0
-14793 14802 0
-14799 14802 0
-14793 -14799 14803 0
-14800 14803 0
-14793 -14800 14804 0
-14801 14804 0
-14793 -14801 0
-14794 14805 0
-14802 14805 0
-14794 -14802 14806 0
-14803 14806 0
-14794 -14803 14807 0
-14804 14807 0
-14794 -14804 0
-14795 -14807 0
-14811 30 31 32 33 0
-30 14811 0
-31 14811 0
-32 14811 0
-33 14811 0
-14812 72 73 74 75 0
-72 14812 0
-73 14812 0
-74 14812 0
-75 14812 0
-14813 114 115 116 117 0
-114 14813 0
-115 14813 0
-116 14813 0
-117 14813 0
-14814 156 157 158 159 0
-156 14814 0
-157 14814 0
-158 14814 0
-159 14814 0
-14815 198 199 200 201 0
-198 14815 0
-199 14815 0
-200 14815 0
-201 14815 0
-14811 14816 0
-14817 0
-14818 0
-14819 0
-14812 14820 0
-14816 14820 0
-14812 -14816 14821 0
-14817 14821 0
-14812 -14817 14822 0
-14818 14822 0
-14812 -14818 14823 0
-14819 14823 0
-14812 -14819 0
-14813 14824 0
-14820 14824 0
-14813 -14820 14825 0
-14821 14825 0
-14813 -14821 14826 0
-14822 14826 0
-14813 -14822 14827 0
-14823 14827 0
-14813 -14823 0
-14814 14828 0
-14824 14828 0
-14814 -14824 14829 0
-14825 14829 0
-14814 -14825 14830 0
-14826 14830 0
-14814 -14826 14831 0
-14827 14831 0
-14814 -14827 0
-14815 -14831 0
-14836 30 31 32 33 34 0
-30 14836 0
-31 14836 0
-32 14836 0
-33 14836 0
-34 14836 0
-14837 72 73 74 75 76 0
-72 14837 0
-73 14837 0
-74 14837 0
-75 14837 0
-76 14837 0
-14838 114 115 116 117 118 0
-114 14838 0
-115 14838 0
-116 14838 0
-117 14838 0
-118 14838 0
-14839 156 157 158 159 160 0
-156 14839 0
-157 14839 0
-158 14839 0
-159 14839 0
-160 14839 0
-14840 198 199 200 201 202 0
-198 14840 0
-199 14840 0
-200 14840 0
-201 14840 0
-202 14840 0
-14841 31 0
-31 14841 0
-14842 73 0
-73 14842 0
-14843 115 0
-115 14843 0
-14844 157 0
-157 14844 0
-14845 199 0
-199 14845 0
-14841 14846 0
-14842 14847 0
-14846 14847 0
-14842 -14846 0
-14843 14848 0
-14847 14848 0
-14843 -14847 0
-14844 14849 0
-14848 14849 0
-14844 -14848 0
-14845 -14849 0
-14851 31 32 0
-31 14851 0
-32 14851 0
-14852 73 74 0
-73 14852 0
-74 14852 0
-14853 115 116 0
-115 14853 0
-116 14853 0
-14854 157 158 0
-157 14854 0
-158 14854 0
-14855 199 200 0
-199 14855 0
-200 14855 0
-14851 14856 0
-14857 0
-14852 14858 0
-14856 14858 0
-14852 -14856 14859 0
-14857 14859 0
-14852 -14857 0
-14853 14860 0
-14858 14860 0
-14853 -14858 14861 0
-14859 14861 0
-14853 -14859 0
-14854 14862 0
-14860 14862 0
-14854 -14860 14863 0
-14861 14863 0
-14854 -14861 0
-14855 -14863 0
-14866 31 32 33 0
-31 14866 0
-32 14866 0
-33 14866 0
-14867 73 74 75 0
-73 14867 0
-74 14867 0
-75 14867 0
-14868 115 116 117 0
-115 14868 0
-116 14868 0
-117 14868 0
-14869 157 158 159 0
-157 14869 0
-158 14869 0
-159 14869 0
-14870 199 200 201 0
-199 14870 0
-200 14870 0
-201 14870 0
-14866 14871 0
-14872 0
-14873 0
-14867 14874 0
-14871 14874 0
-14867 -14871 14875 0
-14872 14875 0
-14867 -14872 14876 0
-14873 14876 0
-14867 -14873 0
-14868 14877 0
-14874 14877 0
-14868 -14874 14878 0
-14875 14878 0
-14868 -14875 14879 0
-14876 14879 0
-14868 -14876 0
-14869 14880 0
-14877 14880 0
-14869 -14877 14881 0
-14878 14881 0
-14869 -14878 14882 0
-14879 14882 0
-14869 -14879 0
-14870 -14882 0
-14886 31 32 33 34 0
-31 14886 0
-32 14886 0
-33 14886 0
-34 14886 0
-14887 73 74 75 76 0
-73 14887 0
-74 14887 0
-75 14887 0
-76 14887 0
-14888 115 116 117 118 0
-115 14888 0
-116 14888 0
-117 14888 0
-118 14888 0
-14889 157 158 159 160 0
-157 14889 0
-158 14889 0
-159 14889 0
-160 14889 0
-14890 199 200 201 202 0
-199 14890 0
-200 14890 0
-201 14890 0
-202 14890 0
-14886 14891 0
-14892 0
-14893 0
-14894 0
-14887 14895 0
-14891 14895 0
-14887 -14891 14896 0
-14892 14896 0
-14887 -14892 14897 0
-14893 14897 0
-14887 -14893 14898 0
-14894 14898 0
-14887 -14894 0
-14888 14899 0
-14895 14899 0
-14888 -14895 14900 0
-14896 14900 0
-14888 -14896 14901 0
-14897 14901 0
-14888 -14897 14902 0
-14898 14902 0
-14888 -14898 0
-14889 14903 0
-14899 14903 0
-14889 -14899 14904 0
-14900 14904 0
-14889 -14900 14905 0
-14901 14905 0
-14889 -14901 14906 0
-14902 14906 0
-14889 -14902 0
-14890 -14906 0
-14911 31 32 33 34 35 0
-31 14911 0
-32 14911 0
-33 14911 0
-34 14911 0
-35 14911 0
-14912 73 74 75 76 77 0
-73 14912 0
-74 14912 0
-75 14912 0
-76 14912 0
-77 14912 0
-14913 115 116 117 118 119 0
-115 14913 0
-116 14913 0
-117 14913 0
-118 14913 0
-119 14913 0
-14914 157 158 159 160 161 0
-157 14914 0
-158 14914 0
-159 14914 0
-160 14914 0
-161 14914 0
-14915 199 200 201 202 203 0
-199 14915 0
-200 14915 0
-201 14915 0
-202 14915 0
-203 14915 0
-14916 32 0
-32 14916 0
-14917 74 0
-74 14917 0
-14918 116 0
-116 14918 0
-14919 158 0
-158 14919 0
-14920 200 0
-200 14920 0
-14916 14921 0
-14917 14922 0
-14921 14922 0
-14917 -14921 0
-14918 14923 0
-14922 14923 0
-14918 -14922 0
-14919 14924 0
-14923 14924 0
-14919 -14923 0
-14920 -14924 0
-14926 32 33 0
-32 14926 0
-33 14926 0
-14927 74 75 0
-74 14927 0
-75 14927 0
-14928 116 117 0
-116 14928 0
-117 14928 0
-14929 158 159 0
-158 14929 0
-159 14929 0
-14930 200 201 0
-200 14930 0
-201 14930 0
-14926 14931 0
-14932 0
-14927 14933 0
-14931 14933 0
-14927 -14931 14934 0
-14932 14934 0
-14927 -14932 0
-14928 14935 0
-14933 14935 0
-14928 -14933 14936 0
-14934 14936 0
-14928 -14934 0
-14929 14937 0
-14935 14937 0
-14929 -14935 14938 0
-14936 14938 0
-14929 -14936 0
-14930 -14938 0
-14941 32 33 34 0
-32 14941 0
-33 14941 0
-34 14941 0
-14942 74 75 76 0
-74 14942 0
-75 14942 0
-76 14942 0
-14943 116 117 118 0
-116 14943 0
-117 14943 0
-118 14943 0
-14944 158 159 160 0
-158 14944 0
-159 14944 0
-160 14944 0
-14945 200 201 202 0
-200 14945 0
-201 14945 0
-202 14945 0
-14941 14946 0
-14947 0
-14948 0
-14942 14949 0
-14946 14949 0
-14942 -14946 14950 0
-14947 14950 0
-14942 -14947 14951 0
-14948 14951 0
-14942 -14948 0
-14943 14952 0
-14949 14952 0
-14943 -14949 14953 0
-14950 14953 0
-14943 -14950 14954 0
-14951 14954 0
-14943 -14951 0
-14944 14955 0
-14952 14955 0
-14944 -14952 14956 0
-14953 14956 0
-14944 -14953 14957 0
-14954 14957 0
-14944 -14954 0
-14945 -14957 0
-14961 32 33 34 35 0
-32 14961 0
-33 14961 0
-34 14961 0
-35 14961 0
-14962 74 75 76 77 0
-74 14962 0
-75 14962 0
-76 14962 0
-77 14962 0
-14963 116 117 118 119 0
-116 14963 0
-117 14963 0
-118 14963 0
-119 14963 0
-14964 158 159 160 161 0
-158 14964 0
-159 14964 0
-160 14964 0
-161 14964 0
-14965 200 201 202 203 0
-200 14965 0
-201 14965 0
-202 14965 0
-203 14965 0
-14961 14966 0
-14967 0
-14968 0
-14969 0
-14962 14970 0
-14966 14970 0
-14962 -14966 14971 0
-14967 14971 0
-14962 -14967 14972 0
-14968 14972 0
-14962 -14968 14973 0
-14969 14973 0
-14962 -14969 0
-14963 14974 0
-14970 14974 0
-14963 -14970 14975 0
-14971 14975 0
-14963 -14971 14976 0
-14972 14976 0
-14963 -14972 14977 0
-14973 14977 0
-14963 -14973 0
-14964 14978 0
-14974 14978 0
-14964 -14974 14979 0
-14975 14979 0
-14964 -14975 14980 0
-14976 14980 0
-14964 -14976 14981 0
-14977 14981 0
-14964 -14977 0
-14965 -14981 0
-14986 33 0
-33 14986 0
-14987 75 0
-75 14987 0
-14988 117 0
-117 14988 0
-14989 159 0
-159 14989 0
-14990 201 0
-201 14990 0
-14986 14991 0
-14987 14992 0
-14991 14992 0
-14987 -14991 0
-14988 14993 0
-14992 14993 0
-14988 -14992 0
-14989 14994 0
-14993 14994 0
-14989 -14993 0
-14990 -14994 0
-14996 33 34 0
-33 14996 0
-34 14996 0
-14997 75 76 0
-75 14997 0
-76 14997 0
-14998 117 118 0
-117 14998 0
-118 14998 0
-14999 159 160 0
-159 14999 0
-160 14999 0
-15000 201 202 0
-201 15000 0
-202 15000 0
-14996 15001 0
-15002 0
-14997 15003 0
-15001 15003 0
-14997 -15001 15004 0
-15002 15004 0
-14997 -15002 0
-14998 15005 0
-15003 15005 0
-14998 -15003 15006 0
-15004 15006 0
-14998 -15004 0
-14999 15007 0
-15005 15007 0
-14999 -15005 15008 0
-15006 15008 0
-14999 -15006 0
-15000 -15008 0
-15011 33 34 35 0
-33 15011 0
-34 15011 0
-35 15011 0
-15012 75 76 77 0
-75 15012 0
-76 15012 0
-77 15012 0
-15013 117 118 119 0
-117 15013 0
-118 15013 0
-119 15013 0
-15014 159 160 161 0
-159 15014 0
-160 15014 0
-161 15014 0
-15015 201 202 203 0
-201 15015 0
-202 15015 0
-203 15015 0
-15011 15016 0
-15017 0
-15018 0
-15012 15019 0
-15016 15019 0
-15012 -15016 15020 0
-15017 15020 0
-15012 -15017 15021 0
-15018 15021 0
-15012 -15018 0
-15013 15022 0
-15019 15022 0
-15013 -15019 15023 0
-15020 15023 0
-15013 -15020 15024 0
-15021 15024 0
-15013 -15021 0
-15014 15025 0
-15022 15025 0
-15014 -15022 15026 0
-15023 15026 0
-15014 -15023 15027 0
-15024 15027 0
-15014 -15024 0
-15015 -15027 0
-15031 34 0
-34 15031 0
-15032 76 0
-76 15032 0
-15033 118 0
-118 15033 0
-15034 160 0
-160 15034 0
-15035 202 0
-202 15035 0
-15031 15036 0
-15032 15037 0
-15036 15037 0
-15032 -15036 0
-15033 15038 0
-15037 15038 0
-15033 -15037 0
-15034 15039 0
-15038 15039 0
-15034 -15038 0
-15035 -15039 0
-15041 34 35 0
-34 15041 0
-35 15041 0
-15042 76 77 0
-76 15042 0
-77 15042 0
-15043 118 119 0
-118 15043 0
-119 15043 0
-15044 160 161 0
-160 15044 0
-161 15044 0
-15045 202 203 0
-202 15045 0
-203 15045 0
-15041 15046 0
-15047 0
-15042 15048 0
-15046 15048 0
-15042 -15046 15049 0
-15047 15049 0
-15042 -15047 0
-15043 15050 0
-15048 15050 0
-15043 -15048 15051 0
-15049 15051 0
-15043 -15049 0
-15044 15052 0
-15050 15052 0
-15044 -15050 15053 0
-15051 15053 0
-15044 -15051 0
-15045 -15053 0
-15056 35 0
-35 15056 0
-15057 77 0
-77 15057 0
-15058 119 0
-119 15058 0
-15059 161 0
-161 15059 0
-15060 203 0
-203 15060 0
-15056 15061 0
-15057 15062 0
-15061 15062 0
-15057 -15061 0
-15058 15063 0
-15062 15063 0
-15058 -15062 0
-15059 15064 0
-15063 15064 0
-15059 -15063 0
-15060 -15064 0
-15066 36 0
-36 15066 0
-15067 78 0
-78 15067 0
-15068 120 0
-120 15068 0
-15069 162 0
-162 15069 0
-15070 204 0
-204 15070 0
-15071 246 0
-246 15071 0
-15066 15072 0
-15067 15073 0
-15072 15073 0
-15067 -15072 0
-15068 15074 0
-15073 15074 0
-15068 -15073 0
-15069 15075 0
-15074 15075 0
-15069 -15074 0
-15070 15076 0
-15075 15076 0
-15070 -15075 0
-15071 -15076 0
-15078 36 37 0
-36 15078 0
-37 15078 0
-15079 78 79 0
-78 15079 0
-79 15079 0
-15080 120 121 0
-120 15080 0
-121 15080 0
-15081 162 163 0
-162 15081 0
-163 15081 0
-15082 204 205 0
-204 15082 0
-205 15082 0
-15083 246 247 0
-246 15083 0
-247 15083 0
-15078 15084 0
-15085 0
-15079 15086 0
-15084 15086 0
-15079 -15084 15087 0
-15085 15087 0
-15079 -15085 0
-15080 15088 0
-15086 15088 0
-15080 -15086 15089 0
-15087 15089 0
-15080 -15087 0
-15081 15090 0
-15088 15090 0
-15081 -15088 15091 0
-15089 15091 0
-15081 -15089 0
-15082 15092 0
-15090 15092 0
-15082 -15090 15093 0
-15091 15093 0
-15082 -15091 0
-15083 -15093 0
-15096 36 37 38 0
-36 15096 0
-37 15096 0
-38 15096 0
-15097 78 79 80 0
-78 15097 0
-79 15097 0
-80 15097 0
-15098 120 121 122 0
-120 15098 0
-121 15098 0
-122 15098 0
-15099 162 163 164 0
-162 15099 0
-163 15099 0
-164 15099 0
-15100 204 205 206 0
-204 15100 0
-205 15100 0
-206 15100 0
-15101 246 247 248 0
-246 15101 0
-247 15101 0
-248 15101 0
-15096 15102 0
-15103 0
-15104 0
-15097 15105 0
-15102 15105 0
-15097 -15102 15106 0
-15103 15106 0
-15097 -15103 15107 0
-15104 15107 0
-15097 -15104 0
-15098 15108 0
-15105 15108 0
-15098 -15105 15109 0
-15106 15109 0
-15098 -15106 15110 0
-15107 15110 0
-15098 -15107 0
-15099 15111 0
-15108 15111 0
-15099 -15108 15112 0
-15109 15112 0
-15099 -15109 15113 0
-15110 15113 0
-15099 -15110 0
-15100 15114 0
-15111 15114 0
-15100 -15111 15115 0
-15112 15115 0
-15100 -15112 15116 0
-15113 15116 0
-15100 -15113 0
-15101 -15116 0
-15120 36 37 38 39 0
-36 15120 0
-37 15120 0
-38 15120 0
-39 15120 0
-15121 78 79 80 81 0
-78 15121 0
-79 15121 0
-80 15121 0
-81 15121 0
-15122 120 121 122 123 0
-120 15122 0
-121 15122 0
-122 15122 0
-123 15122 0
-15123 162 163 164 165 0
-162 15123 0
-163 15123 0
-164 15123 0
-165 15123 0
-15124 204 205 206 207 0
-204 15124 0
-205 15124 0
-206 15124 0
-207 15124 0
-15125 246 247 248 249 0
-246 15125 0
-247 15125 0
-248 15125 0
-249 15125 0
-15120 15126 0
-15127 0
-15128 0
-15129 0
-15121 15130 0
-15126 15130 0
-15121 -15126 15131 0
-15127 15131 0
-15121 -15127 15132 0
-15128 15132 0
-15121 -15128 15133 0
-15129 15133 0
-15121 -15129 0
-15122 15134 0
-15130 15134 0
-15122 -15130 15135 0
-15131 15135 0
-15122 -15131 15136 0
-15132 15136 0
-15122 -15132 15137 0
-15133 15137 0
-15122 -15133 0
-15123 15138 0
-15134 15138 0
-15123 -15134 15139 0
-15135 15139 0
-15123 -15135 15140 0
-15136 15140 0
-15123 -15136 15141 0
-15137 15141 0
-15123 -15137 0
-15124 15142 0
-15138 15142 0
-15124 -15138 15143 0
-15139 15143 0
-15124 -15139 15144 0
-15140 15144 0
-15124 -15140 15145 0
-15141 15145 0
-15124 -15141 0
-15125 -15145 0
-15150 36 37 38 39 40 0
-36 15150 0
-37 15150 0
-38 15150 0
-39 15150 0
-40 15150 0
-15151 78 79 80 81 82 0
-78 15151 0
-79 15151 0
-80 15151 0
-81 15151 0
-82 15151 0
-15152 120 121 122 123 124 0
-120 15152 0
-121 15152 0
-122 15152 0
-123 15152 0
-124 15152 0
-15153 162 163 164 165 166 0
-162 15153 0
-163 15153 0
-164 15153 0
-165 15153 0
-166 15153 0
-15154 204 205 206 207 208 0
-204 15154 0
-205 15154 0
-206 15154 0
-207 15154 0
-208 15154 0
-15155 246 247 248 249 250 0
-246 15155 0
-247 15155 0
-248 15155 0
-249 15155 0
-250 15155 0
-15150 15156 0
-15157 0
-15158 0
-15159 0
-15160 0
-15151 15161 0
-15156 15161 0
-15151 -15156 15162 0
-15157 15162 0
-15151 -15157 15163 0
-15158 15163 0
-15151 -15158 15164 0
-15159 15164 0
-15151 -15159 15165 0
-15160 15165 0
-15151 -15160 0
-15152 15166 0
-15161 15166 0
-15152 -15161 15167 0
-15162 15167 0
-15152 -15162 15168 0
-15163 15168 0
-15152 -15163 15169 0
-15164 15169 0
-15152 -15164 15170 0
-15165 15170 0
-15152 -15165 0
-15153 15171 0
-15166 15171 0
-15153 -15166 15172 0
-15167 15172 0
-15153 -15167 15173 0
-15168 15173 0
-15153 -15168 15174 0
-15169 15174 0
-15153 -15169 15175 0
-15170 15175 0
-15153 -15170 0
-15154 15176 0
-15171 15176 0
-15154 -15171 15177 0
-15172 15177 0
-15154 -15172 15178 0
-15173 15178 0
-15154 -15173 15179 0
-15174 15179 0
-15154 -15174 15180 0
-15175 15180 0
-15154 -15175 0
-15155 -15180 0
-15186 36 37 38 39 40 41 0
-36 15186 0
-37 15186 0
-38 15186 0
-39 15186 0
-40 15186 0
-41 15186 0
-15187 78 79 80 81 82 83 0
-78 15187 0
-79 15187 0
-80 15187 0
-81 15187 0
-82 15187 0
-83 15187 0
-15188 120 121 122 123 124 125 0
-120 15188 0
-121 15188 0
-122 15188 0
-123 15188 0
-124 15188 0
-125 15188 0
-15189 162 163 164 165 166 167 0
-162 15189 0
-163 15189 0
-164 15189 0
-165 15189 0
-166 15189 0
-167 15189 0
-15190 204 205 206 207 208 209 0
-204 15190 0
-205 15190 0
-206 15190 0
-207 15190 0
-208 15190 0
-209 15190 0
-15191 246 247 248 249 250 251 0
-246 15191 0
-247 15191 0
-248 15191 0
-249 15191 0
-250 15191 0
-251 15191 0
-15192 37 0
-37 15192 0
-15193 79 0
-79 15193 0
-15194 121 0
-121 15194 0
-15195 163 0
-163 15195 0
-15196 205 0
-205 15196 0
-15197 247 0
-247 15197 0
-15192 15198 0
-15193 15199 0
-15198 15199 0
-15193 -15198 0
-15194 15200 0
-15199 15200 0
-15194 -15199 0
-15195 15201 0
-15200 15201 0
-15195 -15200 0
-15196 15202 0
-15201 15202 0
-15196 -15201 0
-15197 -15202 0
-15204 37 38 0
-37 15204 0
-38 15204 0
-15205 79 80 0
-79 15205 0
-80 15205 0
-15206 121 122 0
-121 15206 0
-122 15206 0
-15207 163 164 0
-163 15207 0
-164 15207 0
-15208 205 206 0
-205 15208 0
-206 15208 0
-15209 247 248 0
-247 15209 0
-248 15209 0
-15204 15210 0
-15211 0
-15205 15212 0
-15210 15212 0
-15205 -15210 15213 0
-15211 15213 0
-15205 -15211 0
-15206 15214 0
-15212 15214 0
-15206 -15212 15215 0
-15213 15215 0
-15206 -15213 0
-15207 15216 0
-15214 15216 0
-15207 -15214 15217 0
-15215 15217 0
-15207 -15215 0
-15208 15218 0
-15216 15218 0
-15208 -15216 15219 0
-15217 15219 0
-15208 -15217 0
-15209 -15219 0
-15222 37 38 39 0
-37 15222 0
-38 15222 0
-39 15222 0
-15223 79 80 81 0
-79 15223 0
-80 15223 0
-81 15223 0
-15224 121 122 123 0
-121 15224 0
-122 15224 0
-123 15224 0
-15225 163 164 165 0
-163 15225 0
-164 15225 0
-165 15225 0
-15226 205 206 207 0
-205 15226 0
-206 15226 0
-207 15226 0
-15227 247 248 249 0
-247 15227 0
-248 15227 0
-249 15227 0
-15222 15228 0
-15229 0
-15230 0
-15223 15231 0
-15228 15231 0
-15223 -15228 15232 0
-15229 15232 0
-15223 -15229 15233 0
-15230 15233 0
-15223 -15230 0
-15224 15234 0
-15231 15234 0
-15224 -15231 15235 0
-15232 15235 0
-15224 -15232 15236 0
-15233 15236 0
-15224 -15233 0
-15225 15237 0
-15234 15237 0
-15225 -15234 15238 0
-15235 15238 0
-15225 -15235 15239 0
-15236 15239 0
-15225 -15236 0
-15226 15240 0
-15237 15240 0
-15226 -15237 15241 0
-15238 15241 0
-15226 -15238 15242 0
-15239 15242 0
-15226 -15239 0
-15227 -15242 0
-15246 37 38 39 40 0
-37 15246 0
-38 15246 0
-39 15246 0
-40 15246 0
-15247 79 80 81 82 0
-79 15247 0
-80 15247 0
-81 15247 0
-82 15247 0
-15248 121 122 123 124 0
-121 15248 0
-122 15248 0
-123 15248 0
-124 15248 0
-15249 163 164 165 166 0
-163 15249 0
-164 15249 0
-165 15249 0
-166 15249 0
-15250 205 206 207 208 0
-205 15250 0
-206 15250 0
-207 15250 0
-208 15250 0
-15251 247 248 249 250 0
-247 15251 0
-248 15251 0
-249 15251 0
-250 15251 0
-15246 15252 0
-15253 0
-15254 0
-15255 0
-15247 15256 0
-15252 15256 0
-15247 -15252 15257 0
-15253 15257 0
-15247 -15253 15258 0
-15254 15258 0
-15247 -15254 15259 0
-15255 15259 0
-15247 -15255 0
-15248 15260 0
-15256 15260 0
-15248 -15256 15261 0
-15257 15261 0
-15248 -15257 15262 0
-15258 15262 0
-15248 -15258 15263 0
-15259 15263 0
-15248 -15259 0
-15249 15264 0
-15260 15264 0
-15249 -15260 15265 0
-15261 15265 0
-15249 -15261 15266 0
-15262 15266 0
-15249 -15262 15267 0
-15263 15267 0
-15249 -15263 0
-15250 15268 0
-15264 15268 0
-15250 -15264 15269 0
-15265 15269 0
-15250 -15265 15270 0
-15266 15270 0
-15250 -15266 15271 0
-15267 15271 0
-15250 -15267 0
-15251 -15271 0
-15276 37 38 39 40 41 0
-37 15276 0
-38 15276 0
-39 15276 0
-40 15276 0
-41 15276 0
-15277 79 80 81 82 83 0
-79 15277 0
-80 15277 0
-81 15277 0
-82 15277 0
-83 15277 0
-15278 121 122 123 124 125 0
-121 15278 0
-122 15278 0
-123 15278 0
-124 15278 0
-125 15278 0
-15279 163 164 165 166 167 0
-163 15279 0
-164 15279 0
-165 15279 0
-166 15279 0
-167 15279 0
-15280 205 206 207 208 209 0
-205 15280 0
-206 15280 0
-207 15280 0
-208 15280 0
-209 15280 0
-15281 247 248 249 250 251 0
-247 15281 0
-248 15281 0
-249 15281 0
-250 15281 0
-251 15281 0
-15276 15282 0
-15283 0
-15284 0
-15285 0
-15286 0
-15277 15287 0
-15282 15287 0
-15277 -15282 15288 0
-15283 15288 0
-15277 -15283 15289 0
-15284 15289 0
-15277 -15284 15290 0
-15285 15290 0
-15277 -15285 15291 0
-15286 15291 0
-15277 -15286 0
-15278 15292 0
-15287 15292 0
-15278 -15287 15293 0
-15288 15293 0
-15278 -15288 15294 0
-15289 15294 0
-15278 -15289 15295 0
-15290 15295 0
-15278 -15290 15296 0
-15291 15296 0
-15278 -15291 0
-15279 15297 0
-15292 15297 0
-15279 -15292 15298 0
-15293 15298 0
-15279 -15293 15299 0
-15294 15299 0
-15279 -15294 15300 0
-15295 15300 0
-15279 -15295 15301 0
-15296 15301 0
-15279 -15296 0
-15280 15302 0
-15297 15302 0
-15280 -15297 15303 0
-15298 15303 0
-15280 -15298 15304 0
-15299 15304 0
-15280 -15299 15305 0
-15300 15305 0
-15280 -15300 15306 0
-15301 15306 0
-15280 -15301 0
-15281 -15306 0
-15312 37 38 39 40 41 42 0
-37 15312 0
-38 15312 0
-39 15312 0
-40 15312 0
-41 15312 0
-42 15312 0
-15313 79 80 81 82 83 84 0
-79 15313 0
-80 15313 0
-81 15313 0
-82 15313 0
-83 15313 0
-84 15313 0
-15314 121 122 123 124 125 126 0
-121 15314 0
-122 15314 0
-123 15314 0
-124 15314 0
-125 15314 0
-126 15314 0
-15315 163 164 165 166 167 168 0
-163 15315 0
-164 15315 0
-165 15315 0
-166 15315 0
-167 15315 0
-168 15315 0
-15316 205 206 207 208 209 210 0
-205 15316 0
-206 15316 0
-207 15316 0
-208 15316 0
-209 15316 0
-210 15316 0
-15317 247 248 249 250 251 252 0
-247 15317 0
-248 15317 0
-249 15317 0
-250 15317 0
-251 15317 0
-252 15317 0
-15318 38 0
-38 15318 0
-15319 80 0
-80 15319 0
-15320 122 0
-122 15320 0
-15321 164 0
-164 15321 0
-15322 206 0
-206 15322 0
-15323 248 0
-248 15323 0
-15318 15324 0
-15319 15325 0
-15324 15325 0
-15319 -15324 0
-15320 15326 0
-15325 15326 0
-15320 -15325 0
-15321 15327 0
-15326 15327 0
-15321 -15326 0
-15322 15328 0
-15327 15328 0
-15322 -15327 0
-15323 -15328 0
-15330 38 39 0
-38 15330 0
-39 15330 0
-15331 80 81 0
-80 15331 0
-81 15331 0
-15332 122 123 0
-122 15332 0
-123 15332 0
-15333 164 165 0
-164 15333 0
-165 15333 0
-15334 206 207 0
-206 15334 0
-207 15334 0
-15335 248 249 0
-248 15335 0
-249 15335 0
-15330 15336 0
-15337 0
-15331 15338 0
-15336 15338 0
-15331 -15336 15339 0
-15337 15339 0
-15331 -15337 0
-15332 15340 0
-15338 15340 0
-15332 -15338 15341 0
-15339 15341 0
-15332 -15339 0
-15333 15342 0
-15340 15342 0
-15333 -15340 15343 0
-15341 15343 0
-15333 -15341 0
-15334 15344 0
-15342 15344 0
-15334 -15342 15345 0
-15343 15345 0
-15334 -15343 0
-15335 -15345 0
-15348 38 39 40 0
-38 15348 0
-39 15348 0
-40 15348 0
-15349 80 81 82 0
-80 15349 0
-81 15349 0
-82 15349 0
-15350 122 123 124 0
-122 15350 0
-123 15350 0
-124 15350 0
-15351 164 165 166 0
-164 15351 0
-165 15351 0
-166 15351 0
-15352 206 207 208 0
-206 15352 0
-207 15352 0
-208 15352 0
-15353 248 249 250 0
-248 15353 0
-249 15353 0
-250 15353 0
-15348 15354 0
-15355 0
-15356 0
-15349 15357 0
-15354 15357 0
-15349 -15354 15358 0
-15355 15358 0
-15349 -15355 15359 0
-15356 15359 0
-15349 -15356 0
-15350 15360 0
-15357 15360 0
-15350 -15357 15361 0
-15358 15361 0
-15350 -15358 15362 0
-15359 15362 0
-15350 -15359 0
-15351 15363 0
-15360 15363 0
-15351 -15360 15364 0
-15361 15364 0
-15351 -15361 15365 0
-15362 15365 0
-15351 -15362 0
-15352 15366 0
-15363 15366 0
-15352 -15363 15367 0
-15364 15367 0
-15352 -15364 15368 0
-15365 15368 0
-15352 -15365 0
-15353 -15368 0
-15372 38 39 40 41 0
-38 15372 0
-39 15372 0
-40 15372 0
-41 15372 0
-15373 80 81 82 83 0
-80 15373 0
-81 15373 0
-82 15373 0
-83 15373 0
-15374 122 123 124 125 0
-122 15374 0
-123 15374 0
-124 15374 0
-125 15374 0
-15375 164 165 166 167 0
-164 15375 0
-165 15375 0
-166 15375 0
-167 15375 0
-15376 206 207 208 209 0
-206 15376 0
-207 15376 0
-208 15376 0
-209 15376 0
-15377 248 249 250 251 0
-248 15377 0
-249 15377 0
-250 15377 0
-251 15377 0
-15372 15378 0
-15379 0
-15380 0
-15381 0
-15373 15382 0
-15378 15382 0
-15373 -15378 15383 0
-15379 15383 0
-15373 -15379 15384 0
-15380 15384 0
-15373 -15380 15385 0
-15381 15385 0
-15373 -15381 0
-15374 15386 0
-15382 15386 0
-15374 -15382 15387 0
-15383 15387 0
-15374 -15383 15388 0
-15384 15388 0
-15374 -15384 15389 0
-15385 15389 0
-15374 -15385 0
-15375 15390 0
-15386 15390 0
-15375 -15386 15391 0
-15387 15391 0
-15375 -15387 15392 0
-15388 15392 0
-15375 -15388 15393 0
-15389 15393 0
-15375 -15389 0
-15376 15394 0
-15390 15394 0
-15376 -15390 15395 0
-15391 15395 0
-15376 -15391 15396 0
-15392 15396 0
-15376 -15392 15397 0
-15393 15397 0
-15376 -15393 0
-15377 -15397 0
-15402 38 39 40 41 42 0
-38 15402 0
-39 15402 0
-40 15402 0
-41 15402 0
-42 15402 0
-15403 80 81 82 83 84 0
-80 15403 0
-81 15403 0
-82 15403 0
-83 15403 0
-84 15403 0
-15404 122 123 124 125 126 0
-122 15404 0
-123 15404 0
-124 15404 0
-125 15404 0
-126 15404 0
-15405 164 165 166 167 168 0
-164 15405 0
-165 15405 0
-166 15405 0
-167 15405 0
-168 15405 0
-15406 206 207 208 209 210 0
-206 15406 0
-207 15406 0
-208 15406 0
-209 15406 0
-210 15406 0
-15407 248 249 250 251 252 0
-248 15407 0
-249 15407 0
-250 15407 0
-251 15407 0
-252 15407 0
-15402 15408 0
-15409 0
-15410 0
-15411 0
-15412 0
-15403 15413 0
-15408 15413 0
-15403 -15408 15414 0
-15409 15414 0
-15403 -15409 15415 0
-15410 15415 0
-15403 -15410 15416 0
-15411 15416 0
-15403 -15411 15417 0
-15412 15417 0
-15403 -15412 0
-15404 15418 0
-15413 15418 0
-15404 -15413 15419 0
-15414 15419 0
-15404 -15414 15420 0
-15415 15420 0
-15404 -15415 15421 0
-15416 15421 0
-15404 -15416 15422 0
-15417 15422 0
-15404 -15417 0
-15405 15423 0
-15418 15423 0
-15405 -15418 15424 0
-15419 15424 0
-15405 -15419 15425 0
-15420 15425 0
-15405 -15420 15426 0
-15421 15426 0
-15405 -15421 15427 0
-15422 15427 0
-15405 -15422 0
-15406 15428 0
-15423 15428 0
-15406 -15423 15429 0
-15424 15429 0
-15406 -15424 15430 0
-15425 15430 0
-15406 -15425 15431 0
-15426 15431 0
-15406 -15426 15432 0
-15427 15432 0
-15406 -15427 0
-15407 -15432 0
-15438 39 0
-39 15438 0
-15439 81 0
-81 15439 0
-15440 123 0
-123 15440 0
-15441 165 0
-165 15441 0
-15442 207 0
-207 15442 0
-15443 249 0
-249 15443 0
-15438 15444 0
-15439 15445 0
-15444 15445 0
-15439 -15444 0
-15440 15446 0
-15445 15446 0
-15440 -15445 0
-15441 15447 0
-15446 15447 0
-15441 -15446 0
-15442 15448 0
-15447 15448 0
-15442 -15447 0
-15443 -15448 0
-15450 39 40 0
-39 15450 0
-40 15450 0
-15451 81 82 0
-81 15451 0
-82 15451 0
-15452 123 124 0
-123 15452 0
-124 15452 0
-15453 165 166 0
-165 15453 0
-166 15453 0
-15454 207 208 0
-207 15454 0
-208 15454 0
-15455 249 250 0
-249 15455 0
-250 15455 0
-15450 15456 0
-15457 0
-15451 15458 0
-15456 15458 0
-15451 -15456 15459 0
-15457 15459 0
-15451 -15457 0
-15452 15460 0
-15458 15460 0
-15452 -15458 15461 0
-15459 15461 0
-15452 -15459 0
-15453 15462 0
-15460 15462 0
-15453 -15460 15463 0
-15461 15463 0
-15453 -15461 0
-15454 15464 0
-15462 15464 0
-15454 -15462 15465 0
-15463 15465 0
-15454 -15463 0
-15455 -15465 0
-15468 39 40 41 0
-39 15468 0
-40 15468 0
-41 15468 0
-15469 81 82 83 0
-81 15469 0
-82 15469 0
-83 15469 0
-15470 123 124 125 0
-123 15470 0
-124 15470 0
-125 15470 0
-15471 165 166 167 0
-165 15471 0
-166 15471 0
-167 15471 0
-15472 207 208 209 0
-207 15472 0
-208 15472 0
-209 15472 0
-15473 249 250 251 0
-249 15473 0
-250 15473 0
-251 15473 0
-15468 15474 0
-15475 0
-15476 0
-15469 15477 0
-15474 15477 0
-15469 -15474 15478 0
-15475 15478 0
-15469 -15475 15479 0
-15476 15479 0
-15469 -15476 0
-15470 15480 0
-15477 15480 0
-15470 -15477 15481 0
-15478 15481 0
-15470 -15478 15482 0
-15479 15482 0
-15470 -15479 0
-15471 15483 0
-15480 15483 0
-15471 -15480 15484 0
-15481 15484 0
-15471 -15481 15485 0
-15482 15485 0
-15471 -15482 0
-15472 15486 0
-15483 15486 0
-15472 -15483 15487 0
-15484 15487 0
-15472 -15484 15488 0
-15485 15488 0
-15472 -15485 0
-15473 -15488 0
-15492 39 40 41 42 0
-39 15492 0
-40 15492 0
-41 15492 0
-42 15492 0
-15493 81 82 83 84 0
-81 15493 0
-82 15493 0
-83 15493 0
-84 15493 0
-15494 123 124 125 126 0
-123 15494 0
-124 15494 0
-125 15494 0
-126 15494 0
-15495 165 166 167 168 0
-165 15495 0
-166 15495 0
-167 15495 0
-168 15495 0
-15496 207 208 209 210 0
-207 15496 0
-208 15496 0
-209 15496 0
-210 15496 0
-15497 249 250 251 252 0
-249 15497 0
-250 15497 0
-251 15497 0
-252 15497 0
-15492 15498 0
-15499 0
-15500 0
-15501 0
-15493 15502 0
-15498 15502 0
-15493 -15498 15503 0
-15499 15503 0
-15493 -15499 15504 0
-15500 15504 0
-15493 -15500 15505 0
-15501 15505 0
-15493 -15501 0
-15494 15506 0
-15502 15506 0
-15494 -15502 15507 0
-15503 15507 0
-15494 -15503 15508 0
-15504 15508 0
-15494 -15504 15509 0
-15505 15509 0
-15494 -15505 0
-15495 15510 0
-15506 15510 0
-15495 -15506 15511 0
-15507 15511 0
-15495 -15507 15512 0
-15508 15512 0
-15495 -15508 15513 0
-15509 15513 0
-15495 -15509 0
-15496 15514 0
-15510 15514 0
-15496 -15510 15515 0
-15511 15515 0
-15496 -15511 15516 0
-15512 15516 0
-15496 -15512 15517 0
-15513 15517 0
-15496 -15513 0
-15497 -15517 0
-15522 40 0
-40 15522 0
-15523 82 0
-82 15523 0
-15524 124 0
-124 15524 0
-15525 166 0
-166 15525 0
-15526 208 0
-208 15526 0
-15527 250 0
-250 15527 0
-15522 15528 0
-15523 15529 0
-15528 15529 0
-15523 -15528 0
-15524 15530 0
-15529 15530 0
-15524 -15529 0
-15525 15531 0
-15530 15531 0
-15525 -15530 0
-15526 15532 0
-15531 15532 0
-15526 -15531 0
-15527 -15532 0
-15534 40 41 0
-40 15534 0
-41 15534 0
-15535 82 83 0
-82 15535 0
-83 15535 0
-15536 124 125 0
-124 15536 0
-125 15536 0
-15537 166 167 0
-166 15537 0
-167 15537 0
-15538 208 209 0
-208 15538 0
-209 15538 0
-15539 250 251 0
-250 15539 0
-251 15539 0
-15534 15540 0
-15541 0
-15535 15542 0
-15540 15542 0
-15535 -15540 15543 0
-15541 15543 0
-15535 -15541 0
-15536 15544 0
-15542 15544 0
-15536 -15542 15545 0
-15543 15545 0
-15536 -15543 0
-15537 15546 0
-15544 15546 0
-15537 -15544 15547 0
-15545 15547 0
-15537 -15545 0
-15538 15548 0
-15546 15548 0
-15538 -15546 15549 0
-15547 15549 0
-15538 -15547 0
-15539 -15549 0
-15552 40 41 42 0
-40 15552 0
-41 15552 0
-42 15552 0
-15553 82 83 84 0
-82 15553 0
-83 15553 0
-84 15553 0
-15554 124 125 126 0
-124 15554 0
-125 15554 0
-126 15554 0
-15555 166 167 168 0
-166 15555 0
-167 15555 0
-168 15555 0
-15556 208 209 210 0
-208 15556 0
-209 15556 0
-210 15556 0
-15557 250 251 252 0
-250 15557 0
-251 15557 0
-252 15557 0
-15552 15558 0
-15559 0
-15560 0
-15553 15561 0
-15558 15561 0
-15553 -15558 15562 0
-15559 15562 0
-15553 -15559 15563 0
-15560 15563 0
-15553 -15560 0
-15554 15564 0
-15561 15564 0
-15554 -15561 15565 0
-15562 15565 0
-15554 -15562 15566 0
-15563 15566 0
-15554 -15563 0
-15555 15567 0
-15564 15567 0
-15555 -15564 15568 0
-15565 15568 0
-15555 -15565 15569 0
-15566 15569 0
-15555 -15566 0
-15556 15570 0
-15567 15570 0
-15556 -15567 15571 0
-15568 15571 0
-15556 -15568 15572 0
-15569 15572 0
-15556 -15569 0
-15557 -15572 0
-15576 41 0
-41 15576 0
-15577 83 0
-83 15577 0
-15578 125 0
-125 15578 0
-15579 167 0
-167 15579 0
-15580 209 0
-209 15580 0
-15581 251 0
-251 15581 0
-15576 15582 0
-15577 15583 0
-15582 15583 0
-15577 -15582 0
-15578 15584 0
-15583 15584 0
-15578 -15583 0
-15579 15585 0
-15584 15585 0
-15579 -15584 0
-15580 15586 0
-15585 15586 0
-15580 -15585 0
-15581 -15586 0
-15588 41 42 0
-41 15588 0
-42 15588 0
-15589 83 84 0
-83 15589 0
-84 15589 0
-15590 125 126 0
-125 15590 0
-126 15590 0
-15591 167 168 0
-167 15591 0
-168 15591 0
-15592 209 210 0
-209 15592 0
-210 15592 0
-15593 251 252 0
-251 15593 0
-252 15593 0
-15588 15594 0
-15595 0
-15589 15596 0
-15594 15596 0
-15589 -15594 15597 0
-15595 15597 0
-15589 -15595 0
-15590 15598 0
-15596 15598 0
-15590 -15596 15599 0
-15597 15599 0
-15590 -15597 0
-15591 15600 0
-15598 15600 0
-15591 -15598 15601 0
-15599 15601 0
-15591 -15599 0
-15592 15602 0
-15600 15602 0
-15592 -15600 15603 0
-15601 15603 0
-15592 -15601 0
-15593 -15603 0
-15606 42 0
-42 15606 0
-15607 84 0
-84 15607 0
-15608 126 0
-126 15608 0
-15609 168 0
-168 15609 0
-15610 210 0
-210 15610 0
-15611 252 0
-252 15611 0
-15606 15612 0
-15607 15613 0
-15612 15613 0
-15607 -15612 0
-15608 15614 0
-15613 15614 0
-15608 -15613 0
-15609 15615 0
-15614 15615 0
-15609 -15614 0
-15610 15616 0
-15615 15616 0
-15610 -15615 0
-15611 -15616 0
-15618 43 0
-43 15618 0
-15619 85 0
-85 15619 0
-15620 127 0
-127 15620 0
-15621 169 0
-169 15621 0
-15622 211 0
-211 15622 0
-15623 253 0
-253 15623 0
-15624 295 0
-295 15624 0
-15618 15625 0
-15619 15626 0
-15625 15626 0
-15619 -15625 0
-15620 15627 0
-15626 15627 0
-15620 -15626 0
-15621 15628 0
-15627 15628 0
-15621 -15627 0
-15622 15629 0
-15628 15629 0
-15622 -15628 0
-15623 15630 0
-15629 15630 0
-15623 -15629 0
-15624 -15630 0
-15632 43 44 0
-43 15632 0
-44 15632 0
-15633 85 86 0
-85 15633 0
-86 15633 0
-15634 127 128 0
-127 15634 0
-128 15634 0
-15635 169 170 0
-169 15635 0
-170 15635 0
-15636 211 212 0
-211 15636 0
-212 15636 0
-15637 253 254 0
-253 15637 0
-254 15637 0
-15638 295 296 0
-295 15638 0
-296 15638 0
-15632 15639 0
-15640 0
-15633 15641 0
-15639 15641 0
-15633 -15639 15642 0
-15640 15642 0
-15633 -15640 0
-15634 15643 0
-15641 15643 0
-15634 -15641 15644 0
-15642 15644 0
-15634 -15642 0
-15635 15645 0
-15643 15645 0
-15635 -15643 15646 0
-15644 15646 0
-15635 -15644 0
-15636 15647 0
-15645 15647 0
-15636 -15645 15648 0
-15646 15648 0
-15636 -15646 0
-15637 15649 0
-15647 15649 0
-15637 -15647 15650 0
-15648 15650 0
-15637 -15648 0
-15638 -15650 0
-15653 43 44 45 0
-43 15653 0
-44 15653 0
-45 15653 0
-15654 85 86 87 0
-85 15654 0
-86 15654 0
-87 15654 0
-15655 127 128 129 0
-127 15655 0
-128 15655 0
-129 15655 0
-15656 169 170 171 0
-169 15656 0
-170 15656 0
-171 15656 0
-15657 211 212 213 0
-211 15657 0
-212 15657 0
-213 15657 0
-15658 253 254 255 0
-253 15658 0
-254 15658 0
-255 15658 0
-15659 295 296 297 0
-295 15659 0
-296 15659 0
-297 15659 0
-15653 15660 0
-15661 0
-15662 0
-15654 15663 0
-15660 15663 0
-15654 -15660 15664 0
-15661 15664 0
-15654 -15661 15665 0
-15662 15665 0
-15654 -15662 0
-15655 15666 0
-15663 15666 0
-15655 -15663 15667 0
-15664 15667 0
-15655 -15664 15668 0
-15665 15668 0
-15655 -15665 0
-15656 15669 0
-15666 15669 0
-15656 -15666 15670 0
-15667 15670 0
-15656 -15667 15671 0
-15668 15671 0
-15656 -15668 0
-15657 15672 0
-15669 15672 0
-15657 -15669 15673 0
-15670 15673 0
-15657 -15670 15674 0
-15671 15674 0
-15657 -15671 0
-15658 15675 0
-15672 15675 0
-15658 -15672 15676 0
-15673 15676 0
-15658 -15673 15677 0
-15674 15677 0
-15658 -15674 0
-15659 -15677 0
-15681 43 44 45 46 0
-43 15681 0
-44 15681 0
-45 15681 0
-46 15681 0
-15682 85 86 87 88 0
-85 15682 0
-86 15682 0
-87 15682 0
-88 15682 0
-15683 127 128 129 130 0
-127 15683 0
-128 15683 0
-129 15683 0
-130 15683 0
-15684 169 170 171 172 0
-169 15684 0
-170 15684 0
-171 15684 0
-172 15684 0
-15685 211 212 213 214 0
-211 15685 0
-212 15685 0
-213 15685 0
-214 15685 0
-15686 253 254 255 256 0
-253 15686 0
-254 15686 0
-255 15686 0
-256 15686 0
-15687 295 296 297 298 0
-295 15687 0
-296 15687 0
-297 15687 0
-298 15687 0
-15681 15688 0
-15689 0
-15690 0
-15691 0
-15682 15692 0
-15688 15692 0
-15682 -15688 15693 0
-15689 15693 0
-15682 -15689 15694 0
-15690 15694 0
-15682 -15690 15695 0
-15691 15695 0
-15682 -15691 0
-15683 15696 0
-15692 15696 0
-15683 -15692 15697 0
-15693 15697 0
-15683 -15693 15698 0
-15694 15698 0
-15683 -15694 15699 0
-15695 15699 0
-15683 -15695 0
-15684 15700 0
-15696 15700 0
-15684 -15696 15701 0
-15697 15701 0
-15684 -15697 15702 0
-15698 15702 0
-15684 -15698 15703 0
-15699 15703 0
-15684 -15699 0
-15685 15704 0
-15700 15704 0
-15685 -15700 15705 0
-15701 15705 0
-15685 -15701 15706 0
-15702 15706 0
-15685 -15702 15707 0
-15703 15707 0
-15685 -15703 0
-15686 15708 0
-15704 15708 0
-15686 -15704 15709 0
-15705 15709 0
-15686 -15705 15710 0
-15706 15710 0
-15686 -15706 15711 0
-15707 15711 0
-15686 -15707 0
-15687 -15711 0
-15716 43 44 45 46 47 0
-43 15716 0
-44 15716 0
-45 15716 0
-46 15716 0
-47 15716 0
-15717 85 86 87 88 89 0
-85 15717 0
-86 15717 0
-87 15717 0
-88 15717 0
-89 15717 0
-15718 127 128 129 130 131 0
-127 15718 0
-128 15718 0
-129 15718 0
-130 15718 0
-131 15718 0
-15719 169 170 171 172 173 0
-169 15719 0
-170 15719 0
-171 15719 0
-172 15719 0
-173 15719 0
-15720 211 212 213 214 215 0
-211 15720 0
-212 15720 0
-213 15720 0
-214 15720 0
-215 15720 0
-15721 253 254 255 256 257 0
-253 15721 0
-254 15721 0
-255 15721 0
-256 15721 0
-257 15721 0
-15722 295 296 297 298 299 0
-295 15722 0
-296 15722 0
-297 15722 0
-298 15722 0
-299 15722 0
-15716 15723 0
-15724 0
-15725 0
-15726 0
-15727 0
-15717 15728 0
-15723 15728 0
-15717 -15723 15729 0
-15724 15729 0
-15717 -15724 15730 0
-15725 15730 0
-15717 -15725 15731 0
-15726 15731 0
-15717 -15726 15732 0
-15727 15732 0
-15717 -15727 0
-15718 15733 0
-15728 15733 0
-15718 -15728 15734 0
-15729 15734 0
-15718 -15729 15735 0
-15730 15735 0
-15718 -15730 15736 0
-15731 15736 0
-15718 -15731 15737 0
-15732 15737 0
-15718 -15732 0
-15719 15738 0
-15733 15738 0
-15719 -15733 15739 0
-15734 15739 0
-15719 -15734 15740 0
-15735 15740 0
-15719 -15735 15741 0
-15736 15741 0
-15719 -15736 15742 0
-15737 15742 0
-15719 -15737 0
-15720 15743 0
-15738 15743 0
-15720 -15738 15744 0
-15739 15744 0
-15720 -15739 15745 0
-15740 15745 0
-15720 -15740 15746 0
-15741 15746 0
-15720 -15741 15747 0
-15742 15747 0
-15720 -15742 0
-15721 15748 0
-15743 15748 0
-15721 -15743 15749 0
-15744 15749 0
-15721 -15744 15750 0
-15745 15750 0
-15721 -15745 15751 0
-15746 15751 0
-15721 -15746 15752 0
-15747 15752 0
-15721 -15747 0
-15722 -15752 0
-15758 43 44 45 46 47 48 0
-43 15758 0
-44 15758 0
-45 15758 0
-46 15758 0
-47 15758 0
-48 15758 0
-15759 85 86 87 88 89 90 0
-85 15759 0
-86 15759 0
-87 15759 0
-88 15759 0
-89 15759 0
-90 15759 0
-15760 127 128 129 130 131 132 0
-127 15760 0
-128 15760 0
-129 15760 0
-130 15760 0
-131 15760 0
-132 15760 0
-15761 169 170 171 172 173 174 0
-169 15761 0
-170 15761 0
-171 15761 0
-172 15761 0
-173 15761 0
-174 15761 0
-15762 211 212 213 214 215 216 0
-211 15762 0
-212 15762 0
-213 15762 0
-214 15762 0
-215 15762 0
-216 15762 0
-15763 253 254 255 256 257 258 0
-253 15763 0
-254 15763 0
-255 15763 0
-256 15763 0
-257 15763 0
-258 15763 0
-15764 295 296 297 298 299 300 0
-295 15764 0
-296 15764 0
-297 15764 0
-298 15764 0
-299 15764 0
-300 15764 0
-15758 15765 0
-15766 0
-15767 0
-15768 0
-15769 0
-15770 0
-15759 15771 0
-15765 15771 0
-15759 -15765 15772 0
-15766 15772 0
-15759 -15766 15773 0
-15767 15773 0
-15759 -15767 15774 0
-15768 15774 0
-15759 -15768 15775 0
-15769 15775 0
-15759 -15769 15776 0
-15770 15776 0
-15759 -15770 0
-15760 15777 0
-15771 15777 0
-15760 -15771 15778 0
-15772 15778 0
-15760 -15772 15779 0
-15773 15779 0
-15760 -15773 15780 0
-15774 15780 0
-15760 -15774 15781 0
-15775 15781 0
-15760 -15775 15782 0
-15776 15782 0
-15760 -15776 0
-15761 15783 0
-15777 15783 0
-15761 -15777 15784 0
-15778 15784 0
-15761 -15778 15785 0
-15779 15785 0
-15761 -15779 15786 0
-15780 15786 0
-15761 -15780 15787 0
-15781 15787 0
-15761 -15781 15788 0
-15782 15788 0
-15761 -15782 0
-15762 15789 0
-15783 15789 0
-15762 -15783 15790 0
-15784 15790 0
-15762 -15784 15791 0
-15785 15791 0
-15762 -15785 15792 0
-15786 15792 0
-15762 -15786 15793 0
-15787 15793 0
-15762 -15787 15794 0
-15788 15794 0
-15762 -15788 0
-15763 15795 0
-15789 15795 0
-15763 -15789 15796 0
-15790 15796 0
-15763 -15790 15797 0
-15791 15797 0
-15763 -15791 15798 0
-15792 15798 0
-15763 -15792 15799 0
-15793 15799 0
-15763 -15793 15800 0
-15794 15800 0
-15763 -15794 0
-15764 -15800 0
-15807 43 44 45 46 47 48 49 0
-43 15807 0
-44 15807 0
-45 15807 0
-46 15807 0
-47 15807 0
-48 15807 0
-49 15807 0
-15808 85 86 87 88 89 90 91 0
-85 15808 0
-86 15808 0
-87 15808 0
-88 15808 0
-89 15808 0
-90 15808 0
-91 15808 0
-15809 127 128 129 130 131 132 133 0
-127 15809 0
-128 15809 0
-129 15809 0
-130 15809 0
-131 15809 0
-132 15809 0
-133 15809 0
-15810 169 170 171 172 173 174 175 0
-169 15810 0
-170 15810 0
-171 15810 0
-172 15810 0
-173 15810 0
-174 15810 0
-175 15810 0
-15811 211 212 213 214 215 216 217 0
-211 15811 0
-212 15811 0
-213 15811 0
-214 15811 0
-215 15811 0
-216 15811 0
-217 15811 0
-15812 253 254 255 256 257 258 259 0
-253 15812 0
-254 15812 0
-255 15812 0
-256 15812 0
-257 15812 0
-258 15812 0
-259 15812 0
-15813 295 296 297 298 299 300 301 0
-295 15813 0
-296 15813 0
-297 15813 0
-298 15813 0
-299 15813 0
-300 15813 0
-301 15813 0
-15814 44 0
-44 15814 0
-15815 86 0
-86 15815 0
-15816 128 0
-128 15816 0
-15817 170 0
-170 15817 0
-15818 212 0
-212 15818 0
-15819 254 0
-254 15819 0
-15820 296 0
-296 15820 0
-15814 15821 0
-15815 15822 0
-15821 15822 0
-15815 -15821 0
-15816 15823 0
-15822 15823 0
-15816 -15822 0
-15817 15824 0
-15823 15824 0
-15817 -15823 0
-15818 15825 0
-15824 15825 0
-15818 -15824 0
-15819 15826 0
-15825 15826 0
-15819 -15825 0
-15820 -15826 0
-15828 44 45 0
-44 15828 0
-45 15828 0
-15829 86 87 0
-86 15829 0
-87 15829 0
-15830 128 129 0
-128 15830 0
-129 15830 0
-15831 170 171 0
-170 15831 0
-171 15831 0
-15832 212 213 0
-212 15832 0
-213 15832 0
-15833 254 255 0
-254 15833 0
-255 15833 0
-15834 296 297 0
-296 15834 0
-297 15834 0
-15828 15835 0
-15836 0
-15829 15837 0
-15835 15837 0
-15829 -15835 15838 0
-15836 15838 0
-15829 -15836 0
-15830 15839 0
-15837 15839 0
-15830 -15837 15840 0
-15838 15840 0
-15830 -15838 0
-15831 15841 0
-15839 15841 0
-15831 -15839 15842 0
-15840 15842 0
-15831 -15840 0
-15832 15843 0
-15841 15843 0
-15832 -15841 15844 0
-15842 15844 0
-15832 -15842 0
-15833 15845 0
-15843 15845 0
-15833 -15843 15846 0
-15844 15846 0
-15833 -15844 0
-15834 -15846 0
-15849 44 45 46 0
-44 15849 0
-45 15849 0
-46 15849 0
-15850 86 87 88 0
-86 15850 0
-87 15850 0
-88 15850 0
-15851 128 129 130 0
-128 15851 0
-129 15851 0
-130 15851 0
-15852 170 171 172 0
-170 15852 0
-171 15852 0
-172 15852 0
-15853 212 213 214 0
-212 15853 0
-213 15853 0
-214 15853 0
-15854 254 255 256 0
-254 15854 0
-255 15854 0
-256 15854 0
-15855 296 297 298 0
-296 15855 0
-297 15855 0
-298 15855 0
-15849 15856 0
-15857 0
-15858 0
-15850 15859 0
-15856 15859 0
-15850 -15856 15860 0
-15857 15860 0
-15850 -15857 15861 0
-15858 15861 0
-15850 -15858 0
-15851 15862 0
-15859 15862 0
-15851 -15859 15863 0
-15860 15863 0
-15851 -15860 15864 0
-15861 15864 0
-15851 -15861 0
-15852 15865 0
-15862 15865 0
-15852 -15862 15866 0
-15863 15866 0
-15852 -15863 15867 0
-15864 15867 0
-15852 -15864 0
-15853 15868 0
-15865 15868 0
-15853 -15865 15869 0
-15866 15869 0
-15853 -15866 15870 0
-15867 15870 0
-15853 -15867 0
-15854 15871 0
-15868 15871 0
-15854 -15868 15872 0
-15869 15872 0
-15854 -15869 15873 0
-15870 15873 0
-15854 -15870 0
-15855 -15873 0
-15877 44 45 46 47 0
-44 15877 0
-45 15877 0
-46 15877 0
-47 15877 0
-15878 86 87 88 89 0
-86 15878 0
-87 15878 0
-88 15878 0
-89 15878 0
-15879 128 129 130 131 0
-128 15879 0
-129 15879 0
-130 15879 0
-131 15879 0
-15880 170 171 172 173 0
-170 15880 0
-171 15880 0
-172 15880 0
-173 15880 0
-15881 212 213 214 215 0
-212 15881 0
-213 15881 0
-214 15881 0
-215 15881 0
-15882 254 255 256 257 0
-254 15882 0
-255 15882 0
-256 15882 0
-257 15882 0
-15883 296 297 298 299 0
-296 15883 0
-297 15883 0
-298 15883 0
-299 15883 0
-15877 15884 0
-15885 0
-15886 0
-15887 0
-15878 15888 0
-15884 15888 0
-15878 -15884 15889 0
-15885 15889 0
-15878 -15885 15890 0
-15886 15890 0
-15878 -15886 15891 0
-15887 15891 0
-15878 -15887 0
-15879 15892 0
-15888 15892 0
-15879 -15888 15893 0
-15889 15893 0
-15879 -15889 15894 0
-15890 15894 0
-15879 -15890 15895 0
-15891 15895 0
-15879 -15891 0
-15880 15896 0
-15892 15896 0
-15880 -15892 15897 0
-15893 15897 0
-15880 -15893 15898 0
-15894 15898 0
-15880 -15894 15899 0
-15895 15899 0
-15880 -15895 0
-15881 15900 0
-15896 15900 0
-15881 -15896 15901 0
-15897 15901 0
-15881 -15897 15902 0
-15898 15902 0
-15881 -15898 15903 0
-15899 15903 0
-15881 -15899 0
-15882 15904 0
-15900 15904 0
-15882 -15900 15905 0
-15901 15905 0
-15882 -15901 15906 0
-15902 15906 0
-15882 -15902 15907 0
-15903 15907 0
-15882 -15903 0
-15883 -15907 0
-15912 44 45 46 47 48 0
-44 15912 0
-45 15912 0
-46 15912 0
-47 15912 0
-48 15912 0
-15913 86 87 88 89 90 0
-86 15913 0
-87 15913 0
-88 15913 0
-89 15913 0
-90 15913 0
-15914 128 129 130 131 132 0
-128 15914 0
-129 15914 0
-130 15914 0
-131 15914 0
-132 15914 0
-15915 170 171 172 173 174 0
-170 15915 0
-171 15915 0
-172 15915 0
-173 15915 0
-174 15915 0
-15916 212 213 214 215 216 0
-212 15916 0
-213 15916 0
-214 15916 0
-215 15916 0
-216 15916 0
-15917 254 255 256 257 258 0
-254 15917 0
-255 15917 0
-256 15917 0
-257 15917 0
-258 15917 0
-15918 296 297 298 299 300 0
-296 15918 0
-297 15918 0
-298 15918 0
-299 15918 0
-300 15918 0
-15912 15919 0
-15920 0
-15921 0
-15922 0
-15923 0
-15913 15924 0
-15919 15924 0
-15913 -15919 15925 0
-15920 15925 0
-15913 -15920 15926 0
-15921 15926 0
-15913 -15921 15927 0
-15922 15927 0
-15913 -15922 15928 0
-15923 15928 0
-15913 -15923 0
-15914 15929 0
-15924 15929 0
-15914 -15924 15930 0
-15925 15930 0
-15914 -15925 15931 0
-15926 15931 0
-15914 -15926 15932 0
-15927 15932 0
-15914 -15927 15933 0
-15928 15933 0
-15914 -15928 0
-15915 15934 0
-15929 15934 0
-15915 -15929 15935 0
-15930 15935 0
-15915 -15930 15936 0
-15931 15936 0
-15915 -15931 15937 0
-15932 15937 0
-15915 -15932 15938 0
-15933 15938 0
-15915 -15933 0
-15916 15939 0
-15934 15939 0
-15916 -15934 15940 0
-15935 15940 0
-15916 -15935 15941 0
-15936 15941 0
-15916 -15936 15942 0
-15937 15942 0
-15916 -15937 15943 0
-15938 15943 0
-15916 -15938 0
-15917 15944 0
-15939 15944 0
-15917 -15939 15945 0
-15940 15945 0
-15917 -15940 15946 0
-15941 15946 0
-15917 -15941 15947 0
-15942 15947 0
-15917 -15942 15948 0
-15943 15948 0
-15917 -15943 0
-15918 -15948 0
-15954 44 45 46 47 48 49 0
-44 15954 0
-45 15954 0
-46 15954 0
-47 15954 0
-48 15954 0
-49 15954 0
-15955 86 87 88 89 90 91 0
-86 15955 0
-87 15955 0
-88 15955 0
-89 15955 0
-90 15955 0
-91 15955 0
-15956 128 129 130 131 132 133 0
-128 15956 0
-129 15956 0
-130 15956 0
-131 15956 0
-132 15956 0
-133 15956 0
-15957 170 171 172 173 174 175 0
-170 15957 0
-171 15957 0
-172 15957 0
-173 15957 0
-174 15957 0
-175 15957 0
-15958 212 213 214 215 216 217 0
-212 15958 0
-213 15958 0
-214 15958 0
-215 15958 0
-216 15958 0
-217 15958 0
-15959 254 255 256 257 258 259 0
-254 15959 0
-255 15959 0
-256 15959 0
-257 15959 0
-258 15959 0
-259 15959 0
-15960 296 297 298 299 300 301 0
-296 15960 0
-297 15960 0
-298 15960 0
-299 15960 0
-300 15960 0
-301 15960 0
-15954 15961 0
-15962 0
-15963 0
-15964 0
-15965 0
-15966 0
-15955 15967 0
-15961 15967 0
-15955 -15961 15968 0
-15962 15968 0
-15955 -15962 15969 0
-15963 15969 0
-15955 -15963 15970 0
-15964 15970 0
-15955 -15964 15971 0
-15965 15971 0
-15955 -15965 15972 0
-15966 15972 0
-15955 -15966 0
-15956 15973 0
-15967 15973 0
-15956 -15967 15974 0
-15968 15974 0
-15956 -15968 15975 0
-15969 15975 0
-15956 -15969 15976 0
-15970 15976 0
-15956 -15970 15977 0
-15971 15977 0
-15956 -15971 15978 0
-15972 15978 0
-15956 -15972 0
-15957 15979 0
-15973 15979 0
-15957 -15973 15980 0
-15974 15980 0
-15957 -15974 15981 0
-15975 15981 0
-15957 -15975 15982 0
-15976 15982 0
-15957 -15976 15983 0
-15977 15983 0
-15957 -15977 15984 0
-15978 15984 0
-15957 -15978 0
-15958 15985 0
-15979 15985 0
-15958 -15979 15986 0
-15980 15986 0
-15958 -15980 15987 0
-15981 15987 0
-15958 -15981 15988 0
-15982 15988 0
-15958 -15982 15989 0
-15983 15989 0
-15958 -15983 15990 0
-15984 15990 0
-15958 -15984 0
-15959 15991 0
-15985 15991 0
-15959 -15985 15992 0
-15986 15992 0
-15959 -15986 15993 0
-15987 15993 0
-15959 -15987 15994 0
-15988 15994 0
-15959 -15988 15995 0
-15989 15995 0
-15959 -15989 15996 0
-15990 15996 0
-15959 -15990 0
-15960 -15996 0
-16003 45 0
-45 16003 0
-16004 87 0
-87 16004 0
-16005 129 0
-129 16005 0
-16006 171 0
-171 16006 0
-16007 213 0
-213 16007 0
-16008 255 0
-255 16008 0
-16009 297 0
-297 16009 0
-16003 16010 0
-16004 16011 0
-16010 16011 0
-16004 -16010 0
-16005 16012 0
-16011 16012 0
-16005 -16011 0
-16006 16013 0
-16012 16013 0
-16006 -16012 0
-16007 16014 0
-16013 16014 0
-16007 -16013 0
-16008 16015 0
-16014 16015 0
-16008 -16014 0
-16009 -16015 0
-16017 45 46 0
-45 16017 0
-46 16017 0
-16018 87 88 0
-87 16018 0
-88 16018 0
-16019 129 130 0
-129 16019 0
-130 16019 0
-16020 171 172 0
-171 16020 0
-172 16020 0
-16021 213 214 0
-213 16021 0
-214 16021 0
-16022 255 256 0
-255 16022 0
-256 16022 0
-16023 297 298 0
-297 16023 0
-298 16023 0
-16017 16024 0
-16025 0
-16018 16026 0
-16024 16026 0
-16018 -16024 16027 0
-16025 16027 0
-16018 -16025 0
-16019 16028 0
-16026 16028 0
-16019 -16026 16029 0
-16027 16029 0
-16019 -16027 0
-16020 16030 0
-16028 16030 0
-16020 -16028 16031 0
-16029 16031 0
-16020 -16029 0
-16021 16032 0
-16030 16032 0
-16021 -16030 16033 0
-16031 16033 0
-16021 -16031 0
-16022 16034 0
-16032 16034 0
-16022 -16032 16035 0
-16033 16035 0
-16022 -16033 0
-16023 -16035 0
-16038 45 46 47 0
-45 16038 0
-46 16038 0
-47 16038 0
-16039 87 88 89 0
-87 16039 0
-88 16039 0
-89 16039 0
-16040 129 130 131 0
-129 16040 0
-130 16040 0
-131 16040 0
-16041 171 172 173 0
-171 16041 0
-172 16041 0
-173 16041 0
-16042 213 214 215 0
-213 16042 0
-214 16042 0
-215 16042 0
-16043 255 256 257 0
-255 16043 0
-256 16043 0
-257 16043 0
-16044 297 298 299 0
-297 16044 0
-298 16044 0
-299 16044 0
-16038 16045 0
-16046 0
-16047 0
-16039 16048 0
-16045 16048 0
-16039 -16045 16049 0
-16046 16049 0
-16039 -16046 16050 0
-16047 16050 0
-16039 -16047 0
-16040 16051 0
-16048 16051 0
-16040 -16048 16052 0
-16049 16052 0
-16040 -16049 16053 0
-16050 16053 0
-16040 -16050 0
-16041 16054 0
-16051 16054 0
-16041 -16051 16055 0
-16052 16055 0
-16041 -16052 16056 0
-16053 16056 0
-16041 -16053 0
-16042 16057 0
-16054 16057 0
-16042 -16054 16058 0
-16055 16058 0
-16042 -16055 16059 0
-16056 16059 0
-16042 -16056 0
-16043 16060 0
-16057 16060 0
-16043 -16057 16061 0
-16058 16061 0
-16043 -16058 16062 0
-16059 16062 0
-16043 -16059 0
-16044 -16062 0
-16066 45 46 47 48 0
-45 16066 0
-46 16066 0
-47 16066 0
-48 16066 0
-16067 87 88 89 90 0
-87 16067 0
-88 16067 0
-89 16067 0
-90 16067 0
-16068 129 130 131 132 0
-129 16068 0
-130 16068 0
-131 16068 0
-132 16068 0
-16069 171 172 173 174 0
-171 16069 0
-172 16069 0
-173 16069 0
-174 16069 0
-16070 213 214 215 216 0
-213 16070 0
-214 16070 0
-215 16070 0
-216 16070 0
-16071 255 256 257 258 0
-255 16071 0
-256 16071 0
-257 16071 0
-258 16071 0
-16072 297 298 299 300 0
-297 16072 0
-298 16072 0
-299 16072 0
-300 16072 0
-16066 16073 0
-16074 0
-16075 0
-16076 0
-16067 16077 0
-16073 16077 0
-16067 -16073 16078 0
-16074 16078 0
-16067 -16074 16079 0
-16075 16079 0
-16067 -16075 16080 0
-16076 16080 0
-16067 -16076 0
-16068 16081 0
-16077 16081 0
-16068 -16077 16082 0
-16078 16082 0
-16068 -16078 16083 0
-16079 16083 0
-16068 -16079 16084 0
-16080 16084 0
-16068 -16080 0
-16069 16085 0
-16081 16085 0
-16069 -16081 16086 0
-16082 16086 0
-16069 -16082 16087 0
-16083 16087 0
-16069 -16083 16088 0
-16084 16088 0
-16069 -16084 0
-16070 16089 0
-16085 16089 0
-16070 -16085 16090 0
-16086 16090 0
-16070 -16086 16091 0
-16087 16091 0
-16070 -16087 16092 0
-16088 16092 0
-16070 -16088 0
-16071 16093 0
-16089 16093 0
-16071 -16089 16094 0
-16090 16094 0
-16071 -16090 16095 0
-16091 16095 0
-16071 -16091 16096 0
-16092 16096 0
-16071 -16092 0
-16072 -16096 0
-16101 45 46 47 48 49 0
-45 16101 0
-46 16101 0
-47 16101 0
-48 16101 0
-49 16101 0
-16102 87 88 89 90 91 0
-87 16102 0
-88 16102 0
-89 16102 0
-90 16102 0
-91 16102 0
-16103 129 130 131 132 133 0
-129 16103 0
-130 16103 0
-131 16103 0
-132 16103 0
-133 16103 0
-16104 171 172 173 174 175 0
-171 16104 0
-172 16104 0
-173 16104 0
-174 16104 0
-175 16104 0
-16105 213 214 215 216 217 0
-213 16105 0
-214 16105 0
-215 16105 0
-216 16105 0
-217 16105 0
-16106 255 256 257 258 259 0
-255 16106 0
-256 16106 0
-257 16106 0
-258 16106 0
-259 16106 0
-16107 297 298 299 300 301 0
-297 16107 0
-298 16107 0
-299 16107 0
-300 16107 0
-301 16107 0
-16101 16108 0
-16109 0
-16110 0
-16111 0
-16112 0
-16102 16113 0
-16108 16113 0
-16102 -16108 16114 0
-16109 16114 0
-16102 -16109 16115 0
-16110 16115 0
-16102 -16110 16116 0
-16111 16116 0
-16102 -16111 16117 0
-16112 16117 0
-16102 -16112 0
-16103 16118 0
-16113 16118 0
-16103 -16113 16119 0
-16114 16119 0
-16103 -16114 16120 0
-16115 16120 0
-16103 -16115 16121 0
-16116 16121 0
-16103 -16116 16122 0
-16117 16122 0
-16103 -16117 0
-16104 16123 0
-16118 16123 0
-16104 -16118 16124 0
-16119 16124 0
-16104 -16119 16125 0
-16120 16125 0
-16104 -16120 16126 0
-16121 16126 0
-16104 -16121 16127 0
-16122 16127 0
-16104 -16122 0
-16105 16128 0
-16123 16128 0
-16105 -16123 16129 0
-16124 16129 0
-16105 -16124 16130 0
-16125 16130 0
-16105 -16125 16131 0
-16126 16131 0
-16105 -16126 16132 0
-16127 16132 0
-16105 -16127 0
-16106 16133 0
-16128 16133 0
-16106 -16128 16134 0
-16129 16134 0
-16106 -16129 16135 0
-16130 16135 0
-16106 -16130 16136 0
-16131 16136 0
-16106 -16131 16137 0
-16132 16137 0
-16106 -16132 0
-16107 -16137 0
-16143 46 0
-46 16143 0
-16144 88 0
-88 16144 0
-16145 130 0
-130 16145 0
-16146 172 0
-172 16146 0
-16147 214 0
-214 16147 0
-16148 256 0
-256 16148 0
-16149 298 0
-298 16149 0
-16143 16150 0
-16144 16151 0
-16150 16151 0
-16144 -16150 0
-16145 16152 0
-16151 16152 0
-16145 -16151 0
-16146 16153 0
-16152 16153 0
-16146 -16152 0
-16147 16154 0
-16153 16154 0
-16147 -16153 0
-16148 16155 0
-16154 16155 0
-16148 -16154 0
-16149 -16155 0
-16157 46 47 0
-46 16157 0
-47 16157 0
-16158 88 89 0
-88 16158 0
-89 16158 0
-16159 130 131 0
-130 16159 0
-131 16159 0
-16160 172 173 0
-172 16160 0
-173 16160 0
-16161 214 215 0
-214 16161 0
-215 16161 0
-16162 256 257 0
-256 16162 0
-257 16162 0
-16163 298 299 0
-298 16163 0
-299 16163 0
-16157 16164 0
-16165 0
-16158 16166 0
-16164 16166 0
-16158 -16164 16167 0
-16165 16167 0
-16158 -16165 0
-16159 16168 0
-16166 16168 0
-16159 -16166 16169 0
-16167 16169 0
-16159 -16167 0
-16160 16170 0
-16168 16170 0
-16160 -16168 16171 0
-16169 16171 0
-16160 -16169 0
-16161 16172 0
-16170 16172 0
-16161 -16170 16173 0
-16171 16173 0
-16161 -16171 0
-16162 16174 0
-16172 16174 0
-16162 -16172 16175 0
-16173 16175 0
-16162 -16173 0
-16163 -16175 0
-16178 46 47 48 0
-46 16178 0
-47 16178 0
-48 16178 0
-16179 88 89 90 0
-88 16179 0
-89 16179 0
-90 16179 0
-16180 130 131 132 0
-130 16180 0
-131 16180 0
-132 16180 0
-16181 172 173 174 0
-172 16181 0
-173 16181 0
-174 16181 0
-16182 214 215 216 0
-214 16182 0
-215 16182 0
-216 16182 0
-16183 256 257 258 0
-256 16183 0
-257 16183 0
-258 16183 0
-16184 298 299 300 0
-298 16184 0
-299 16184 0
-300 16184 0
-16178 16185 0
-16186 0
-16187 0
-16179 16188 0
-16185 16188 0
-16179 -16185 16189 0
-16186 16189 0
-16179 -16186 16190 0
-16187 16190 0
-16179 -16187 0
-16180 16191 0
-16188 16191 0
-16180 -16188 16192 0
-16189 16192 0
-16180 -16189 16193 0
-16190 16193 0
-16180 -16190 0
-16181 16194 0
-16191 16194 0
-16181 -16191 16195 0
-16192 16195 0
-16181 -16192 16196 0
-16193 16196 0
-16181 -16193 0
-16182 16197 0
-16194 16197 0
-16182 -16194 16198 0
-16195 16198 0
-16182 -16195 16199 0
-16196 16199 0
-16182 -16196 0
-16183 16200 0
-16197 16200 0
-16183 -16197 16201 0
-16198 16201 0
-16183 -16198 16202 0
-16199 16202 0
-16183 -16199 0
-16184 -16202 0
-16206 46 47 48 49 0
-46 16206 0
-47 16206 0
-48 16206 0
-49 16206 0
-16207 88 89 90 91 0
-88 16207 0
-89 16207 0
-90 16207 0
-91 16207 0
-16208 130 131 132 133 0
-130 16208 0
-131 16208 0
-132 16208 0
-133 16208 0
-16209 172 173 174 175 0
-172 16209 0
-173 16209 0
-174 16209 0
-175 16209 0
-16210 214 215 216 217 0
-214 16210 0
-215 16210 0
-216 16210 0
-217 16210 0
-16211 256 257 258 259 0
-256 16211 0
-257 16211 0
-258 16211 0
-259 16211 0
-16212 298 299 300 301 0
-298 16212 0
-299 16212 0
-300 16212 0
-301 16212 0
-16206 16213 0
-16214 0
-16215 0
-16216 0
-16207 16217 0
-16213 16217 0
-16207 -16213 16218 0
-16214 16218 0
-16207 -16214 16219 0
-16215 16219 0
-16207 -16215 16220 0
-16216 16220 0
-16207 -16216 0
-16208 16221 0
-16217 16221 0
-16208 -16217 16222 0
-16218 16222 0
-16208 -16218 16223 0
-16219 16223 0
-16208 -16219 16224 0
-16220 16224 0
-16208 -16220 0
-16209 16225 0
-16221 16225 0
-16209 -16221 16226 0
-16222 16226 0
-16209 -16222 16227 0
-16223 16227 0
-16209 -16223 16228 0
-16224 16228 0
-16209 -16224 0
-16210 16229 0
-16225 16229 0
-16210 -16225 16230 0
-16226 16230 0
-16210 -16226 16231 0
-16227 16231 0
-16210 -16227 16232 0
-16228 16232 0
-16210 -16228 0
-16211 16233 0
-16229 16233 0
-16211 -16229 16234 0
-16230 16234 0
-16211 -16230 16235 0
-16231 16235 0
-16211 -16231 16236 0
-16232 16236 0
-16211 -16232 0
-16212 -16236 0
-16241 47 0
-47 16241 0
-16242 89 0
-89 16242 0
-16243 131 0
-131 16243 0
-16244 173 0
-173 16244 0
-16245 215 0
-215 16245 0
-16246 257 0
-257 16246 0
-16247 299 0
-299 16247 0
-16241 16248 0
-16242 16249 0
-16248 16249 0
-16242 -16248 0
-16243 16250 0
-16249 16250 0
-16243 -16249 0
-16244 16251 0
-16250 16251 0
-16244 -16250 0
-16245 16252 0
-16251 16252 0
-16245 -16251 0
-16246 16253 0
-16252 16253 0
-16246 -16252 0
-16247 -16253 0
-16255 47 48 0
-47 16255 0
-48 16255 0
-16256 89 90 0
-89 16256 0
-90 16256 0
-16257 131 132 0
-131 16257 0
-132 16257 0
-16258 173 174 0
-173 16258 0
-174 16258 0
-16259 215 216 0
-215 16259 0
-216 16259 0
-16260 257 258 0
-257 16260 0
-258 16260 0
-16261 299 300 0
-299 16261 0
-300 16261 0
-16255 16262 0
-16263 0
-16256 16264 0
-16262 16264 0
-16256 -16262 16265 0
-16263 16265 0
-16256 -16263 0
-16257 16266 0
-16264 16266 0
-16257 -16264 16267 0
-16265 16267 0
-16257 -16265 0
-16258 16268 0
-16266 16268 0
-16258 -16266 16269 0
-16267 16269 0
-16258 -16267 0
-16259 16270 0
-16268 16270 0
-16259 -16268 16271 0
-16269 16271 0
-16259 -16269 0
-16260 16272 0
-16270 16272 0
-16260 -16270 16273 0
-16271 16273 0
-16260 -16271 0
-16261 -16273 0
-16276 47 48 49 0
-47 16276 0
-48 16276 0
-49 16276 0
-16277 89 90 91 0
-89 16277 0
-90 16277 0
-91 16277 0
-16278 131 132 133 0
-131 16278 0
-132 16278 0
-133 16278 0
-16279 173 174 175 0
-173 16279 0
-174 16279 0
-175 16279 0
-16280 215 216 217 0
-215 16280 0
-216 16280 0
-217 16280 0
-16281 257 258 259 0
-257 16281 0
-258 16281 0
-259 16281 0
-16282 299 300 301 0
-299 16282 0
-300 16282 0
-301 16282 0
-16276 16283 0
-16284 0
-16285 0
-16277 16286 0
-16283 16286 0
-16277 -16283 16287 0
-16284 16287 0
-16277 -16284 16288 0
-16285 16288 0
-16277 -16285 0
-16278 16289 0
-16286 16289 0
-16278 -16286 16290 0
-16287 16290 0
-16278 -16287 16291 0
-16288 16291 0
-16278 -16288 0
-16279 16292 0
-16289 16292 0
-16279 -16289 16293 0
-16290 16293 0
-16279 -16290 16294 0
-16291 16294 0
-16279 -16291 0
-16280 16295 0
-16292 16295 0
-16280 -16292 16296 0
-16293 16296 0
-16280 -16293 16297 0
-16294 16297 0
-16280 -16294 0
-16281 16298 0
-16295 16298 0
-16281 -16295 16299 0
-16296 16299 0
-16281 -16296 16300 0
-16297 16300 0
-16281 -16297 0
-16282 -16300 0
-16304 48 0
-48 16304 0
-16305 90 0
-90 16305 0
-16306 132 0
-132 16306 0
-16307 174 0
-174 16307 0
-16308 216 0
-216 16308 0
-16309 258 0
-258 16309 0
-16310 300 0
-300 16310 0
-16304 16311 0
-16305 16312 0
-16311 16312 0
-16305 -16311 0
-16306 16313 0
-16312 16313 0
-16306 -16312 0
-16307 16314 0
-16313 16314 0
-16307 -16313 0
-16308 16315 0
-16314 16315 0
-16308 -16314 0
-16309 16316 0
-16315 16316 0
-16309 -16315 0
-16310 -16316 0
-16318 48 49 0
-48 16318 0
-49 16318 0
-16319 90 91 0
-90 16319 0
-91 16319 0
-16320 132 133 0
-132 16320 0
-133 16320 0
-16321 174 175 0
-174 16321 0
-175 16321 0
-16322 216 217 0
-216 16322 0
-217 16322 0
-16323 258 259 0
-258 16323 0
-259 16323 0
-16324 300 301 0
-300 16324 0
-301 16324 0
-16318 16325 0
-16326 0
-16319 16327 0
-16325 16327 0
-16319 -16325 16328 0
-16326 16328 0
-16319 -16326 0
-16320 16329 0
-16327 16329 0
-16320 -16327 16330 0
-16328 16330 0
-16320 -16328 0
-16321 16331 0
-16329 16331 0
-16321 -16329 16332 0
-16330 16332 0
-16321 -16330 0
-16322 16333 0
-16331 16333 0
-16322 -16331 16334 0
-16332 16334 0
-16322 -16332 0
-16323 16335 0
-16333 16335 0
-16323 -16333 16336 0
-16334 16336 0
-16323 -16334 0
-16324 -16336 0
-16339 49 0
-49 16339 0
-16340 91 0
-91 16340 0
-16341 133 0
-133 16341 0
-16342 175 0
-175 16342 0
-16343 217 0
-217 16343 0
-16344 259 0
-259 16344 0
-16345 301 0
-301 16345 0
-16339 16346 0
-16340 16347 0
-16346 16347 0
-16340 -16346 0
-16341 16348 0
-16347 16348 0
-16341 -16347 0
-16342 16349 0
-16348 16349 0
-16342 -16348 0
-16343 16350 0
-16349 16350 0
-16343 -16349 0
-16344 16351 0
-16350 16351 0
-16344 -16350 0
-16345 -16351 0
-16353 92 0
-92 16353 0
-16354 134 0
-134 16354 0
-16355 176 0
-176 16355 0
-16356 218 0
-218 16356 0
-16357 260 0
-260 16357 0
-16358 302 0
-302 16358 0
-16353 16359 0
-16354 16360 0
-16359 16360 0
-16354 -16359 0
-16355 16361 0
-16360 16361 0
-16355 -16360 0
-16356 16362 0
-16361 16362 0
-16356 -16361 0
-16357 16363 0
-16362 16363 0
-16357 -16362 0
-16358 -16363 0
-16365 92 93 0
-92 16365 0
-93 16365 0
-16366 134 135 0
-134 16366 0
-135 16366 0
-16367 176 177 0
-176 16367 0
-177 16367 0
-16368 218 219 0
-218 16368 0
-219 16368 0
-16369 260 261 0
-260 16369 0
-261 16369 0
-16370 302 303 0
-302 16370 0
-303 16370 0
-16365 16371 0
-16372 0
-16366 16373 0
-16371 16373 0
-16366 -16371 16374 0
-16372 16374 0
-16366 -16372 0
-16367 16375 0
-16373 16375 0
-16367 -16373 16376 0
-16374 16376 0
-16367 -16374 0
-16368 16377 0
-16375 16377 0
-16368 -16375 16378 0
-16376 16378 0
-16368 -16376 0
-16369 16379 0
-16377 16379 0
-16369 -16377 16380 0
-16378 16380 0
-16369 -16378 0
-16370 -16380 0
-16383 92 93 94 0
-92 16383 0
-93 16383 0
-94 16383 0
-16384 134 135 136 0
-134 16384 0
-135 16384 0
-136 16384 0
-16385 176 177 178 0
-176 16385 0
-177 16385 0
-178 16385 0
-16386 218 219 220 0
-218 16386 0
-219 16386 0
-220 16386 0
-16387 260 261 262 0
-260 16387 0
-261 16387 0
-262 16387 0
-16388 302 303 304 0
-302 16388 0
-303 16388 0
-304 16388 0
-16383 16389 0
-16390 0
-16391 0
-16384 16392 0
-16389 16392 0
-16384 -16389 16393 0
-16390 16393 0
-16384 -16390 16394 0
-16391 16394 0
-16384 -16391 0
-16385 16395 0
-16392 16395 0
-16385 -16392 16396 0
-16393 16396 0
-16385 -16393 16397 0
-16394 16397 0
-16385 -16394 0
-16386 16398 0
-16395 16398 0
-16386 -16395 16399 0
-16396 16399 0
-16386 -16396 16400 0
-16397 16400 0
-16386 -16397 0
-16387 16401 0
-16398 16401 0
-16387 -16398 16402 0
-16399 16402 0
-16387 -16399 16403 0
-16400 16403 0
-16387 -16400 0
-16388 -16403 0
-16407 92 93 94 95 0
-92 16407 0
-93 16407 0
-94 16407 0
-95 16407 0
-16408 134 135 136 137 0
-134 16408 0
-135 16408 0
-136 16408 0
-137 16408 0
-16409 176 177 178 179 0
-176 16409 0
-177 16409 0
-178 16409 0
-179 16409 0
-16410 218 219 220 221 0
-218 16410 0
-219 16410 0
-220 16410 0
-221 16410 0
-16411 260 261 262 263 0
-260 16411 0
-261 16411 0
-262 16411 0
-263 16411 0
-16412 302 303 304 305 0
-302 16412 0
-303 16412 0
-304 16412 0
-305 16412 0
-16407 16413 0
-16414 0
-16415 0
-16416 0
-16408 16417 0
-16413 16417 0
-16408 -16413 16418 0
-16414 16418 0
-16408 -16414 16419 0
-16415 16419 0
-16408 -16415 16420 0
-16416 16420 0
-16408 -16416 0
-16409 16421 0
-16417 16421 0
-16409 -16417 16422 0
-16418 16422 0
-16409 -16418 16423 0
-16419 16423 0
-16409 -16419 16424 0
-16420 16424 0
-16409 -16420 0
-16410 16425 0
-16421 16425 0
-16410 -16421 16426 0
-16422 16426 0
-16410 -16422 16427 0
-16423 16427 0
-16410 -16423 16428 0
-16424 16428 0
-16410 -16424 0
-16411 16429 0
-16425 16429 0
-16411 -16425 16430 0
-16426 16430 0
-16411 -16426 16431 0
-16427 16431 0
-16411 -16427 16432 0
-16428 16432 0
-16411 -16428 0
-16412 -16432 0
-16437 92 93 94 95 96 0
-92 16437 0
-93 16437 0
-94 16437 0
-95 16437 0
-96 16437 0
-16438 134 135 136 137 138 0
-134 16438 0
-135 16438 0
-136 16438 0
-137 16438 0
-138 16438 0
-16439 176 177 178 179 180 0
-176 16439 0
-177 16439 0
-178 16439 0
-179 16439 0
-180 16439 0
-16440 218 219 220 221 222 0
-218 16440 0
-219 16440 0
-220 16440 0
-221 16440 0
-222 16440 0
-16441 260 261 262 263 264 0
-260 16441 0
-261 16441 0
-262 16441 0
-263 16441 0
-264 16441 0
-16442 302 303 304 305 306 0
-302 16442 0
-303 16442 0
-304 16442 0
-305 16442 0
-306 16442 0
-16437 16443 0
-16444 0
-16445 0
-16446 0
-16447 0
-16438 16448 0
-16443 16448 0
-16438 -16443 16449 0
-16444 16449 0
-16438 -16444 16450 0
-16445 16450 0
-16438 -16445 16451 0
-16446 16451 0
-16438 -16446 16452 0
-16447 16452 0
-16438 -16447 0
-16439 16453 0
-16448 16453 0
-16439 -16448 16454 0
-16449 16454 0
-16439 -16449 16455 0
-16450 16455 0
-16439 -16450 16456 0
-16451 16456 0
-16439 -16451 16457 0
-16452 16457 0
-16439 -16452 0
-16440 16458 0
-16453 16458 0
-16440 -16453 16459 0
-16454 16459 0
-16440 -16454 16460 0
-16455 16460 0
-16440 -16455 16461 0
-16456 16461 0
-16440 -16456 16462 0
-16457 16462 0
-16440 -16457 0
-16441 16463 0
-16458 16463 0
-16441 -16458 16464 0
-16459 16464 0
-16441 -16459 16465 0
-16460 16465 0
-16441 -16460 16466 0
-16461 16466 0
-16441 -16461 16467 0
-16462 16467 0
-16441 -16462 0
-16442 -16467 0
-16473 92 93 94 95 96 97 0
-92 16473 0
-93 16473 0
-94 16473 0
-95 16473 0
-96 16473 0
-97 16473 0
-16474 134 135 136 137 138 139 0
-134 16474 0
-135 16474 0
-136 16474 0
-137 16474 0
-138 16474 0
-139 16474 0
-16475 176 177 178 179 180 181 0
-176 16475 0
-177 16475 0
-178 16475 0
-179 16475 0
-180 16475 0
-181 16475 0
-16476 218 219 220 221 222 223 0
-218 16476 0
-219 16476 0
-220 16476 0
-221 16476 0
-222 16476 0
-223 16476 0
-16477 260 261 262 263 264 265 0
-260 16477 0
-261 16477 0
-262 16477 0
-263 16477 0
-264 16477 0
-265 16477 0
-16478 302 303 304 305 306 307 0
-302 16478 0
-303 16478 0
-304 16478 0
-305 16478 0
-306 16478 0
-307 16478 0
-16479 93 0
-93 16479 0
-16480 135 0
-135 16480 0
-16481 177 0
-177 16481 0
-16482 219 0
-219 16482 0
-16483 261 0
-261 16483 0
-16484 303 0
-303 16484 0
-16479 16485 0
-16480 16486 0
-16485 16486 0
-16480 -16485 0
-16481 16487 0
-16486 16487 0
-16481 -16486 0
-16482 16488 0
-16487 16488 0
-16482 -16487 0
-16483 16489 0
-16488 16489 0
-16483 -16488 0
-16484 -16489 0
-16491 93 94 0
-93 16491 0
-94 16491 0
-16492 135 136 0
-135 16492 0
-136 16492 0
-16493 177 178 0
-177 16493 0
-178 16493 0
-16494 219 220 0
-219 16494 0
-220 16494 0
-16495 261 262 0
-261 16495 0
-262 16495 0
-16496 303 304 0
-303 16496 0
-304 16496 0
-16491 16497 0
-16498 0
-16492 16499 0
-16497 16499 0
-16492 -16497 16500 0
-16498 16500 0
-16492 -16498 0
-16493 16501 0
-16499 16501 0
-16493 -16499 16502 0
-16500 16502 0
-16493 -16500 0
-16494 16503 0
-16501 16503 0
-16494 -16501 16504 0
-16502 16504 0
-16494 -16502 0
-16495 16505 0
-16503 16505 0
-16495 -16503 16506 0
-16504 16506 0
-16495 -16504 0
-16496 -16506 0
-16509 93 94 95 0
-93 16509 0
-94 16509 0
-95 16509 0
-16510 135 136 137 0
-135 16510 0
-136 16510 0
-137 16510 0
-16511 177 178 179 0
-177 16511 0
-178 16511 0
-179 16511 0
-16512 219 220 221 0
-219 16512 0
-220 16512 0
-221 16512 0
-16513 261 262 263 0
-261 16513 0
-262 16513 0
-263 16513 0
-16514 303 304 305 0
-303 16514 0
-304 16514 0
-305 16514 0
-16509 16515 0
-16516 0
-16517 0
-16510 16518 0
-16515 16518 0
-16510 -16515 16519 0
-16516 16519 0
-16510 -16516 16520 0
-16517 16520 0
-16510 -16517 0
-16511 16521 0
-16518 16521 0
-16511 -16518 16522 0
-16519 16522 0
-16511 -16519 16523 0
-16520 16523 0
-16511 -16520 0
-16512 16524 0
-16521 16524 0
-16512 -16521 16525 0
-16522 16525 0
-16512 -16522 16526 0
-16523 16526 0
-16512 -16523 0
-16513 16527 0
-16524 16527 0
-16513 -16524 16528 0
-16525 16528 0
-16513 -16525 16529 0
-16526 16529 0
-16513 -16526 0
-16514 -16529 0
-16533 93 94 95 96 0
-93 16533 0
-94 16533 0
-95 16533 0
-96 16533 0
-16534 135 136 137 138 0
-135 16534 0
-136 16534 0
-137 16534 0
-138 16534 0
-16535 177 178 179 180 0
-177 16535 0
-178 16535 0
-179 16535 0
-180 16535 0
-16536 219 220 221 222 0
-219 16536 0
-220 16536 0
-221 16536 0
-222 16536 0
-16537 261 262 263 264 0
-261 16537 0
-262 16537 0
-263 16537 0
-264 16537 0
-16538 303 304 305 306 0
-303 16538 0
-304 16538 0
-305 16538 0
-306 16538 0
-16533 16539 0
-16540 0
-16541 0
-16542 0
-16534 16543 0
-16539 16543 0
-16534 -16539 16544 0
-16540 16544 0
-16534 -16540 16545 0
-16541 16545 0
-16534 -16541 16546 0
-16542 16546 0
-16534 -16542 0
-16535 16547 0
-16543 16547 0
-16535 -16543 16548 0
-16544 16548 0
-16535 -16544 16549 0
-16545 16549 0
-16535 -16545 16550 0
-16546 16550 0
-16535 -16546 0
-16536 16551 0
-16547 16551 0
-16536 -16547 16552 0
-16548 16552 0
-16536 -16548 16553 0
-16549 16553 0
-16536 -16549 16554 0
-16550 16554 0
-16536 -16550 0
-16537 16555 0
-16551 16555 0
-16537 -16551 16556 0
-16552 16556 0
-16537 -16552 16557 0
-16553 16557 0
-16537 -16553 16558 0
-16554 16558 0
-16537 -16554 0
-16538 -16558 0
-16563 93 94 95 96 97 0
-93 16563 0
-94 16563 0
-95 16563 0
-96 16563 0
-97 16563 0
-16564 135 136 137 138 139 0
-135 16564 0
-136 16564 0
-137 16564 0
-138 16564 0
-139 16564 0
-16565 177 178 179 180 181 0
-177 16565 0
-178 16565 0
-179 16565 0
-180 16565 0
-181 16565 0
-16566 219 220 221 222 223 0
-219 16566 0
-220 16566 0
-221 16566 0
-222 16566 0
-223 16566 0
-16567 261 262 263 264 265 0
-261 16567 0
-262 16567 0
-263 16567 0
-264 16567 0
-265 16567 0
-16568 303 304 305 306 307 0
-303 16568 0
-304 16568 0
-305 16568 0
-306 16568 0
-307 16568 0
-16563 16569 0
-16570 0
-16571 0
-16572 0
-16573 0
-16564 16574 0
-16569 16574 0
-16564 -16569 16575 0
-16570 16575 0
-16564 -16570 16576 0
-16571 16576 0
-16564 -16571 16577 0
-16572 16577 0
-16564 -16572 16578 0
-16573 16578 0
-16564 -16573 0
-16565 16579 0
-16574 16579 0
-16565 -16574 16580 0
-16575 16580 0
-16565 -16575 16581 0
-16576 16581 0
-16565 -16576 16582 0
-16577 16582 0
-16565 -16577 16583 0
-16578 16583 0
-16565 -16578 0
-16566 16584 0
-16579 16584 0
-16566 -16579 16585 0
-16580 16585 0
-16566 -16580 16586 0
-16581 16586 0
-16566 -16581 16587 0
-16582 16587 0
-16566 -16582 16588 0
-16583 16588 0
-16566 -16583 0
-16567 16589 0
-16584 16589 0
-16567 -16584 16590 0
-16585 16590 0
-16567 -16585 16591 0
-16586 16591 0
-16567 -16586 16592 0
-16587 16592 0
-16567 -16587 16593 0
-16588 16593 0
-16567 -16588 0
-16568 -16593 0
-16599 93 94 95 96 97 98 0
-93 16599 0
-94 16599 0
-95 16599 0
-96 16599 0
-97 16599 0
-98 16599 0
-16600 135 136 137 138 139 140 0
-135 16600 0
-136 16600 0
-137 16600 0
-138 16600 0
-139 16600 0
-140 16600 0
-16601 177 178 179 180 181 182 0
-177 16601 0
-178 16601 0
-179 16601 0
-180 16601 0
-181 16601 0
-182 16601 0
-16602 219 220 221 222 223 224 0
-219 16602 0
-220 16602 0
-221 16602 0
-222 16602 0
-223 16602 0
-224 16602 0
-16603 261 262 263 264 265 266 0
-261 16603 0
-262 16603 0
-263 16603 0
-264 16603 0
-265 16603 0
-266 16603 0
-16604 303 304 305 306 307 308 0
-303 16604 0
-304 16604 0
-305 16604 0
-306 16604 0
-307 16604 0
-308 16604 0
-16605 94 0
-94 16605 0
-16606 136 0
-136 16606 0
-16607 178 0
-178 16607 0
-16608 220 0
-220 16608 0
-16609 262 0
-262 16609 0
-16610 304 0
-304 16610 0
-16605 16611 0
-16606 16612 0
-16611 16612 0
-16606 -16611 0
-16607 16613 0
-16612 16613 0
-16607 -16612 0
-16608 16614 0
-16613 16614 0
-16608 -16613 0
-16609 16615 0
-16614 16615 0
-16609 -16614 0
-16610 -16615 0
-16617 94 95 0
-94 16617 0
-95 16617 0
-16618 136 137 0
-136 16618 0
-137 16618 0
-16619 178 179 0
-178 16619 0
-179 16619 0
-16620 220 221 0
-220 16620 0
-221 16620 0
-16621 262 263 0
-262 16621 0
-263 16621 0
-16622 304 305 0
-304 16622 0
-305 16622 0
-16617 16623 0
-16624 0
-16618 16625 0
-16623 16625 0
-16618 -16623 16626 0
-16624 16626 0
-16618 -16624 0
-16619 16627 0
-16625 16627 0
-16619 -16625 16628 0
-16626 16628 0
-16619 -16626 0
-16620 16629 0
-16627 16629 0
-16620 -16627 16630 0
-16628 16630 0
-16620 -16628 0
-16621 16631 0
-16629 16631 0
-16621 -16629 16632 0
-16630 16632 0
-16621 -16630 0
-16622 -16632 0
-16635 94 95 96 0
-94 16635 0
-95 16635 0
-96 16635 0
-16636 136 137 138 0
-136 16636 0
-137 16636 0
-138 16636 0
-16637 178 179 180 0
-178 16637 0
-179 16637 0
-180 16637 0
-16638 220 221 222 0
-220 16638 0
-221 16638 0
-222 16638 0
-16639 262 263 264 0
-262 16639 0
-263 16639 0
-264 16639 0
-16640 304 305 306 0
-304 16640 0
-305 16640 0
-306 16640 0
-16635 16641 0
-16642 0
-16643 0
-16636 16644 0
-16641 16644 0
-16636 -16641 16645 0
-16642 16645 0
-16636 -16642 16646 0
-16643 16646 0
-16636 -16643 0
-16637 16647 0
-16644 16647 0
-16637 -16644 16648 0
-16645 16648 0
-16637 -16645 16649 0
-16646 16649 0
-16637 -16646 0
-16638 16650 0
-16647 16650 0
-16638 -16647 16651 0
-16648 16651 0
-16638 -16648 16652 0
-16649 16652 0
-16638 -16649 0
-16639 16653 0
-16650 16653 0
-16639 -16650 16654 0
-16651 16654 0
-16639 -16651 16655 0
-16652 16655 0
-16639 -16652 0
-16640 -16655 0
-16659 94 95 96 97 0
-94 16659 0
-95 16659 0
-96 16659 0
-97 16659 0
-16660 136 137 138 139 0
-136 16660 0
-137 16660 0
-138 16660 0
-139 16660 0
-16661 178 179 180 181 0
-178 16661 0
-179 16661 0
-180 16661 0
-181 16661 0
-16662 220 221 222 223 0
-220 16662 0
-221 16662 0
-222 16662 0
-223 16662 0
-16663 262 263 264 265 0
-262 16663 0
-263 16663 0
-264 16663 0
-265 16663 0
-16664 304 305 306 307 0
-304 16664 0
-305 16664 0
-306 16664 0
-307 16664 0
-16659 16665 0
-16666 0
-16667 0
-16668 0
-16660 16669 0
-16665 16669 0
-16660 -16665 16670 0
-16666 16670 0
-16660 -16666 16671 0
-16667 16671 0
-16660 -16667 16672 0
-16668 16672 0
-16660 -16668 0
-16661 16673 0
-16669 16673 0
-16661 -16669 16674 0
-16670 16674 0
-16661 -16670 16675 0
-16671 16675 0
-16661 -16671 16676 0
-16672 16676 0
-16661 -16672 0
-16662 16677 0
-16673 16677 0
-16662 -16673 16678 0
-16674 16678 0
-16662 -16674 16679 0
-16675 16679 0
-16662 -16675 16680 0
-16676 16680 0
-16662 -16676 0
-16663 16681 0
-16677 16681 0
-16663 -16677 16682 0
-16678 16682 0
-16663 -16678 16683 0
-16679 16683 0
-16663 -16679 16684 0
-16680 16684 0
-16663 -16680 0
-16664 -16684 0
-16689 94 95 96 97 98 0
-94 16689 0
-95 16689 0
-96 16689 0
-97 16689 0
-98 16689 0
-16690 136 137 138 139 140 0
-136 16690 0
-137 16690 0
-138 16690 0
-139 16690 0
-140 16690 0
-16691 178 179 180 181 182 0
-178 16691 0
-179 16691 0
-180 16691 0
-181 16691 0
-182 16691 0
-16692 220 221 222 223 224 0
-220 16692 0
-221 16692 0
-222 16692 0
-223 16692 0
-224 16692 0
-16693 262 263 264 265 266 0
-262 16693 0
-263 16693 0
-264 16693 0
-265 16693 0
-266 16693 0
-16694 304 305 306 307 308 0
-304 16694 0
-305 16694 0
-306 16694 0
-307 16694 0
-308 16694 0
-16689 16695 0
-16696 0
-16697 0
-16698 0
-16699 0
-16690 16700 0
-16695 16700 0
-16690 -16695 16701 0
-16696 16701 0
-16690 -16696 16702 0
-16697 16702 0
-16690 -16697 16703 0
-16698 16703 0
-16690 -16698 16704 0
-16699 16704 0
-16690 -16699 0
-16691 16705 0
-16700 16705 0
-16691 -16700 16706 0
-16701 16706 0
-16691 -16701 16707 0
-16702 16707 0
-16691 -16702 16708 0
-16703 16708 0
-16691 -16703 16709 0
-16704 16709 0
-16691 -16704 0
-16692 16710 0
-16705 16710 0
-16692 -16705 16711 0
-16706 16711 0
-16692 -16706 16712 0
-16707 16712 0
-16692 -16707 16713 0
-16708 16713 0
-16692 -16708 16714 0
-16709 16714 0
-16692 -16709 0
-16693 16715 0
-16710 16715 0
-16693 -16710 16716 0
-16711 16716 0
-16693 -16711 16717 0
-16712 16717 0
-16693 -16712 16718 0
-16713 16718 0
-16693 -16713 16719 0
-16714 16719 0
-16693 -16714 0
-16694 -16719 0
-16725 95 0
-95 16725 0
-16726 137 0
-137 16726 0
-16727 179 0
-179 16727 0
-16728 221 0
-221 16728 0
-16729 263 0
-263 16729 0
-16730 305 0
-305 16730 0
-16725 16731 0
-16726 16732 0
-16731 16732 0
-16726 -16731 0
-16727 16733 0
-16732 16733 0
-16727 -16732 0
-16728 16734 0
-16733 16734 0
-16728 -16733 0
-16729 16735 0
-16734 16735 0
-16729 -16734 0
-16730 -16735 0
-16737 95 96 0
-95 16737 0
-96 16737 0
-16738 137 138 0
-137 16738 0
-138 16738 0
-16739 179 180 0
-179 16739 0
-180 16739 0
-16740 221 222 0
-221 16740 0
-222 16740 0
-16741 263 264 0
-263 16741 0
-264 16741 0
-16742 305 306 0
-305 16742 0
-306 16742 0
-16737 16743 0
-16744 0
-16738 16745 0
-16743 16745 0
-16738 -16743 16746 0
-16744 16746 0
-16738 -16744 0
-16739 16747 0
-16745 16747 0
-16739 -16745 16748 0
-16746 16748 0
-16739 -16746 0
-16740 16749 0
-16747 16749 0
-16740 -16747 16750 0
-16748 16750 0
-16740 -16748 0
-16741 16751 0
-16749 16751 0
-16741 -16749 16752 0
-16750 16752 0
-16741 -16750 0
-16742 -16752 0
-16755 95 96 97 0
-95 16755 0
-96 16755 0
-97 16755 0
-16756 137 138 139 0
-137 16756 0
-138 16756 0
-139 16756 0
-16757 179 180 181 0
-179 16757 0
-180 16757 0
-181 16757 0
-16758 221 222 223 0
-221 16758 0
-222 16758 0
-223 16758 0
-16759 263 264 265 0
-263 16759 0
-264 16759 0
-265 16759 0
-16760 305 306 307 0
-305 16760 0
-306 16760 0
-307 16760 0
-16755 16761 0
-16762 0
-16763 0
-16756 16764 0
-16761 16764 0
-16756 -16761 16765 0
-16762 16765 0
-16756 -16762 16766 0
-16763 16766 0
-16756 -16763 0
-16757 16767 0
-16764 16767 0
-16757 -16764 16768 0
-16765 16768 0
-16757 -16765 16769 0
-16766 16769 0
-16757 -16766 0
-16758 16770 0
-16767 16770 0
-16758 -16767 16771 0
-16768 16771 0
-16758 -16768 16772 0
-16769 16772 0
-16758 -16769 0
-16759 16773 0
-16770 16773 0
-16759 -16770 16774 0
-16771 16774 0
-16759 -16771 16775 0
-16772 16775 0
-16759 -16772 0
-16760 -16775 0
-16779 95 96 97 98 0
-95 16779 0
-96 16779 0
-97 16779 0
-98 16779 0
-16780 137 138 139 140 0
-137 16780 0
-138 16780 0
-139 16780 0
-140 16780 0
-16781 179 180 181 182 0
-179 16781 0
-180 16781 0
-181 16781 0
-182 16781 0
-16782 221 222 223 224 0
-221 16782 0
-222 16782 0
-223 16782 0
-224 16782 0
-16783 263 264 265 266 0
-263 16783 0
-264 16783 0
-265 16783 0
-266 16783 0
-16784 305 306 307 308 0
-305 16784 0
-306 16784 0
-307 16784 0
-308 16784 0
-16779 16785 0
-16786 0
-16787 0
-16788 0
-16780 16789 0
-16785 16789 0
-16780 -16785 16790 0
-16786 16790 0
-16780 -16786 16791 0
-16787 16791 0
-16780 -16787 16792 0
-16788 16792 0
-16780 -16788 0
-16781 16793 0
-16789 16793 0
-16781 -16789 16794 0
-16790 16794 0
-16781 -16790 16795 0
-16791 16795 0
-16781 -16791 16796 0
-16792 16796 0
-16781 -16792 0
-16782 16797 0
-16793 16797 0
-16782 -16793 16798 0
-16794 16798 0
-16782 -16794 16799 0
-16795 16799 0
-16782 -16795 16800 0
-16796 16800 0
-16782 -16796 0
-16783 16801 0
-16797 16801 0
-16783 -16797 16802 0
-16798 16802 0
-16783 -16798 16803 0
-16799 16803 0
-16783 -16799 16804 0
-16800 16804 0
-16783 -16800 0
-16784 -16804 0
-16809 96 0
-96 16809 0
-16810 138 0
-138 16810 0
-16811 180 0
-180 16811 0
-16812 222 0
-222 16812 0
-16813 264 0
-264 16813 0
-16814 306 0
-306 16814 0
-16809 16815 0
-16810 16816 0
-16815 16816 0
-16810 -16815 0
-16811 16817 0
-16816 16817 0
-16811 -16816 0
-16812 16818 0
-16817 16818 0
-16812 -16817 0
-16813 16819 0
-16818 16819 0
-16813 -16818 0
-16814 -16819 0
-16821 96 97 0
-96 16821 0
-97 16821 0
-16822 138 139 0
-138 16822 0
-139 16822 0
-16823 180 181 0
-180 16823 0
-181 16823 0
-16824 222 223 0
-222 16824 0
-223 16824 0
-16825 264 265 0
-264 16825 0
-265 16825 0
-16826 306 307 0
-306 16826 0
-307 16826 0
-16821 16827 0
-16828 0
-16822 16829 0
-16827 16829 0
-16822 -16827 16830 0
-16828 16830 0
-16822 -16828 0
-16823 16831 0
-16829 16831 0
-16823 -16829 16832 0
-16830 16832 0
-16823 -16830 0
-16824 16833 0
-16831 16833 0
-16824 -16831 16834 0
-16832 16834 0
-16824 -16832 0
-16825 16835 0
-16833 16835 0
-16825 -16833 16836 0
-16834 16836 0
-16825 -16834 0
-16826 -16836 0
-16839 96 97 98 0
-96 16839 0
-97 16839 0
-98 16839 0
-16840 138 139 140 0
-138 16840 0
-139 16840 0
-140 16840 0
-16841 180 181 182 0
-180 16841 0
-181 16841 0
-182 16841 0
-16842 222 223 224 0
-222 16842 0
-223 16842 0
-224 16842 0
-16843 264 265 266 0
-264 16843 0
-265 16843 0
-266 16843 0
-16844 306 307 308 0
-306 16844 0
-307 16844 0
-308 16844 0
-16839 16845 0
-16846 0
-16847 0
-16840 16848 0
-16845 16848 0
-16840 -16845 16849 0
-16846 16849 0
-16840 -16846 16850 0
-16847 16850 0
-16840 -16847 0
-16841 16851 0
-16848 16851 0
-16841 -16848 16852 0
-16849 16852 0
-16841 -16849 16853 0
-16850 16853 0
-16841 -16850 0
-16842 16854 0
-16851 16854 0
-16842 -16851 16855 0
-16852 16855 0
-16842 -16852 16856 0
-16853 16856 0
-16842 -16853 0
-16843 16857 0
-16854 16857 0
-16843 -16854 16858 0
-16855 16858 0
-16843 -16855 16859 0
-16856 16859 0
-16843 -16856 0
-16844 -16859 0
-16863 97 0
-97 16863 0
-16864 139 0
-139 16864 0
-16865 181 0
-181 16865 0
-16866 223 0
-223 16866 0
-16867 265 0
-265 16867 0
-16868 307 0
-307 16868 0
-16863 16869 0
-16864 16870 0
-16869 16870 0
-16864 -16869 0
-16865 16871 0
-16870 16871 0
-16865 -16870 0
-16866 16872 0
-16871 16872 0
-16866 -16871 0
-16867 16873 0
-16872 16873 0
-16867 -16872 0
-16868 -16873 0
-16875 97 98 0
-97 16875 0
-98 16875 0
-16876 139 140 0
-139 16876 0
-140 16876 0
-16877 181 182 0
-181 16877 0
-182 16877 0
-16878 223 224 0
-223 16878 0
-224 16878 0
-16879 265 266 0
-265 16879 0
-266 16879 0
-16880 307 308 0
-307 16880 0
-308 16880 0
-16875 16881 0
-16882 0
-16876 16883 0
-16881 16883 0
-16876 -16881 16884 0
-16882 16884 0
-16876 -16882 0
-16877 16885 0
-16883 16885 0
-16877 -16883 16886 0
-16884 16886 0
-16877 -16884 0
-16878 16887 0
-16885 16887 0
-16878 -16885 16888 0
-16886 16888 0
-16878 -16886 0
-16879 16889 0
-16887 16889 0
-16879 -16887 16890 0
-16888 16890 0
-16879 -16888 0
-16880 -16890 0
-16893 98 0
-98 16893 0
-16894 140 0
-140 16894 0
-16895 182 0
-182 16895 0
-16896 224 0
-224 16896 0
-16897 266 0
-266 16897 0
-16898 308 0
-308 16898 0
-16893 16899 0
-16894 16900 0
-16899 16900 0
-16894 -16899 0
-16895 16901 0
-16900 16901 0
-16895 -16900 0
-16896 16902 0
-16901 16902 0
-16896 -16901 0
-16897 16903 0
-16902 16903 0
-16897 -16902 0
-16898 -16903 0
-16905 141 0
-141 16905 0
-16906 183 0
-183 16906 0
-16907 225 0
-225 16907 0
-16908 267 0
-267 16908 0
-16909 309 0
-309 16909 0
-16905 16910 0
-16906 16911 0
-16910 16911 0
-16906 -16910 0
-16907 16912 0
-16911 16912 0
-16907 -16911 0
-16908 16913 0
-16912 16913 0
-16908 -16912 0
-16909 -16913 0
-16915 141 142 0
-141 16915 0
-142 16915 0
-16916 183 184 0
-183 16916 0
-184 16916 0
-16917 225 226 0
-225 16917 0
-226 16917 0
-16918 267 268 0
-267 16918 0
-268 16918 0
-16919 309 310 0
-309 16919 0
-310 16919 0
-16915 16920 0
-16921 0
-16916 16922 0
-16920 16922 0
-16916 -16920 16923 0
-16921 16923 0
-16916 -16921 0
-16917 16924 0
-16922 16924 0
-16917 -16922 16925 0
-16923 16925 0
-16917 -16923 0
-16918 16926 0
-16924 16926 0
-16918 -16924 16927 0
-16925 16927 0
-16918 -16925 0
-16919 -16927 0
-16930 141 142 143 0
-141 16930 0
-142 16930 0
-143 16930 0
-16931 183 184 185 0
-183 16931 0
-184 16931 0
-185 16931 0
-16932 225 226 227 0
-225 16932 0
-226 16932 0
-227 16932 0
-16933 267 268 269 0
-267 16933 0
-268 16933 0
-269 16933 0
-16934 309 310 311 0
-309 16934 0
-310 16934 0
-311 16934 0
-16930 16935 0
-16936 0
-16937 0
-16931 16938 0
-16935 16938 0
-16931 -16935 16939 0
-16936 16939 0
-16931 -16936 16940 0
-16937 16940 0
-16931 -16937 0
-16932 16941 0
-16938 16941 0
-16932 -16938 16942 0
-16939 16942 0
-16932 -16939 16943 0
-16940 16943 0
-16932 -16940 0
-16933 16944 0
-16941 16944 0
-16933 -16941 16945 0
-16942 16945 0
-16933 -16942 16946 0
-16943 16946 0
-16933 -16943 0
-16934 -16946 0
-16950 141 142 143 144 0
-141 16950 0
-142 16950 0
-143 16950 0
-144 16950 0
-16951 183 184 185 186 0
-183 16951 0
-184 16951 0
-185 16951 0
-186 16951 0
-16952 225 226 227 228 0
-225 16952 0
-226 16952 0
-227 16952 0
-228 16952 0
-16953 267 268 269 270 0
-267 16953 0
-268 16953 0
-269 16953 0
-270 16953 0
-16954 309 310 311 312 0
-309 16954 0
-310 16954 0
-311 16954 0
-312 16954 0
-16950 16955 0
-16956 0
-16957 0
-16958 0
-16951 16959 0
-16955 16959 0
-16951 -16955 16960 0
-16956 16960 0
-16951 -16956 16961 0
-16957 16961 0
-16951 -16957 16962 0
-16958 16962 0
-16951 -16958 0
-16952 16963 0
-16959 16963 0
-16952 -16959 16964 0
-16960 16964 0
-16952 -16960 16965 0
-16961 16965 0
-16952 -16961 16966 0
-16962 16966 0
-16952 -16962 0
-16953 16967 0
-16963 16967 0
-16953 -16963 16968 0
-16964 16968 0
-16953 -16964 16969 0
-16965 16969 0
-16953 -16965 16970 0
-16966 16970 0
-16953 -16966 0
-16954 -16970 0
-16975 141 142 143 144 145 0
-141 16975 0
-142 16975 0
-143 16975 0
-144 16975 0
-145 16975 0
-16976 183 184 185 186 187 0
-183 16976 0
-184 16976 0
-185 16976 0
-186 16976 0
-187 16976 0
-16977 225 226 227 228 229 0
-225 16977 0
-226 16977 0
-227 16977 0
-228 16977 0
-229 16977 0
-16978 267 268 269 270 271 0
-267 16978 0
-268 16978 0
-269 16978 0
-270 16978 0
-271 16978 0
-16979 309 310 311 312 313 0
-309 16979 0
-310 16979 0
-311 16979 0
-312 16979 0
-313 16979 0
-16980 142 0
-142 16980 0
-16981 184 0
-184 16981 0
-16982 226 0
-226 16982 0
-16983 268 0
-268 16983 0
-16984 310 0
-310 16984 0
-16980 16985 0
-16981 16986 0
-16985 16986 0
-16981 -16985 0
-16982 16987 0
-16986 16987 0
-16982 -16986 0
-16983 16988 0
-16987 16988 0
-16983 -16987 0
-16984 -16988 0
-16990 142 143 0
-142 16990 0
-143 16990 0
-16991 184 185 0
-184 16991 0
-185 16991 0
-16992 226 227 0
-226 16992 0
-227 16992 0
-16993 268 269 0
-268 16993 0
-269 16993 0
-16994 310 311 0
-310 16994 0
-311 16994 0
-16990 16995 0
-16996 0
-16991 16997 0
-16995 16997 0
-16991 -16995 16998 0
-16996 16998 0
-16991 -16996 0
-16992 16999 0
-16997 16999 0
-16992 -16997 17000 0
-16998 17000 0
-16992 -16998 0
-16993 17001 0
-16999 17001 0
-16993 -16999 17002 0
-17000 17002 0
-16993 -17000 0
-16994 -17002 0
-17005 142 143 144 0
-142 17005 0
-143 17005 0
-144 17005 0
-17006 184 185 186 0
-184 17006 0
-185 17006 0
-186 17006 0
-17007 226 227 228 0
-226 17007 0
-227 17007 0
-228 17007 0
-17008 268 269 270 0
-268 17008 0
-269 17008 0
-270 17008 0
-17009 310 311 312 0
-310 17009 0
-311 17009 0
-312 17009 0
-17005 17010 0
-17011 0
-17012 0
-17006 17013 0
-17010 17013 0
-17006 -17010 17014 0
-17011 17014 0
-17006 -17011 17015 0
-17012 17015 0
-17006 -17012 0
-17007 17016 0
-17013 17016 0
-17007 -17013 17017 0
-17014 17017 0
-17007 -17014 17018 0
-17015 17018 0
-17007 -17015 0
-17008 17019 0
-17016 17019 0
-17008 -17016 17020 0
-17017 17020 0
-17008 -17017 17021 0
-17018 17021 0
-17008 -17018 0
-17009 -17021 0
-17025 142 143 144 145 0
-142 17025 0
-143 17025 0
-144 17025 0
-145 17025 0
-17026 184 185 186 187 0
-184 17026 0
-185 17026 0
-186 17026 0
-187 17026 0
-17027 226 227 228 229 0
-226 17027 0
-227 17027 0
-228 17027 0
-229 17027 0
-17028 268 269 270 271 0
-268 17028 0
-269 17028 0
-270 17028 0
-271 17028 0
-17029 310 311 312 313 0
-310 17029 0
-311 17029 0
-312 17029 0
-313 17029 0
-17025 17030 0
-17031 0
-17032 0
-17033 0
-17026 17034 0
-17030 17034 0
-17026 -17030 17035 0
-17031 17035 0
-17026 -17031 17036 0
-17032 17036 0
-17026 -17032 17037 0
-17033 17037 0
-17026 -17033 0
-17027 17038 0
-17034 17038 0
-17027 -17034 17039 0
-17035 17039 0
-17027 -17035 17040 0
-17036 17040 0
-17027 -17036 17041 0
-17037 17041 0
-17027 -17037 0
-17028 17042 0
-17038 17042 0
-17028 -17038 17043 0
-17039 17043 0
-17028 -17039 17044 0
-17040 17044 0
-17028 -17040 17045 0
-17041 17045 0
-17028 -17041 0
-17029 -17045 0
-17050 142 143 144 145 146 0
-142 17050 0
-143 17050 0
-144 17050 0
-145 17050 0
-146 17050 0
-17051 184 185 186 187 188 0
-184 17051 0
-185 17051 0
-186 17051 0
-187 17051 0
-188 17051 0
-17052 226 227 228 229 230 0
-226 17052 0
-227 17052 0
-228 17052 0
-229 17052 0
-230 17052 0
-17053 268 269 270 271 272 0
-268 17053 0
-269 17053 0
-270 17053 0
-271 17053 0
-272 17053 0
-17054 310 311 312 313 314 0
-310 17054 0
-311 17054 0
-312 17054 0
-313 17054 0
-314 17054 0
-17055 143 0
-143 17055 0
-17056 185 0
-185 17056 0
-17057 227 0
-227 17057 0
-17058 269 0
-269 17058 0
-17059 311 0
-311 17059 0
-17055 17060 0
-17056 17061 0
-17060 17061 0
-17056 -17060 0
-17057 17062 0
-17061 17062 0
-17057 -17061 0
-17058 17063 0
-17062 17063 0
-17058 -17062 0
-17059 -17063 0
-17065 143 144 0
-143 17065 0
-144 17065 0
-17066 185 186 0
-185 17066 0
-186 17066 0
-17067 227 228 0
-227 17067 0
-228 17067 0
-17068 269 270 0
-269 17068 0
-270 17068 0
-17069 311 312 0
-311 17069 0
-312 17069 0
-17065 17070 0
-17071 0
-17066 17072 0
-17070 17072 0
-17066 -17070 17073 0
-17071 17073 0
-17066 -17071 0
-17067 17074 0
-17072 17074 0
-17067 -17072 17075 0
-17073 17075 0
-17067 -17073 0
-17068 17076 0
-17074 17076 0
-17068 -17074 17077 0
-17075 17077 0
-17068 -17075 0
-17069 -17077 0
-17080 143 144 145 0
-143 17080 0
-144 17080 0
-145 17080 0
-17081 185 186 187 0
-185 17081 0
-186 17081 0
-187 17081 0
-17082 227 228 229 0
-227 17082 0
-228 17082 0
-229 17082 0
-17083 269 270 271 0
-269 17083 0
-270 17083 0
-271 17083 0
-17084 311 312 313 0
-311 17084 0
-312 17084 0
-313 17084 0
-17080 17085 0
-17086 0
-17087 0
-17081 17088 0
-17085 17088 0
-17081 -17085 17089 0
-17086 17089 0
-17081 -17086 17090 0
-17087 17090 0
-17081 -17087 0
-17082 17091 0
-17088 17091 0
-17082 -17088 17092 0
-17089 17092 0
-17082 -17089 17093 0
-17090 17093 0
-17082 -17090 0
-17083 17094 0
-17091 17094 0
-17083 -17091 17095 0
-17092 17095 0
-17083 -17092 17096 0
-17093 17096 0
-17083 -17093 0
-17084 -17096 0
-17100 143 144 145 146 0
-143 17100 0
-144 17100 0
-145 17100 0
-146 17100 0
-17101 185 186 187 188 0
-185 17101 0
-186 17101 0
-187 17101 0
-188 17101 0
-17102 227 228 229 230 0
-227 17102 0
-228 17102 0
-229 17102 0
-230 17102 0
-17103 269 270 271 272 0
-269 17103 0
-270 17103 0
-271 17103 0
-272 17103 0
-17104 311 312 313 314 0
-311 17104 0
-312 17104 0
-313 17104 0
-314 17104 0
-17100 17105 0
-17106 0
-17107 0
-17108 0
-17101 17109 0
-17105 17109 0
-17101 -17105 17110 0
-17106 17110 0
-17101 -17106 17111 0
-17107 17111 0
-17101 -17107 17112 0
-17108 17112 0
-17101 -17108 0
-17102 17113 0
-17109 17113 0
-17102 -17109 17114 0
-17110 17114 0
-17102 -17110 17115 0
-17111 17115 0
-17102 -17111 17116 0
-17112 17116 0
-17102 -17112 0
-17103 17117 0
-17113 17117 0
-17103 -17113 17118 0
-17114 17118 0
-17103 -17114 17119 0
-17115 17119 0
-17103 -17115 17120 0
-17116 17120 0
-17103 -17116 0
-17104 -17120 0
-17125 143 144 145 146 147 0
-143 17125 0
-144 17125 0
-145 17125 0
-146 17125 0
-147 17125 0
-17126 185 186 187 188 189 0
-185 17126 0
-186 17126 0
-187 17126 0
-188 17126 0
-189 17126 0
-17127 227 228 229 230 231 0
-227 17127 0
-228 17127 0
-229 17127 0
-230 17127 0
-231 17127 0
-17128 269 270 271 272 273 0
-269 17128 0
-270 17128 0
-271 17128 0
-272 17128 0
-273 17128 0
-17129 311 312 313 314 315 0
-311 17129 0
-312 17129 0
-313 17129 0
-314 17129 0
-315 17129 0
-17130 144 0
-144 17130 0
-17131 186 0
-186 17131 0
-17132 228 0
-228 17132 0
-17133 270 0
-270 17133 0
-17134 312 0
-312 17134 0
-17130 17135 0
-17131 17136 0
-17135 17136 0
-17131 -17135 0
-17132 17137 0
-17136 17137 0
-17132 -17136 0
-17133 17138 0
-17137 17138 0
-17133 -17137 0
-17134 -17138 0
-17140 144 145 0
-144 17140 0
-145 17140 0
-17141 186 187 0
-186 17141 0
-187 17141 0
-17142 228 229 0
-228 17142 0
-229 17142 0
-17143 270 271 0
-270 17143 0
-271 17143 0
-17144 312 313 0
-312 17144 0
-313 17144 0
-17140 17145 0
-17146 0
-17141 17147 0
-17145 17147 0
-17141 -17145 17148 0
-17146 17148 0
-17141 -17146 0
-17142 17149 0
-17147 17149 0
-17142 -17147 17150 0
-17148 17150 0
-17142 -17148 0
-17143 17151 0
-17149 17151 0
-17143 -17149 17152 0
-17150 17152 0
-17143 -17150 0
-17144 -17152 0
-17155 144 145 146 0
-144 17155 0
-145 17155 0
-146 17155 0
-17156 186 187 188 0
-186 17156 0
-187 17156 0
-188 17156 0
-17157 228 229 230 0
-228 17157 0
-229 17157 0
-230 17157 0
-17158 270 271 272 0
-270 17158 0
-271 17158 0
-272 17158 0
-17159 312 313 314 0
-312 17159 0
-313 17159 0
-314 17159 0
-17155 17160 0
-17161 0
-17162 0
-17156 17163 0
-17160 17163 0
-17156 -17160 17164 0
-17161 17164 0
-17156 -17161 17165 0
-17162 17165 0
-17156 -17162 0
-17157 17166 0
-17163 17166 0
-17157 -17163 17167 0
-17164 17167 0
-17157 -17164 17168 0
-17165 17168 0
-17157 -17165 0
-17158 17169 0
-17166 17169 0
-17158 -17166 17170 0
-17167 17170 0
-17158 -17167 17171 0
-17168 17171 0
-17158 -17168 0
-17159 -17171 0
-17175 144 145 146 147 0
-144 17175 0
-145 17175 0
-146 17175 0
-147 17175 0
-17176 186 187 188 189 0
-186 17176 0
-187 17176 0
-188 17176 0
-189 17176 0
-17177 228 229 230 231 0
-228 17177 0
-229 17177 0
-230 17177 0
-231 17177 0
-17178 270 271 272 273 0
-270 17178 0
-271 17178 0
-272 17178 0
-273 17178 0
-17179 312 313 314 315 0
-312 17179 0
-313 17179 0
-314 17179 0
-315 17179 0
-17175 17180 0
-17181 0
-17182 0
-17183 0
-17176 17184 0
-17180 17184 0
-17176 -17180 17185 0
-17181 17185 0
-17176 -17181 17186 0
-17182 17186 0
-17176 -17182 17187 0
-17183 17187 0
-17176 -17183 0
-17177 17188 0
-17184 17188 0
-17177 -17184 17189 0
-17185 17189 0
-17177 -17185 17190 0
-17186 17190 0
-17177 -17186 17191 0
-17187 17191 0
-17177 -17187 0
-17178 17192 0
-17188 17192 0
-17178 -17188 17193 0
-17189 17193 0
-17178 -17189 17194 0
-17190 17194 0
-17178 -17190 17195 0
-17191 17195 0
-17178 -17191 0
-17179 -17195 0
-17200 145 0
-145 17200 0
-17201 187 0
-187 17201 0
-17202 229 0
-229 17202 0
-17203 271 0
-271 17203 0
-17204 313 0
-313 17204 0
-17200 17205 0
-17201 17206 0
-17205 17206 0
-17201 -17205 0
-17202 17207 0
-17206 17207 0
-17202 -17206 0
-17203 17208 0
-17207 17208 0
-17203 -17207 0
-17204 -17208 0
-17210 145 146 0
-145 17210 0
-146 17210 0
-17211 187 188 0
-187 17211 0
-188 17211 0
-17212 229 230 0
-229 17212 0
-230 17212 0
-17213 271 272 0
-271 17213 0
-272 17213 0
-17214 313 314 0
-313 17214 0
-314 17214 0
-17210 17215 0
-17216 0
-17211 17217 0
-17215 17217 0
-17211 -17215 17218 0
-17216 17218 0
-17211 -17216 0
-17212 17219 0
-17217 17219 0
-17212 -17217 17220 0
-17218 17220 0
-17212 -17218 0
-17213 17221 0
-17219 17221 0
-17213 -17219 17222 0
-17220 17222 0
-17213 -17220 0
-17214 -17222 0
-17225 145 146 147 0
-145 17225 0
-146 17225 0
-147 17225 0
-17226 187 188 189 0
-187 17226 0
-188 17226 0
-189 17226 0
-17227 229 230 231 0
-229 17227 0
-230 17227 0
-231 17227 0
-17228 271 272 273 0
-271 17228 0
-272 17228 0
-273 17228 0
-17229 313 314 315 0
-313 17229 0
-314 17229 0
-315 17229 0
-17225 17230 0
-17231 0
-17232 0
-17226 17233 0
-17230 17233 0
-17226 -17230 17234 0
-17231 17234 0
-17226 -17231 17235 0
-17232 17235 0
-17226 -17232 0
-17227 17236 0
-17233 17236 0
-17227 -17233 17237 0
-17234 17237 0
-17227 -17234 17238 0
-17235 17238 0
-17227 -17235 0
-17228 17239 0
-17236 17239 0
-17228 -17236 17240 0
-17237 17240 0
-17228 -17237 17241 0
-17238 17241 0
-17228 -17238 0
-17229 -17241 0
-17245 146 0
-146 17245 0
-17246 188 0
-188 17246 0
-17247 230 0
-230 17247 0
-17248 272 0
-272 17248 0
-17249 314 0
-314 17249 0
-17245 17250 0
-17246 17251 0
-17250 17251 0
-17246 -17250 0
-17247 17252 0
-17251 17252 0
-17247 -17251 0
-17248 17253 0
-17252 17253 0
-17248 -17252 0
-17249 -17253 0
-17255 146 147 0
-146 17255 0
-147 17255 0
-17256 188 189 0
-188 17256 0
-189 17256 0
-17257 230 231 0
-230 17257 0
-231 17257 0
-17258 272 273 0
-272 17258 0
-273 17258 0
-17259 314 315 0
-314 17259 0
-315 17259 0
-17255 17260 0
-17261 0
-17256 17262 0
-17260 17262 0
-17256 -17260 17263 0
-17261 17263 0
-17256 -17261 0
-17257 17264 0
-17262 17264 0
-17257 -17262 17265 0
-17263 17265 0
-17257 -17263 0
-17258 17266 0
-17264 17266 0
-17258 -17264 17267 0
-17265 17267 0
-17258 -17265 0
-17259 -17267 0
-17270 147 0
-147 17270 0
-17271 189 0
-189 17271 0
-17272 231 0
-231 17272 0
-17273 273 0
-273 17273 0
-17274 315 0
-315 17274 0
-17270 17275 0
-17271 17276 0
-17275 17276 0
-17271 -17275 0
-17272 17277 0
-17276 17277 0
-17272 -17276 0
-17273 17278 0
-17277 17278 0
-17273 -17277 0
-17274 -17278 0
-17280 190 0
-190 17280 0
-17281 232 0
-232 17281 0
-17282 274 0
-274 17282 0
-17283 316 0
-316 17283 0
-17280 17284 0
-17281 17285 0
-17284 17285 0
-17281 -17284 0
-17282 17286 0
-17285 17286 0
-17282 -17285 0
-17283 -17286 0
-17288 190 191 0
-190 17288 0
-191 17288 0
-17289 232 233 0
-232 17289 0
-233 17289 0
-17290 274 275 0
-274 17290 0
-275 17290 0
-17291 316 317 0
-316 17291 0
-317 17291 0
-17288 17292 0
-17293 0
-17289 17294 0
-17292 17294 0
-17289 -17292 17295 0
-17293 17295 0
-17289 -17293 0
-17290 17296 0
-17294 17296 0
-17290 -17294 17297 0
-17295 17297 0
-17290 -17295 0
-17291 -17297 0
-17300 190 191 192 0
-190 17300 0
-191 17300 0
-192 17300 0
-17301 232 233 234 0
-232 17301 0
-233 17301 0
-234 17301 0
-17302 274 275 276 0
-274 17302 0
-275 17302 0
-276 17302 0
-17303 316 317 318 0
-316 17303 0
-317 17303 0
-318 17303 0
-17300 17304 0
-17305 0
-17306 0
-17301 17307 0
-17304 17307 0
-17301 -17304 17308 0
-17305 17308 0
-17301 -17305 17309 0
-17306 17309 0
-17301 -17306 0
-17302 17310 0
-17307 17310 0
-17302 -17307 17311 0
-17308 17311 0
-17302 -17308 17312 0
-17309 17312 0
-17302 -17309 0
-17303 -17312 0
-17316 190 191 192 193 0
-190 17316 0
-191 17316 0
-192 17316 0
-193 17316 0
-17317 232 233 234 235 0
-232 17317 0
-233 17317 0
-234 17317 0
-235 17317 0
-17318 274 275 276 277 0
-274 17318 0
-275 17318 0
-276 17318 0
-277 17318 0
-17319 316 317 318 319 0
-316 17319 0
-317 17319 0
-318 17319 0
-319 17319 0
-17320 191 0
-191 17320 0
-17321 233 0
-233 17321 0
-17322 275 0
-275 17322 0
-17323 317 0
-317 17323 0
-17320 17324 0
-17321 17325 0
-17324 17325 0
-17321 -17324 0
-17322 17326 0
-17325 17326 0
-17322 -17325 0
-17323 -17326 0
-17328 191 192 0
-191 17328 0
-192 17328 0
-17329 233 234 0
-233 17329 0
-234 17329 0
-17330 275 276 0
-275 17330 0
-276 17330 0
-17331 317 318 0
-317 17331 0
-318 17331 0
-17328 17332 0
-17333 0
-17329 17334 0
-17332 17334 0
-17329 -17332 17335 0
-17333 17335 0
-17329 -17333 0
-17330 17336 0
-17334 17336 0
-17330 -17334 17337 0
-17335 17337 0
-17330 -17335 0
-17331 -17337 0
-17340 191 192 193 0
-191 17340 0
-192 17340 0
-193 17340 0
-17341 233 234 235 0
-233 17341 0
-234 17341 0
-235 17341 0
-17342 275 276 277 0
-275 17342 0
-276 17342 0
-277 17342 0
-17343 317 318 319 0
-317 17343 0
-318 17343 0
-319 17343 0
-17340 17344 0
-17345 0
-17346 0
-17341 17347 0
-17344 17347 0
-17341 -17344 17348 0
-17345 17348 0
-17341 -17345 17349 0
-17346 17349 0
-17341 -17346 0
-17342 17350 0
-17347 17350 0
-17342 -17347 17351 0
-17348 17351 0
-17342 -17348 17352 0
-17349 17352 0
-17342 -17349 0
-17343 -17352 0
-17356 191 192 193 194 0
-191 17356 0
-192 17356 0
-193 17356 0
-194 17356 0
-17357 233 234 235 236 0
-233 17357 0
-234 17357 0
-235 17357 0
-236 17357 0
-17358 275 276 277 278 0
-275 17358 0
-276 17358 0
-277 17358 0
-278 17358 0
-17359 317 318 319 320 0
-317 17359 0
-318 17359 0
-319 17359 0
-320 17359 0
-17360 192 0
-192 17360 0
-17361 234 0
-234 17361 0
-17362 276 0
-276 17362 0
-17363 318 0
-318 17363 0
-17360 17364 0
-17361 17365 0
-17364 17365 0
-17361 -17364 0
-17362 17366 0
-17365 17366 0
-17362 -17365 0
-17363 -17366 0
-17368 192 193 0
-192 17368 0
-193 17368 0
-17369 234 235 0
-234 17369 0
-235 17369 0
-17370 276 277 0
-276 17370 0
-277 17370 0
-17371 318 319 0
-318 17371 0
-319 17371 0
-17368 17372 0
-17373 0
-17369 17374 0
-17372 17374 0
-17369 -17372 17375 0
-17373 17375 0
-17369 -17373 0
-17370 17376 0
-17374 17376 0
-17370 -17374 17377 0
-17375 17377 0
-17370 -17375 0
-17371 -17377 0
-17380 192 193 194 0
-192 17380 0
-193 17380 0
-194 17380 0
-17381 234 235 236 0
-234 17381 0
-235 17381 0
-236 17381 0
-17382 276 277 278 0
-276 17382 0
-277 17382 0
-278 17382 0
-17383 318 319 320 0
-318 17383 0
-319 17383 0
-320 17383 0
-17380 17384 0
-17385 0
-17386 0
-17381 17387 0
-17384 17387 0
-17381 -17384 17388 0
-17385 17388 0
-17381 -17385 17389 0
-17386 17389 0
-17381 -17386 0
-17382 17390 0
-17387 17390 0
-17382 -17387 17391 0
-17388 17391 0
-17382 -17388 17392 0
-17389 17392 0
-17382 -17389 0
-17383 -17392 0
-17396 192 193 194 195 0
-192 17396 0
-193 17396 0
-194 17396 0
-195 17396 0
-17397 234 235 236 237 0
-234 17397 0
-235 17397 0
-236 17397 0
-237 17397 0
-17398 276 277 278 279 0
-276 17398 0
-277 17398 0
-278 17398 0
-279 17398 0
-17399 318 319 320 321 0
-318 17399 0
-319 17399 0
-320 17399 0
-321 17399 0
-17400 193 0
-193 17400 0
-17401 235 0
-235 17401 0
-17402 277 0
-277 17402 0
-17403 319 0
-319 17403 0
-17400 17404 0
-17401 17405 0
-17404 17405 0
-17401 -17404 0
-17402 17406 0
-17405 17406 0
-17402 -17405 0
-17403 -17406 0
-17408 193 194 0
-193 17408 0
-194 17408 0
-17409 235 236 0
-235 17409 0
-236 17409 0
-17410 277 278 0
-277 17410 0
-278 17410 0
-17411 319 320 0
-319 17411 0
-320 17411 0
-17408 17412 0
-17413 0
-17409 17414 0
-17412 17414 0
-17409 -17412 17415 0
-17413 17415 0
-17409 -17413 0
-17410 17416 0
-17414 17416 0
-17410 -17414 17417 0
-17415 17417 0
-17410 -17415 0
-17411 -17417 0
-17420 193 194 195 0
-193 17420 0
-194 17420 0
-195 17420 0
-17421 235 236 237 0
-235 17421 0
-236 17421 0
-237 17421 0
-17422 277 278 279 0
-277 17422 0
-278 17422 0
-279 17422 0
-17423 319 320 321 0
-319 17423 0
-320 17423 0
-321 17423 0
-17420 17424 0
-17425 0
-17426 0
-17421 17427 0
-17424 17427 0
-17421 -17424 17428 0
-17425 17428 0
-17421 -17425 17429 0
-17426 17429 0
-17421 -17426 0
-17422 17430 0
-17427 17430 0
-17422 -17427 17431 0
-17428 17431 0
-17422 -17428 17432 0
-17429 17432 0
-17422 -17429 0
-17423 -17432 0
-17436 193 194 195 196 0
-193 17436 0
-194 17436 0
-195 17436 0
-196 17436 0
-17437 235 236 237 238 0
-235 17437 0
-236 17437 0
-237 17437 0
-238 17437 0
-17438 277 278 279 280 0
-277 17438 0
-278 17438 0
-279 17438 0
-280 17438 0
-17439 319 320 321 322 0
-319 17439 0
-320 17439 0
-321 17439 0
-322 17439 0
-17440 194 0
-194 17440 0
-17441 236 0
-236 17441 0
-17442 278 0
-278 17442 0
-17443 320 0
-320 17443 0
-17440 17444 0
-17441 17445 0
-17444 17445 0
-17441 -17444 0
-17442 17446 0
-17445 17446 0
-17442 -17445 0
-17443 -17446 0
-17448 194 195 0
-194 17448 0
-195 17448 0
-17449 236 237 0
-236 17449 0
-237 17449 0
-17450 278 279 0
-278 17450 0
-279 17450 0
-17451 320 321 0
-320 17451 0
-321 17451 0
-17448 17452 0
-17453 0
-17449 17454 0
-17452 17454 0
-17449 -17452 17455 0
-17453 17455 0
-17449 -17453 0
-17450 17456 0
-17454 17456 0
-17450 -17454 17457 0
-17455 17457 0
-17450 -17455 0
-17451 -17457 0
-17460 194 195 196 0
-194 17460 0
-195 17460 0
-196 17460 0
-17461 236 237 238 0
-236 17461 0
-237 17461 0
-238 17461 0
-17462 278 279 280 0
-278 17462 0
-279 17462 0
-280 17462 0
-17463 320 321 322 0
-320 17463 0
-321 17463 0
-322 17463 0
-17460 17464 0
-17465 0
-17466 0
-17461 17467 0
-17464 17467 0
-17461 -17464 17468 0
-17465 17468 0
-17461 -17465 17469 0
-17466 17469 0
-17461 -17466 0
-17462 17470 0
-17467 17470 0
-17462 -17467 17471 0
-17468 17471 0
-17462 -17468 17472 0
-17469 17472 0
-17462 -17469 0
-17463 -17472 0
-17476 195 0
-195 17476 0
-17477 237 0
-237 17477 0
-17478 279 0
-279 17478 0
-17479 321 0
-321 17479 0
-17476 17480 0
-17477 17481 0
-17480 17481 0
-17477 -17480 0
-17478 17482 0
-17481 17482 0
-17478 -17481 0
-17479 -17482 0
-17484 195 196 0
-195 17484 0
-196 17484 0
-17485 237 238 0
-237 17485 0
-238 17485 0
-17486 279 280 0
-279 17486 0
-280 17486 0
-17487 321 322 0
-321 17487 0
-322 17487 0
-17484 17488 0
-17489 0
-17485 17490 0
-17488 17490 0
-17485 -17488 17491 0
-17489 17491 0
-17485 -17489 0
-17486 17492 0
-17490 17492 0
-17486 -17490 17493 0
-17491 17493 0
-17486 -17491 0
-17487 -17493 0
-17496 196 0
-196 17496 0
-17497 238 0
-238 17497 0
-17498 280 0
-280 17498 0
-17499 322 0
-322 17499 0
-17496 17500 0
-17497 17501 0
-17500 17501 0
-17497 -17500 0
-17498 17502 0
-17501 17502 0
-17498 -17501 0
-17499 -17502 0
-17504 239 0
-239 17504 0
-17505 281 0
-281 17505 0
-17506 323 0
-323 17506 0
-17504 17507 0
-17505 17508 0
-17507 17508 0
-17505 -17507 0
-17506 -17508 0
-17510 239 240 0
-239 17510 0
-240 17510 0
-17511 281 282 0
-281 17511 0
-282 17511 0
-17512 323 324 0
-323 17512 0
-324 17512 0
-17510 17513 0
-17514 0
-17511 17515 0
-17513 17515 0
-17511 -17513 17516 0
-17514 17516 0
-17511 -17514 0
-17512 -17516 0
-17519 239 240 241 0
-239 17519 0
-240 17519 0
-241 17519 0
-17520 281 282 283 0
-281 17520 0
-282 17520 0
-283 17520 0
-17521 323 324 325 0
-323 17521 0
-324 17521 0
-325 17521 0
-17522 240 0
-240 17522 0
-17523 282 0
-282 17523 0
-17524 324 0
-324 17524 0
-17522 17525 0
-17523 17526 0
-17525 17526 0
-17523 -17525 0
-17524 -17526 0
-17528 240 241 0
-240 17528 0
-241 17528 0
-17529 282 283 0
-282 17529 0
-283 17529 0
-17530 324 325 0
-324 17530 0
-325 17530 0
-17528 17531 0
-17532 0
-17529 17533 0
-17531 17533 0
-17529 -17531 17534 0
-17532 17534 0
-17529 -17532 0
-17530 -17534 0
-17537 240 241 242 0
-240 17537 0
-241 17537 0
-242 17537 0
-17538 282 283 284 0
-282 17538 0
-283 17538 0
-284 17538 0
-17539 324 325 326 0
-324 17539 0
-325 17539 0
-326 17539 0
-17540 241 0
-241 17540 0
-17541 283 0
-283 17541 0
-17542 325 0
-325 17542 0
-17540 17543 0
-17541 17544 0
-17543 17544 0
-17541 -17543 0
-17542 -17544 0
-17546 241 242 0
-241 17546 0
-242 17546 0
-17547 283 284 0
-283 17547 0
-284 17547 0
-17548 325 326 0
-325 17548 0
-326 17548 0
-17546 17549 0
-17550 0
-17547 17551 0
-17549 17551 0
-17547 -17549 17552 0
-17550 17552 0
-17547 -17550 0
-17548 -17552 0
-17555 241 242 243 0
-241 17555 0
-242 17555 0
-243 17555 0
-17556 283 284 285 0
-283 17556 0
-284 17556 0
-285 17556 0
-17557 325 326 327 0
-325 17557 0
-326 17557 0
-327 17557 0
-17558 242 0
-242 17558 0
-17559 284 0
-284 17559 0
-17560 326 0
-326 17560 0
-17558 17561 0
-17559 17562 0
-17561 17562 0
-17559 -17561 0
-17560 -17562 0
-17564 242 243 0
-242 17564 0
-243 17564 0
-17565 284 285 0
-284 17565 0
-285 17565 0
-17566 326 327 0
-326 17566 0
-327 17566 0
-17564 17567 0
-17568 0
-17565 17569 0
-17567 17569 0
-17565 -17567 17570 0
-17568 17570 0
-17565 -17568 0
-17566 -17570 0
-17573 242 243 244 0
-242 17573 0
-243 17573 0
-244 17573 0
-17574 284 285 286 0
-284 17574 0
-285 17574 0
-286 17574 0
-17575 326 327 328 0
-326 17575 0
-327 17575 0
-328 17575 0
-17576 243 0
-243 17576 0
-17577 285 0
-285 17577 0
-17578 327 0
-327 17578 0
-17576 17579 0
-17577 17580 0
-17579 17580 0
-17577 -17579 0
-17578 -17580 0
-17582 243 244 0
-243 17582 0
-244 17582 0
-17583 285 286 0
-285 17583 0
-286 17583 0
-17584 327 328 0
-327 17584 0
-328 17584 0
-17582 17585 0
-17586 0
-17583 17587 0
-17585 17587 0
-17583 -17585 17588 0
-17586 17588 0
-17583 -17586 0
-17584 -17588 0
-17591 243 244 245 0
-243 17591 0
-244 17591 0
-245 17591 0
-17592 285 286 287 0
-285 17592 0
-286 17592 0
-287 17592 0
-17593 327 328 329 0
-327 17593 0
-328 17593 0
-329 17593 0
-17594 244 0
-244 17594 0
-17595 286 0
-286 17595 0
-17596 328 0
-328 17596 0
-17594 17597 0
-17595 17598 0
-17597 17598 0
-17595 -17597 0
-17596 -17598 0
-17600 244 245 0
-244 17600 0
-245 17600 0
-17601 286 287 0
-286 17601 0
-287 17601 0
-17602 328 329 0
-328 17602 0
-329 17602 0
-17600 17603 0
-17604 0
-17601 17605 0
-17603 17605 0
-17601 -17603 17606 0
-17604 17606 0
-17601 -17604 0
-17602 -17606 0
-17609 245 0
-245 17609 0
-17610 287 0
-287 17610 0
-17611 329 0
-329 17611 0
-17609 17612 0
-17610 17613 0
-17612 17613 0
-17610 -17612 0
-17611 -17613 0
-17615 288 0
-288 17615 0
-17616 330 0
-330 17616 0
-17615 17617 0
-17616 -17617 0
-17619 288 289 0
-288 17619 0
-289 17619 0
-17620 330 331 0
-330 17620 0
-331 17620 0
-17621 289 0
-289 17621 0
-17622 331 0
-331 17622 0
-17621 17623 0
-17622 -17623 0
-17625 289 290 0
-289 17625 0
-290 17625 0
-17626 331 332 0
-331 17626 0
-332 17626 0
-17627 290 0
-290 17627 0
-17628 332 0
-332 17628 0
-17627 17629 0
-17628 -17629 0
-17631 290 291 0
-290 17631 0
-291 17631 0
-17632 332 333 0
-332 17632 0
-333 17632 0
-17633 291 0
-291 17633 0
-17634 333 0
-333 17634 0
-17633 17635 0
-17634 -17635 0
-17637 291 292 0
-291 17637 0
-292 17637 0
-17638 333 334 0
-333 17638 0
-334 17638 0
-17639 292 0
-292 17639 0
-17640 334 0
-334 17640 0
-17639 17641 0
-17640 -17641 0
-17643 292 293 0
-292 17643 0
-293 17643 0
-17644 334 335 0
-334 17644 0
-335 17644 0
-17645 293 0
-293 17645 0
-17646 335 0
-335 17646 0
-17645 17647 0
-17646 -17647 0
-17649 293 294 0
-293 17649 0
-294 17649 0
-17650 335 336 0
-335 17650 0
-336 17650 0
-17651 294 0
-294 17651 0
-17652 336 0
-336 17652 0
-17651 17653 0
-17652 -17653 0
